  <PP_INFO>

############################################################
#    Opium Parameter File                                  #
############################################################
#-----------------------------------------------------------
#Command line   : ../../../opium ba ba.log all ke rpt upf 
 
#Opium version  : 3.7 
#Compile Host   : onefish 
#Compile OS     : Linux 2.6.37-ARCH Intel(R) Core(TM)2 Duo CPU E7500 @ 2.93GHz 
#Compile Date   : Fri Jul 20 04:33:21 EDT 2012 
#-----------------------------------------------------------
#Execution Host : thidwick 
#Execution Date : Fri May 16 15:35:59 2014
 
#-----------------------------------------------------------
############################################################
[Atom]
       Ba                 # chem symbol
       13                 # norb: number of orbitals
       100 2.00  -13.0   # reference configuration
       200 2.00   -1.4   # reference configuration
       210 6.00   -0.4   # reference configuration
       300 2.00   -0.1   # reference configuration
       310 6.00  -13.0   # reference configuration
       320 10.00   -1.4   # reference configuration
       400 2.00   -0.4   # reference configuration
       410 6.00   -0.1   # reference configuration
       420 10.00   -1.4   # reference configuration 
       500 2.00   -0.1   # reference configuration       
       510 6.00   -0.1   # reference configuration
       520 0.00   -1.4   # reference configuration       
       600 0.00    -1.0

       [Pseudo]
       4  1.85 1.78 1.83 1.81
       opt
    
       [Optinfo]
       7.07  10    # rc[a.u.]  Qc[sqrt(Ry)]  Nb
       7.07  10    # rc[a.u.]  Qc[sqrt(Ry)]  Nb
       7.07  10    # rc[a.u.]  Qc[sqrt(Ry)]  Nb
       7.07  10
      
       [Configs]
       3                 # number of valence configurations
       #
       500 2.00   -1.4   # test configuration
       510 6.00   -0.4   # test configuration
       520 0.00   -0.4   # test configuration     
       600 0.00   -0.4	
       #
       500 2.00   -1.4   # test configuration
       510 6.00   -0.4   # test configuration
       520 0.00   -0.4   # test configuration
       600 1.00   -0.4   
       #
       500 2.00   -1.4   # test configuration
       510 6.00   -0.4   # test configuration
       520 0.00   -0.4   # test configuration
       600 2.00   -0.4  

[XC]
pbesol 

[Relativity]
 srl		 # nrl / srl / frl

[KBdesign]
s                 # local orbital 
1                 # number of aug. operators
au 0.1 1.68  2.05  # unit(gp or au)  left  right  height(Ry)

############################################################
  </PP_INFO>



<PP_HEADER>
   0         Version Number
   Ba        Element
   NC        Norm - Conserving pseudopotential
    F      Nonlinear Core Correction
SLA PW PSX PSC PBEsol    Exchange-Correlation functional 
 10          Z valence
 0          Total energy
 0.000000   0.000000     Suggested cutoff for wfc and rho
 2           Max angular momentum component
 1179           Number of points in mesh
 3  3     Number of Wavefuncitons, Number of Projectors
 Wavefunctions         nl  l   occ
                       S  0  2.000000
                       P  1  6.000000
                       D  2  0.000000
</PP_HEADER>
<PP_MESH>
  <PP_R>
 2.6137897928735510e-05  2.6479908856197243e-05  2.6826394951280417e-05  2.7177414770959773e-05 
 2.7533027638420299e-05  2.7893293653083006e-05  2.8258273700761805e-05  2.8628029463953454e-05 
 2.9002623432261986e-05  2.9382118912959626e-05  2.9766580041685841e-05  3.0156071793286438e-05 
 3.0550659992794470e-05  3.0950411326554807e-05  3.1355393353494342e-05  3.1765674516539457e-05 
 3.2181324154183241e-05  3.2602412512203748e-05  3.3029010755535709e-05  3.3461190980297600e-05 
 3.3899026225976037e-05  3.4342590487769620e-05  3.4791958729094329e-05  3.5247206894252507e-05 
 3.5708411921267554e-05  3.6175651754886760e-05  3.6649005359754091e-05  3.7128552733755407e-05 
 3.7614374921538276e-05  3.8106554028208731e-05  3.8605173233207239e-05  3.9110316804366205e-05 
 3.9622070112151492e-05  4.0140519644090045e-05  4.0665753019386772e-05  4.1197859003732205e-05 
 4.1736927524304156e-05  4.2283049684965636e-05  4.2836317781661629e-05  4.3396825318017300e-05 
 4.3964667021140363e-05  4.4539938857630198e-05  4.5122738049796293e-05  4.5713163092089287e-05 
 4.6311313767746591e-05  4.6917291165656050e-05  4.7531197697440202e-05  4.8153137114764073e-05 
 4.8783214526869458e-05  4.9421536418338696e-05  5.0068210667090640e-05  5.0723346562612492e-05 
 5.1387054824429902e-05  5.2059447620818806e-05  5.2740638587762151e-05  5.3430742848154647e-05 
 5.4129877031258811e-05  5.4838159292415608e-05  5.5555709333012947e-05  5.6282648420715573e-05 
 5.7019099409959401e-05  5.7765186762714492e-05  5.8521036569519207e-05  5.9286776570789906e-05 
 6.0062536178409325e-05  6.0848446497597546e-05  6.1644640349069053e-05  6.2451252291479811e-05 
 6.3268418644167785e-05  6.4096277510191589e-05  6.4934968799669962e-05  6.5784634253426979e-05 
 6.6645417466946628e-05  6.7517463914640722e-05  6.8400920974434487e-05  6.9295937952673747e-05 
 7.0202666109358037e-05  7.1121258683703959e-05  7.2051870920042957e-05  7.2994660094057810e-05 
 7.3949785539362893e-05  7.4917408674431794e-05  7.5897693029877337e-05  7.6890804276088780e-05 
 7.7896910251230443e-05  7.8916180989606821e-05  7.9948788750398506e-05  8.0994908046774861e-05 
 8.2054715675386843e-05  8.3128390746246131e-05  8.4216114712995133e-05  8.5318071403573143e-05 
 8.6434447051283612e-05  8.7565430326268088e-05  8.8711212367391913e-05  8.9871986814547104e-05 
 9.1047949841378034e-05  9.2239300188435018e-05  9.3446239196762291e-05  9.4668970841924914e-05 
 9.5907701768481137e-05  9.7162641324905836e-05  9.8434001598970942e-05  9.9721997453588790e-05 
 1.0102684656312421e-04  1.0234876945018247e-04  1.0368798952287779e-04  1.0504473311258993e-04 
 1.0641922951221471e-04  1.0781171101491510e-04  1.0922241295337934e-04  1.1065157373959260e-04 
 1.1209943490512930e-04  1.1356624114197246e-04  1.1505224034386736e-04  1.1655768364821574e-04 
 1.1808282547851924e-04  1.1962792358737714e-04  1.2119323910004733e-04  1.2277903655857710e-04 
 1.2438558396651121e-04  1.2601315283418551e-04  1.2766201822461218e-04  1.2933245879996676e-04 
 1.3102475686868230e-04  1.3273919843316022e-04  1.3447607323810551e-04  1.3623567481949408e-04 
 1.3801830055418124e-04  1.3982425171015896e-04  1.4165383349747096e-04  1.4350735511979383e-04 
 1.4538512982669350e-04  1.4728747496656438e-04  1.4921471204026307e-04  1.5116716675544201e-04 
 1.5314516908159515e-04  1.5514905330582331e-04  1.5717915808932995e-04  1.5923582652465547e-04 
 1.6131940619366013e-04  1.6343024922626731e-04  1.6556871235997358e-04  1.6773515700013820e-04 
 1.6992994928106178e-04  1.7215346012786355e-04  1.7440606531916883e-04  1.7668814555061633e-04 
 1.7900008649919679e-04  1.8134227888843313e-04  1.8371511855441394e-04  1.8611900651269004e-04 
 1.8855434902604801e-04  1.9102155767316900e-04  1.9352104941818652e-04  1.9605324668115474e-04 
 1.9861857740943755e-04  2.0121747515003402e-04  2.0385037912284791e-04  2.0651773429491716e-04 
 2.0921999145561443e-04  2.1195760729283153e-04  2.1473104447016072e-04  2.1754077170508604e-04 
 2.2038726384819761e-04  2.2327100196344252e-04  2.2619247340942582e-04  2.2915217192177528e-04 
 2.3215059769658388e-04  2.3518825747494428e-04  2.3826566462858856e-04  2.4138333924665040e-04 
 2.4454180822356059e-04  2.4774160534809397e-04  2.5098327139357995e-04  2.5426735420929592e-04 
 2.5759440881305414e-04  2.6096499748500137e-04  2.6437968986264549e-04  2.6783906303712567e-04 
 2.7134370165074202e-04  2.7489419799576158e-04  2.7849115211451718e-04  2.8213517190081610e-04 
 2.8582687320267514e-04  2.8956687992640111e-04  2.9335582414203183e-04  2.9719434619015806e-04 
 3.0108309479014145e-04  3.0502272714975128e-04  3.0901390907623298e-04  3.1305731508883192e-04 
 3.1715362853278721e-04  3.2130354169482083e-04  3.2550775592013443e-04  3.2976698173093841e-04 
 3.3408193894653247e-04  3.3845335680495565e-04  3.4288197408623063e-04  3.4736853923721843e-04 
 3.5191381049810827e-04  3.5651855603056095e-04  3.6118355404753149e-04  3.6590959294478792e-04 
 3.7069747143415215e-04  3.7554799867848480e-04  3.8046199442843452e-04  3.8544028916097898e-04 
 3.9048372421977682e-04  3.9559315195735704e-04  4.0076943587916787e-04  4.0601345078951232e-04 
 4.1132608293939146e-04  4.1670823017628315e-04  4.2216080209588085e-04  4.2768472019581602e-04 
 4.3328091803139529e-04  4.3895034137337240e-04  4.4469394836778612e-04  4.5051270969788837e-04 
 4.5640760874819344e-04  4.6237964177067112e-04  4.6842981805311637e-04  4.7455916008972115e-04 
 4.8076870375387751e-04  4.8705949847324432e-04  4.9343260740710186e-04  4.9988910762602875e-04 
 5.0643009029392868e-04  5.1305666085244082e-04  5.1976993920776159e-04  5.2657105991991114e-04 
 5.3346117239447754e-04  5.4044144107686742e-04  5.4751304564910235e-04  5.5467718122918590e-04 
 5.6193505857308275e-04  5.6928790427933818e-04  5.7673696099637688e-04  5.8428348763251391e-04 
 5.9192875956871199e-04  5.9967406887412517e-04  6.0752072452446002e-04  6.1547005262319770e-04 
 6.2352339662570706e-04  6.3168211756629226e-04  6.3994759428821052e-04  6.4832122367670063e-04 
 6.5680442089505946e-04  6.6539861962380744e-04  6.7410527230298532e-04  6.8292585037761785e-04 
 6.9186184454639375e-04  7.0091476501359616e-04  7.1008614174433108e-04  7.1937752472309429e-04 
 7.2879048421572372e-04  7.3832661103477744e-04  7.4798751680838480e-04  7.5777483425261589e-04 
 7.6769021744741274e-04  7.7773534211613500e-04  7.8791190590876030e-04  7.9822162868879124e-04 
 8.0866625282391478e-04  8.1924754348046945e-04  8.2996728892176090e-04  8.4082730081028244e-04 
 8.5182941451389155e-04  8.6297548941598971e-04  8.7426740922976430e-04  8.8570708231653955e-04 
 8.9729644200829543e-04  9.0903744693440248e-04  9.2093208135263867e-04  9.3298235548453076e-04 
 9.4519030585508816e-04  9.5755799563697970e-04  9.7008751499921418e-04  9.8278098146038577e-04 
 9.9564054024653794e-04  1.0086683646537129e-03  1.0218666564152422e-03  1.0352376460738472e-03 
 1.0487835933586044e-03  1.0625067875668457e-03  1.0764095479510551e-03  1.0904942241108269e-03 
 1.1047631963899550e-03  1.1192188762787162e-03  1.1338637068214182e-03  1.1487001630292779e-03 
 1.1637307522987070e-03  1.1789580148350665e-03  1.1943845240819670e-03  1.2100128871561887e-03 
 1.2258457452882872e-03  1.2418857742689706e-03  1.2581356849013139e-03  1.2745982234588905e-03 
 1.2912761721498983e-03  1.3081723495873619e-03  1.3252896112654824e-03  1.3426308500422239e-03 
 1.3601989966282150e-03  1.3779970200820404e-03  1.3960279283120260e-03  1.4142947685845779e-03 
 1.4328006280391790e-03  1.4515486342101228e-03  1.4705419555550755e-03  1.4897838019905479e-03 
 1.5092774254343861e-03  1.5290261203553493e-03  1.5490332243298826e-03  1.5693021186061764e-03 
 1.5898362286756054e-03  1.6106390248516449e-03  1.6317140228563607e-03  1.6530647844145781e-03 
 1.6746949178558144e-03  1.6966080787241039e-03  1.7188079703957893e-03  1.7412983447054008e-03 
 1.7640830025797262e-03  1.7871657946801757e-03  1.8105506220535534e-03  1.8342414367913441e-03 
 1.8582422426976259e-03  1.8825570959657184e-03  1.9071901058636972e-03  1.9321454354288639e-03 
 1.9574273021713108e-03  1.9830399787866917e-03  2.0089877938783141e-03  2.0352751326886869e-03 
 2.0619064378406362e-03  2.0888862100881195e-03  2.1162190090768568e-03  2.1439094541149339e-03 
 2.1719622249534681e-03  2.2003820625775003e-03  2.2291737700072299e-03  2.2583422131097403e-03 
 2.2878923214213385e-03  2.3178290889806627e-03  2.3481575751726838e-03  2.3788829055837492e-03 
 2.4100102728678297e-03  2.4415449376240825e-03  2.4734922292859070e-03  2.5058575470216309e-03 
 2.5386463606469857e-03  2.5718642115495137e-03  2.6055167136250787e-03  2.6396095542266310e-03 
 2.6741484951253711e-03  2.7091393734845195e-03  2.7445881028458009e-03  2.7805006741288482e-03 
 2.8168831566436838e-03  2.8537416991164465e-03  2.8910825307285411e-03  2.9289119621693856e-03 
 2.9672363867029325e-03  3.0060622812481397e-03  3.0453962074735966e-03  3.0852448129064540e-03 
 3.1256148320558739e-03  3.1665130875511770e-03  3.2079464912948834e-03  3.2499220456308417e-03 
 3.2924468445276406e-03  3.3355280747775101e-03  3.3791730172108925e-03  3.4233890479269430e-03 
 3.4681836395400903e-03  3.5135643624429323e-03  3.5595388860856498e-03  3.6061149802721630e-03 
 3.6533005164732448e-03  3.7011034691568192e-03  3.7495319171356686e-03  3.7985940449327591e-03 
 3.8482981441644651e-03  3.8986526149418564e-03  3.9496659672903440e-03  4.0013468225878895e-03 
 4.0537039150220456e-03  4.1067460930660476e-03  4.1604823209742308e-03  4.2149216802970131e-03 
 4.2700733714156830e-03  4.3259467150973101e-03  4.3825511540699592e-03  4.4398962546185429e-03 
 4.4979917082015397e-03  4.5568473330888778e-03  4.6164730760212460e-03  4.6768790138911132e-03 
 4.7380753554457575e-03  4.8000724430125449e-03  4.8628807542468386e-03  4.9265109039027272e-03 
 4.9909736456269478e-03  5.0562798737762782e-03  5.1224406252587135e-03  5.1894670813987217e-03 
 5.2573705698269191e-03  5.3261625663944727e-03  5.3958546971125242e-03  5.4664587401170445e-03 
 5.5379866276593446e-03  5.6104504481226643e-03  5.6838624480651297e-03  5.7582350342894615e-03 
 5.8335807759397453e-03  5.9099124066256479e-03  5.9872428265744402e-03  6.0655851048111355e-03 
 6.1449524813672217e-03  6.2253583695182418e-03  6.3068163580506653e-03  6.3893402135584325e-03 
 6.4729438827695390e-03  6.5576414949030650e-03  6.6434473640570521e-03  6.7303759916276171e-03 
 6.8184420687597081e-03  6.9076604788299708e-03  6.9980462999620560e-03  7.0896148075748622e-03 
 7.1823814769641173e-03  7.2763619859177427e-03  7.3715722173654328e-03  7.4680282620629137e-03 
 7.5657464213113182e-03  7.6647432097121269e-03  7.7650353579582073e-03  7.8666398156613179e-03 
 7.9695737542166394e-03  8.0738545697047800e-03  8.1794998858317550e-03  8.2865275569074370e-03 
 8.3949556708629736e-03  8.5048025523077001e-03  8.6160867656260107e-03  8.7288271181148337e-03 
 8.8430426631620710e-03  8.9587527034666794e-03  9.0759767943008711e-03  9.1947347468150035e-03 
 9.3150466313857046e-03  9.4369327810078230e-03  9.5604137947307537e-03  9.6855105411396952e-03 
 9.8122441618825381e-03  9.9406360752428320e-03  1.0070707979759518e-02  1.0202481857894043e-02 
 1.0335979979745445e-02  1.0471224906814056e-02  1.0608239495814447e-02  1.0747046902538276e-02 
 1.0887670585767634e-02  1.1030134311239699e-02  1.1174462155663149e-02  1.1320678510787208e-02 
 1.1468808087523900e-02  1.1618875920124255e-02  1.1770907370409161e-02  1.1924928132055562e-02 
 1.2080964234938776e-02  1.2239042049531548e-02  1.2399188291360793e-02  1.2561430025522546e-02 
 1.2725794671256032e-02  1.2892310006577581e-02  1.3061004172975189e-02  1.3231905680164482e-02 
 1.3405043410906939e-02  1.3580446625891151e-02  1.3758144968677902e-02  1.3938168470710078e-02 
 1.4120547556387990e-02  1.4305313048211202e-02  1.4492496171987593e-02  1.4682128562110592e-02 
 1.4874242266905471e-02  1.5068869754045597e-02  1.5266043916039534e-02  1.5465798075789933e-02 
 1.5668165992225234e-02  1.5873181866004973e-02  1.6080880345299774e-02  1.6291296531646980e-02 
 1.6504465985882899e-02  1.6720424734152656e-02  1.6939209273998716e-02  1.7160856580529051e-02 
 1.7385404112665981e-02  1.7612889819476892e-02  1.7843352146587679e-02  1.8076830042680146e-02 
 1.8313362966074425e-02  1.8552990891397551e-02  1.8795754316339230e-02  1.9041694268496088e-02 
 1.9290852312305411e-02  1.9543270556069598e-02  1.9798991659072628e-02  2.0058058838789559e-02 
 2.0320515878190365e-02  2.0586407133139382e-02  2.0855777539891537e-02  2.1128672622686702e-02 
 2.1405138501443387e-02  2.1685221899553134e-02  2.1968970151776814e-02  2.2256431212244417e-02 
 2.2547653662559348e-02  2.2842686720008852e-02  2.3141580245881841e-02  2.3444384753895580e-02 
 2.3751151418732633e-02  2.4061932084689493e-02  2.4376779274438411e-02  2.4695746197903778e-02 
 2.5018886761254858e-02  2.5346255576015962e-02  2.5677907968295950e-02  2.6013899988138488e-02 
 2.6354288418994617e-02  2.6699130787319315e-02  2.7048485372293585e-02  2.7402411215673803e-02 
 2.7760968131769839e-02  2.8124216717553933e-02  2.8492218362901649e-02  2.8865035260966933e-02 
 2.9242730418692901e-02  2.9625367667460149e-02  3.0013011673874442e-02  3.0405727950695488e-02 
 3.0803582867908803e-02  3.1206643663942279e-02  3.1614978457029791e-02  3.2028656256723249e-02 
 3.2447746975555386e-02  3.2872321440855175e-02  3.3302451406717774e-02  3.3738209566131161e-02 
 3.4179669563261426e-02  3.4626906005898836e-02  3.5079994478066603e-02  3.5539011552794937e-02 
 3.6004034805061980e-02  3.6475142824904161e-02  3.6952415230698130e-02  3.7435932682616399e-02 
 3.7925776896259179e-02  3.8422030656464434e-02  3.8924777831298829e-02  3.9434103386231413e-02 
 3.9950093398493244e-02  4.0472835071624511e-02  4.1002416750212149e-02  4.1538927934820287e-02 
 4.2082459297116077e-02  4.2633102695193402e-02  4.3190951189097125e-02  4.3756099056550486e-02 
 4.4328641808888118e-02  4.4908676207197906e-02  4.5496300278673699e-02  4.6091613333182187e-02 
 4.6694715980046486e-02  4.7305710145049355e-02  4.7924699087658895e-02  4.8551787418479674e-02 
 4.9187081116932166e-02  4.9830687549163401e-02  5.0482715486192285e-02  5.1143275122292095e-02 
 5.1812478093613508e-02  5.2490437497051456e-02  5.3177267909358721e-02  5.3873085406509709e-02 
 5.4578007583317552e-02  5.5292153573307967e-02  5.6015644068852892e-02  5.6748601341568110e-02 
 5.7491149262977208e-02  5.8243413325446247e-02  5.9005520663392250e-02  5.9777600074769212e-02 
 6.0559782042835276e-02  6.1352198758204725e-02  6.2154984141188530e-02  6.2968273864427021e-02 
 6.3792205375819172e-02  6.4626917921751473e-02  6.5472552570630851e-02  6.6329252236725686e-02 
 6.7197161704318553e-02  6.8076427652175212e-02  6.8967198678333549e-02  6.9869625325217205e-02 
 7.0783860105077229e-02  7.1710057525767451e-02  7.2648374116856401e-02  7.3598968456081243e-02 
 7.4562001196147837e-02  7.5537635091881355e-02  7.6526035027732281e-02  7.7527368045642267e-02 
 7.8541803373274585e-02  7.9569512452614094e-02  8.0610668968941215e-02  8.1665448880185301e-02 
 8.2734030446661930e-02  8.3816594261198904e-02  8.4913323279657629e-02  8.6024402851852533e-02 
 8.7150020752875812e-02  8.8290367214831786e-02  8.9445634958986706e-02  9.0616019228338937e-02 
 9.1801717820615664e-02  9.3002931121701035e-02  9.4219862139501953e-02  9.5452716538256835e-02 
 9.6701702673293380e-02  9.7967031626241111e-02  9.9248917240704698e-02  1.0054757615840397e-01 
 1.0186322785578701e-01  1.0319609468112198e-01  1.0454640189207495e-01  1.0591437769377803e-01 
 1.0730025327739783e-01  1.0870426285920651e-01  1.1012664372016504e-01  1.1156763624602435e-01 
 1.1302748396795101e-01  1.1450643360368459e-01  1.1600473509923358e-01  1.1752264167111684e-01 
 1.1906040984915778e-01  1.2061829951983850e-01  1.2219657397022131e-01  1.2379549993244476e-01 
 1.2541534762880205e-01  1.2705639081740927e-01  1.2871890683847112e-01  1.3040317666115214e-01 
 1.3210948493106131e-01  1.3383812001835693e-01  1.3558937406648333e-01  1.3736354304154280e-01 
 1.3916092678231481e-01  1.4098182905092951e-01  1.4282655758420421e-01  1.4469542414565165e-01 
 1.4658874457816881e-01  1.4850683885741506e-01  1.5045003114588890e-01  1.5241864984771197e-01 
 1.5441302766413045e-01  1.5643350164974215e-01  1.5848041326945950e-01  1.6055410845621809e-01 
 1.6265493766944011e-01  1.6478325595426274e-01  1.6693942300154202e-01  1.6912380320864026e-01 
 1.7133676574101178e-01  1.7357868459459161e-01  1.7584993865900195e-01  1.7815091178158554e-01 
 1.8048199283227664e-01  1.8284357576932098e-01  1.8523605970585574e-01  1.8765984897736052e-01 
 1.9011535320999109e-01  1.9260298738980711e-01  1.9512317193290568e-01  1.9767633275647298e-01 
 2.0026290135076491e-01  2.0288331485203018e-01  2.0553801611638739e-01  2.0822745379466862e-01 
 2.1095208240824298e-01  2.1371236242583036e-01  2.1650876034132380e-01  2.1934174875262671e-01 
 2.2221180644152336e-01  2.2511941845459429e-01  2.2806507618518998e-01  2.3104927745647794e-01 
 2.3407252660557568e-01  2.3713533456878502e-01  2.4023821896794151e-01  2.4338170419789382e-01 
 2.4656632151512753e-01  2.4979260912754903e-01  2.5306111228544365e-01  2.5637238337362439e-01 
 2.5972698200478639e-01  2.6312547511408252e-01  2.6656843705493749e-01  2.7005644969611298e-01 
 2.7359010252004756e-01  2.7716999272247894e-01  2.8079672531337180e-01  2.8447091321916601e-01 
 2.8819317738636258e-01  2.9196414688646505e-01  2.9578445902229422e-01  2.9965475943569386e-01 
 3.0357570221664537e-01  3.0754795001381108e-01  3.1157217414652300e-01  3.1564905471823756e-01 
 3.1977928073147482e-01  3.2396355020426132e-01  3.2820257028809691e-01  3.3249705738746510e-01 
 3.3684773728090750e-01  3.4125534524368001e-01  3.4572062617201932e-01  3.5024433470903032e-01 
 3.5482723537222255e-01  3.5947010268271590e-01  3.6417372129613618e-01  3.6893888613522419e-01 
 3.7376640252417925e-01  3.7865708632476114e-01  3.8361176407417241e-01  3.8863127312474532e-01 
 3.9371646178545638e-01  3.9886818946529240e-01  4.0408732681849291e-01  4.0937475589169275e-01 
 4.1473137027298973e-01  4.2015807524296367e-01  4.2565578792767128e-01  4.3122543745363989e-01 
 4.3686796510489639e-01  4.4258432448204360e-01  4.4837548166342189e-01  4.5424241536837823e-01 
 4.6018611712267277e-01  4.6620759142604845e-01  4.7230785592199437e-01  4.7848794156972951e-01 
 4.8474889281843747e-01  4.9109176778378100e-01  4.9751763842672592e-01  5.0402759073470516e-01 
 5.1062272490515281e-01  5.1730415553144105e-01  5.2407301179124799e-01  5.3093043763739212e-01 
 5.3787759199116369e-01  5.4491564893818156e-01  5.5204579792682196e-01  5.5926924396923439e-01 
 5.6658720784499250e-01  5.7400092630740873e-01  5.8151165229254875e-01  5.8912065513098011e-01 
 5.9682922076229283e-01  6.0463865195242572e-01  6.1255026851383687e-01  6.2056540752855593e-01 
 6.2868542357415280e-01  6.3691168895266603e-01  6.4524559392252367e-01  6.5368854693350109e-01 
 6.6224197486475234e-01  6.7090732326595559e-01  6.7968605660161630e-01  6.8857965849856018e-01 
 6.9758963199667634e-01  7.0671749980293097e-01  7.1596480454870814e-01  7.2533310905051962e-01 
 7.3482399657412356e-01  7.4443907110210084e-01  7.5417995760493128e-01  7.6404830231561827e-01 
 7.7404577300790545e-01  7.8417405927813466e-01  7.9443487283079217e-01  8.0482994776778971e-01 
 8.1536104088153338e-01  8.2602993195182417e-01  8.3683842404664588e-01  8.4778834382688772e-01 
 8.5888154185505639e-01  8.7011989290801817e-01  8.8150529629385077e-01  8.9303967617282498e-01 
 9.0472498188259320e-01  9.1656318826763261e-01  9.2855629601299827e-01  9.4070633198244391e-01 
 9.5301534956096667e-01  9.6548542900183409e-01  9.7811867777815142e-01  9.9091723093903028e-01 
 1.0038832514704168e+00  1.0170189306606410e+00  1.0303264884707504e+00  1.0438081739096881e+00 
 1.0574662654143807e+00  1.0713030712348006e+00  1.0853209298240658e+00  1.0995222102336384e+00 
 1.1139093125137098e+00  1.1284846681188079e+00  1.1432507403187204e+00  1.1582100246147944e+00 
 1.1733650491616801e+00  1.1887183751945967e+00  1.2042725974621857e+00  1.2200303446650309e+00 
 1.2359942798999151e+00  1.2521671011098883e+00  1.2685515415402278e+00  1.2851503702003628e+00 
 1.3019663923318441e+00  1.3190024498824353e+00  1.3362614219864104e+00  1.3537462254511323e+00 
 1.3714598152500053e+00  1.3894051850218596e+00  1.4075853675769017e+00  1.4260034354092535e+00 
 1.4446625012162155e+00  1.4635657184243198e+00  1.4827162817222654e+00  1.5021174276008309e+00 
 1.5217724348998452e+00  1.5416846253623233e+00  1.5618573641958462e+00  1.5822940606412899e+00 
 1.6029981685489949e+00  1.6239731869624752e+00  1.6452226607097657e+00  1.6667501810025052e+00 
 1.6885593860428607e+00  1.7106539616383920e+00  1.7330376418249653e+00  1.7557142094978013e+00 
 1.7786874970508122e+00  1.8019613870242728e+00  1.8255398127609828e+00  1.8494267590710110e+00 
 1.8736262629051368e+00  1.8981424140371050e+00  1.9229793557548085e+00  1.9481412855605111e+00 
 1.9736324558802385e+00  1.9994571747824454e+00  2.0256198067060924e+00  2.0521247731982437e+00 
 2.0789765536613207e+00  2.1061796861101323e+00  2.1337387679388078e+00  2.1616584566977695e+00 
 2.1899434708808729e+00  2.2185985907228294e+00  2.2476286590070966e+00  2.2770385818843097e+00 
 2.3068333297014338e+00  2.3370179378417641e+00  2.3675975075759181e+00  2.3985772069239633e+00 
 2.4299622715288245e+00  2.4617580055411197e+00  2.4939697825155731e+00  2.5266030463191611e+00 
 2.5596633120511370e+00  2.5931561669750955e+00  2.6270872714632358e+00  2.6614623599529748e+00 
 2.6962872419160839e+00  2.7315678028405013e+00  2.7673100052249993e+00  2.8035198895868407e+00 
 2.8402035754826711e+00  2.8773672625427174e+00  2.9150172315185459e+00  2.9531598453445236e+00 
 2.9918015502131712e+00  3.0309488766645813e+00  3.0706084406901000e+00  3.1107869448504397e+00 
 3.1514911794084335e+00  3.1927280234766009e+00  3.2345044461797379e+00  3.2768275078327123e+00 
 3.3197043611336770e+00  3.3631422523728909e+00  3.4071485226573595e+00  3.4517306091515003e+00 
 3.4968960463340468e+00  3.5426524672713691e+00  3.5890076049075148e+00  3.6359692933710757e+00 
 3.6835454692991751e+00  3.7317441731787802e+00  3.7805735507055647e+00  3.8300418541605494e+00 
 3.8801574438047575e+00  3.9309287892921185e+00  3.9823644711008606e+00  4.0344731819836310e+00 
 4.0872637284365938e+00  4.1407450321877457e+00  4.1949261317047108e+00  4.2498161837222641e+00 
 4.3054244647898390e+00  4.3617603728392913e+00  4.4188334287731719e+00  4.4766532780737593e+00 
 4.5352296924332096e+00  4.5945725714049654e+00  4.6546919440768164e+00  4.7155979707658338e+00 
 4.7773009447354884e+00  4.8398112939352433e+00  4.9031395827628916e+00  4.9672965138499734e+00 
 5.0322929298705423e+00  5.0981398153736039e+00  5.1648482986395283e+00  5.2324296535607626e+00 
 5.3008953015471363e+00  5.3702568134561162e+00  5.4405259115483000e+00  5.5117144714685136e+00 
 5.5838345242528291e+00  5.6568982583617995e+00  5.7309180217403988e+00  5.8059063239048117e+00 
 5.8818758380565823e+00  5.9588394032244185e+00  6.0368100264340132e+00  6.1158008849062684e+00 
 6.1958253282842701e+00  6.2768968808894154e+00  6.3590292440070524e+00  6.4422362982020314e+00 
 6.5265321056645522e+00  6.6119309125867076e+00  6.6984471515701269e+00  6.7860954440651122e+00 
 6.8748906028417087e+00  6.9648476344930899e+00  7.0559817419717250e+00  7.1483083271586594e+00 
 7.2418429934665491e+00  7.3366015484766214e+00  7.4326000066102074e+00  7.5298545918352175e+00 
 7.6283817404080310e+00  7.7281981036512590e+00  7.8293205507678634e+00  7.9317661716920886e+00 
 8.0355522799777006e+00  8.1406964157240189e+00  8.2472163485402419e+00  8.3551300805485393e+00 
 8.4644558494264679e+00  8.5752121314891721e+00  8.6874176448119336e+00  8.8010913523935628e+00 
 8.9162524653612110e+00  9.0329204462170321e+00  9.1511150121274909e+00  9.2708561382555370e+00 
 9.3921640611364818e+00  9.5150592820980187e+00  9.6395625707249906e+00  9.7656949683695071e+00 
 9.8934777917069763e+00  1.0022932636338679e+01  1.0154081380441472e+01  1.0286946188465254e+01 
 1.0421549514878818e+01  1.0557914107964688e+01  1.0696063013663663e+01  1.0836019579469610e+01 
 1.0977807458375265e+01  1.1121450612869628e+01  1.1266973318987715e+01  1.1414400170413176e+01 
 1.1563756082634814e+01  1.1715066297157277e+01  1.1868356385766948e+01  1.2023652254853653e+01 
 1.2180980149788882e+01  1.2340366659361337e+01  1.2501838720270488e+01  1.2665423621678954e+01 
 1.2831149009824415e+01  1.2999042892691913e+01  1.3169133644747253e+01  1.3341450011732372e+01 
 1.3516021115523413e+01  1.3692876459052416e+01  1.3872045931293368e+01  1.4053559812313521e+01 
 1.4237448778390812e+01  1.4423743907198130e+01  1.4612476683055673e+01  1.4803679002251759e+01 
 1.4997383178433413e+01  1.5193621948067445e+01  1.5392428475972991e+01  1.5593836360926446e+01 
 1.5797879641339737e+01  1.6004592801012894e+01  1.6214010774961903e+01  1.6426168955322797e+01 
 1.6641103197333006e+01  1.6858849825391005e+01  1.7079445639195185e+01  1.7302927919963121e+01 
 1.7529334436732178e+01  1.7758703452742584e+01  1.7991073731903903e+01  1.8226484545346413e+01 
 1.8464975678057876e+01  1.8706587435607364e+01  1.8951360650956957e+01  1.9199336691362635e+01 
 1.9450557465365428e+01  1.9705065429874082e+01  1.9962903597340340e+01  2.0224115543028198e+01 
 2.0488745412378172e+01  2.0756837928468038e+01  2.1028438399571094e+01  2.1303592726813399e+01 
 2.1582347411931146e+01  2.1864749565129582e+01  2.2150846913044745e+01  2.2440687806809411e+01 
 2.2734321230224396e+01  2.3031796808037175e+01  2.3333164814328416e+01  2.3638476181008464e+01 
 2.3947782506424968e+01  2.4261136064083093e+01  2.4578589811479901e+01  2.4900197399054267e+01 
 2.5226013179253957e+01  2.5556092215721289e+01  2.5890490292599051e+01  2.6229263923958136e+01 
 2.6572470363348550e+01  2.6920167613475424e+01  2.7272414436001579e+01  2.7629270361478401e+01 
 2.7990795699406647e+01  2.8357051548428949e+01  2.8728099806655411e+01  2.9104003182124849e+01 
 2.9484825203402416e+01  2.9870630230316092e+01  3.0261483464833681e+01  3.0657450962082084e+01 
 3.1058599641510778e+01  3.1464997298201361e+01  3.1876712614325076e+01  3.2293815170750271e+01 
 3.2716375458801728e+01  3.3144464892173865e+01  3.3578155818999804e+01  3.4017521534078419e+01 
 3.4462636291261283e+01  3.4913575316001776e+01  3.5370414818068362e+01  3.5833232004424282e+01 
 3.6302105092275433e+01  3.6777113322289708e+01  3.7258336971988534e+01  3.7745857369314074e+01 
 3.8239756906373820e+01  3.8740119053365063e+01  3.9247028372681555e+01  3.9760570533204763e+01 
 4.0280832324782075e+01  4.0807901672894559e+01  4.1341867653516509e+01  4.1882820508169559e+01 
 4.2430851659173648e+01  4.2986053725097669e+01  4.3548520536412198e+01  4.4118347151347066e+01 
 4.4695629871956456e+01  4.5280466260394213e+01  4.5872955155401776e+01  4.6473196689012681e+01 
 4.7081292303474719e+01  4.7697344768394089e+01  4.8321458198103606e+01  4.8953738069258350e+01 
 4.9594291238661434e+01  5.0243225961323056e+01  5.0900651908755890e+01  5.1566680187509768e+01 
 5.2241423357949031e+01  5.2924995453275422e+01  5.3617511998800026e+01  5.4319090031467297e+01 
 5.5029848119634572e+01  5.5749906383110428e+01  5.6479386513455204e+01  5.7218411794547251e+01 
 5.7967107123417840e+01  5.8725599031359600e+01  5.9494015705310275e+01  6.0272487009516659e+01 
 6.1061144507481991e+01  6.1860121484200533e+01  6.2669552968682972e+01  6.3489575756776716e+01 
 6.4320328434284690e+01  6.5161951400386656e+01  6.6014586891367045e+01  6.6878379004653169e+01 
 6.7753473723168085e+01  6.8640018940002065e+01  6.9538164483406760e+01  7.0448062142116726e+01 
 7.1369865691001920e+01  7.2303730917056185e+01  7.3249815645725192e+01  7.4208279767579967e+01 
 7.5179285265338351e+01  7.6162996241240549e+01  7.7159578944782837e+01  7.8169201800814022e+01 
 7.9192035437999820e+01  8.0228252717659345e+01  8.1278028762979162e+01  8.2341540988609495e+01 
 8.3418969130647724e+01  8.4510495277014257e+01  8.5616303898225752e+01  8.6736581878571158e+01 
 8.7871518547695473e+01  8.9021305712597055e+01  9.0186137690043410e+01  9.1366211339411265e+01 
 9.2561726095955734e+01  9.3772884004516300e+01  9.4999889753662160e+01  9.6242950710285314e+01 
 9.7502276954646035e+01  9.8778081315876946e+01  1.0007057940795163e+02  1.0137998966612392e+02 
 1.0270653338384396e+02  1.0405043475015736e+02  1.0541192088759364e+02  1.0679122189055047e+02 
 1.0818857086418028e+02  1.0960420396378538e+02  1.1103836043472896e+02  1.1249128265286807e+02 
 1.1396321616551563e+02  1.1545440973293886e+02  1.1696511537039942e+02 
  </PP_R>
  <PP_RAB>
 3.3979267307356159e-07  3.4423881513056415e-07  3.4874313436664544e-07  3.5330639202247704e-07 
 3.5792935929946387e-07  3.6261281749007907e-07  3.6735755810990344e-07  3.7216438303139489e-07 
 3.7703410461940581e-07  3.8196754586847512e-07  3.8696554054191590e-07  3.9202893331272366e-07 
 3.9715857990632808e-07  4.0235534724521246e-07  4.0762011359542645e-07  4.1295376871501292e-07 
 4.1835721400438213e-07  4.2383136265864871e-07  4.2937713982196421e-07  4.3499548274386877e-07 
 4.4068734093768844e-07  4.4645367634100506e-07  4.5229546347822628e-07  4.5821368962528254e-07 
 4.6420935497647820e-07  4.7028347281352787e-07  4.7643706967680315e-07  4.8267118553882024e-07 
 4.8898687397999756e-07  4.9538520236671344e-07  5.0186725203169408e-07  5.0843411845676068e-07 
 5.1508691145796933e-07  5.2182675537317052e-07  5.2865478925202800e-07  5.3557216704851863e-07 
 5.4258005781595401e-07  5.4967964590455323e-07  5.5687213116160111e-07  5.6415872913422490e-07 
 5.7154067127482470e-07  5.7901920514919255e-07  5.8659559464735174e-07  5.9427112019716071e-07 
 6.0204707898070566e-07  6.0992478515352863e-07  6.1790557006672261e-07  6.2599078249193295e-07 
 6.3418178884930290e-07  6.4247997343840305e-07  6.5088673867217829e-07  6.5940350531396239e-07 
 6.6803171271758868e-07  6.7677281907064445e-07  6.8562830164090791e-07  6.9459965702601038e-07 
 7.0368840140636447e-07  7.1289607080140288e-07  7.2222422132916826e-07  7.3167442946930243e-07 
 7.4124829232947215e-07  7.5094742791528831e-07  7.6077347540374970e-07  7.7072809542026878e-07 
 7.8081297031932119e-07  7.9102980446876808e-07  8.0138032453789764e-07  8.1186627978923754e-07 
 8.2248944237418113e-07  8.3325160763249065e-07  8.4415459439570948e-07  8.5520024529455065e-07 
 8.6639042707030615e-07  8.7772703089032934e-07  8.8921197266764832e-07  9.0084719338475869e-07 
 9.1263465942165448e-07  9.2457636288815144e-07  9.3667432196055843e-07  9.4893058122275146e-07 
 9.6134721201171760e-07  9.7392631276761329e-07  9.8667000938840522e-07  9.9958045558915405e-07 
 1.0126598332659958e-06  1.0259103528648887e-06  1.0393342537551805e-06  1.0529338046080732e-06 
 1.0667113037800290e-06  1.0806690797011998e-06  1.0948094912689367e-06  1.1091349282464508e-06 
 1.1236478116666870e-06  1.1383505942414852e-06  1.1532457607760948e-06  1.1683358285891123e-06 
 1.1836233479379144e-06  1.1991109024496551e-06  1.2148011095579098e-06  1.2306966209450238e-06 
 1.2468001229902547e-06  1.2631143372237758e-06  1.2796420207866221e-06  1.2963859668966542e-06 
 1.3133490053206147e-06  1.3305340028523721e-06  1.3479438637974112e-06  1.3655815304636690e-06 
 1.3834499836587912e-06  1.4015522431938964e-06  1.4198913683939313e-06  1.4384704586147037e-06 
 1.4572926537666808e-06  1.4763611348456419e-06  1.4956791244702757e-06  1.5152498874268046e-06 
 1.5350767312207500e-06  1.5551630066359026e-06  1.5755121083006152e-06  1.5961274752615022e-06 
 1.6170125915646457e-06  1.6381709868444114e-06  1.6596062369199582e-06  1.6813219643995678e-06 
 1.7033218392928697e-06  1.7256095796310827e-06  1.7481889520953717e-06  1.7710637726534230e-06 
 1.7942379072043561e-06  1.8177152722320664e-06  1.8414998354671224e-06  1.8655956165573197e-06 
 1.8900066877470154e-06  1.9147371745653369e-06  1.9397912565234199e-06  1.9651731678207461e-06 
 1.9908871980607367e-06  2.0169376929757028e-06  2.0433290551612891e-06  2.0700657448205209e-06 
 2.0971522805175817e-06  2.1245932399414751e-06  2.1523932606796563e-06  2.1805570410017964e-06 
 2.2090893406538032e-06  2.2379949816622259e-06  2.2672788491491948e-06  2.2969458921580123e-06 
 2.3270011244895581e-06  2.3574496255496304e-06  2.3882965412073809e-06  2.4195470846649704e-06 
 2.4512065373386241e-06  2.4832802497511969e-06  2.5157736424364248e-06  2.5486922068550113e-06 
 2.5820415063226882e-06  2.6158271769504420e-06  2.6500549285970225e-06  2.6847305458339230e-06 
 2.7198598889229874e-06  2.7554488948068099e-06  2.7915035781120891e-06  2.8280300321661184e-06 
 2.8650344300265687e-06  2.9025230255247527e-06  2.9405021543225354e-06  2.9789782349830785e-06 
 3.0179577700555904e-06  3.0574473471742754e-06  3.0974536401716512e-06  3.1379834102064550e-06 
 3.1790435069062876e-06  3.2206408695252215e-06  3.2627825281165391e-06  3.3054756047208470e-06 
 3.3487273145697038e-06  3.3925449673050177e-06  3.4369359682143913e-06  3.4819078194826336e-06 
 3.5274681214596462e-06  3.5736245739449005e-06  3.6203849774887233e-06  3.6677572347106093e-06 
 3.7157493516347765e-06  3.7643694390432145e-06  3.8136257138464136e-06  3.8635265004720544e-06 
 3.9140802322718389e-06  3.9652954529467668e-06  4.0171808179910290e-06  4.0697450961548150e-06 
 4.1229971709262338e-06  4.1769460420326706e-06  4.2316008269617471e-06  4.2869707625021993e-06 
 4.3430652063049219e-06  4.3998936384644231e-06  4.4574656631209984e-06  4.5157910100838396e-06 
 4.5748795364754077e-06  4.6347412283972922e-06  4.6953862026179094e-06  4.7568247082822426e-06 
 4.8190671286439775e-06  4.8821239828203025e-06  4.9460059275696489e-06  5.0107237590927269e-06 
 5.0762884148570988e-06  5.1427109754456414e-06  5.2100026664291817e-06  5.2781748602636598e-06 
 5.3472390782120885e-06  5.4172069922916804e-06  5.4880904272464511e-06  5.5599013625456082e-06 
 5.6326519344081384e-06  5.7063544378538413e-06  5.7810213287812190e-06  5.8566652260725484e-06 
 5.9332989137265148e-06  6.0109353430187240e-06  6.0895876346905122e-06  6.1692690811663746e-06 
 6.2499931488004076e-06  6.3317734801521759e-06  6.4146238962923236e-06  6.4985583991383733e-06 
 6.5835911738210722e-06  6.6697365910817303e-06  6.7570092097009000e-06  6.8454237789588449e-06 
 6.9349952411282074e-06  7.0257387339992762e-06  7.1176695934383300e-06  7.2108033559794166e-06 
 7.3051557614500751e-06  7.4007427556313956e-06  7.4975804929528993e-06  7.5956853392226801e-06 
 7.6950738743932563e-06  7.7957628953636276e-06  7.8977694188179795e-06  8.0011106841015700e-06 
 8.1058041561341918e-06  8.2118675283617983e-06  8.3193187257467360e-06  8.4281759077971071e-06 
 8.5384574716357720e-06  8.6501820551094964e-06  8.7633685399388083e-06  8.8780360549090316e-06 
 8.9942039791031181e-06  9.1118919451767494e-06  9.2311198426763035e-06  9.3519078214002261e-06 
 9.4742762948044076e-06  9.5982459434521057e-06  9.7238377185090022e-06  9.8510728452840068e-06 
 9.9799728268163658e-06  1.0110559447509755e-05  1.0242854776813883e-05  1.0376881172954286e-05 
 1.0512661286710892e-05  1.0650218065246102e-05  1.0789574755982892e-05  1.0930754910533672e-05 
 1.1073782388680590e-05  1.1218681362407866e-05  1.1365476319986936e-05  1.1514192070115014e-05 
 1.1664853746107840e-05  1.1817486810147232e-05  1.1972117057584302e-05  1.2128770621298900e-05 
 1.2287473976116145e-05  1.2448253943280736e-05  1.2611137694989784e-05  1.2776152758985014e-05 
 1.2943327023204992e-05  1.3112688740498267e-05  1.3284266533398147e-05  1.3458089398960013e-05 
 1.3634186713661857e-05  1.3812588238368993e-05  1.3993324123363716e-05  1.4176424913440750e-05 
 1.4361921553069414e-05  1.4549845391623310e-05  1.4740228188678435e-05  1.4933102119380612e-05 
 1.5128499779883190e-05  1.5326454192855864e-05  1.5526998813065571e-05  1.5730167533030451e-05 
 1.5935994688747732e-05  1.6144515065496618e-05  1.6355763903717079e-05  1.6569776904965575e-05 
 1.6786590237948677e-05  1.7006240544635703e-05  1.7228764946451269e-05  1.7454201050548909e-05 
 1.7682586956166794e-05  1.7913961261066523e-05  1.8148363068056335e-05  1.8385831991599510e-05 
 1.8626408164509326e-05  1.8870132244731595e-05  1.9117045422215980e-05  1.9367189425877124e-05 
 1.9620606530647018e-05  1.9877339564619542e-05  2.0137431916288471e-05  2.0400927541880292e-05 
 2.0667870972782869e-05  2.0938307323071381e-05  2.1212282297132688e-05  2.1489842197389516e-05 
 2.1771033932125585e-05  2.2055905023413350e-05  2.2344503615145258e-05  2.2636878481170208e-05 
 2.2933079033536438e-05  2.3233155330842284e-05  2.3537158086696195e-05  2.3845138678287471e-05 
 2.4157149155069134e-05  2.4473242247554340e-05  2.4793471376228060e-05  2.5117890660575230e-05 
 2.5446554928227041e-05  2.5779519724226992e-05  2.6116841320418082e-05  2.6458576724952927e-05 
 2.6804783691928270e-05  2.7155520731145551e-05  2.7510847117999136e-05  2.7870822903494138e-05 
 2.8235508924395085e-05  2.8604966813507504e-05  2.8979259010093987e-05  2.9358448770426625e-05 
 2.9742600178477400e-05  3.0131778156748612e-05  3.0526048477244888e-05  3.0925477772588737e-05 
 3.1330133547281781e-05  3.1740084189113069e-05  3.2155398980716791e-05  3.2576148111281202e-05 
 3.3002402688410815e-05  3.3434234750143673e-05  3.3871717277126022e-05  3.4314924204946199e-05 
 3.4763930436629821e-05  3.5218811855298755e-05  3.5679645336995412e-05  3.6146508763675024e-05 
 3.6619481036367887e-05  3.7098642088513804e-05  3.7584072899471031e-05  3.8075855508202011e-05 
 3.8574073027138122e-05  3.9078809656225813e-05  3.9590150697156751e-05  4.0108182567783898e-05 
 4.0632992816726359e-05  4.1164670138165297e-05  4.1703304386833484e-05  4.2248986593200941e-05 
 4.2801808978859323e-05  4.3361864972107632e-05  4.3929249223741598e-05  4.4504057623050258e-05 
 4.5086387314021169e-05  4.5676336711758120e-05  4.6274005519113444e-05  4.6879494743538119e-05 
 4.7492906714152177e-05  4.8114345099038647e-05  4.8743914922763687e-05  4.9381722584125869e-05 
 5.0027875874138043e-05  5.0682483994244131e-05  5.1345657574774468e-05  5.2017508693642561e-05 
 5.2698150895286591e-05  5.3387699209858614e-05  5.4086270172664999e-05  5.4793981843861167e-05 
 5.5510953828403876e-05  5.6237307296265030e-05  5.6973165002909466e-05  5.7718651310041055e-05 
 5.8473892206620014e-05  5.9239015330155412e-05  6.0014149988276192e-05  6.0799427180584470e-05 
 6.1594979620794850e-05  6.2400941759163084e-05  6.3217449805208896e-05  6.4044641750735451e-05 
 6.4882657393150312e-05  6.5731638359091619e-05  6.6591728128363267e-05  6.7463072058183382e-05 
 6.8345817407749950e-05  6.9240113363128137e-05  7.0146111062462818e-05  7.1063963621521573e-05 
 7.1993826159571473e-05  7.2935855825594629e-05  7.3890211824846684e-05  7.4857055445762990e-05 
 7.5836550087216687e-05  7.6828861286133414e-05  7.7834156745467721e-05  7.8852606362544753e-05 
 7.9884382257773879e-05  8.0929658803737133e-05  8.1988612654658642e-05  8.3061422776259622e-05 
 8.4148270476004002e-05  8.5249339433739847e-05  8.6364815732741678e-05  8.7494887891159019e-05 
 8.8639746893876204e-05  8.9799586224789617e-05  9.0974601899506731e-05  9.2164992498473198e-05 
 9.3370959200533518e-05  9.4592705816930650e-05  9.5830438825750622e-05  9.7084367406817868e-05 
 9.8354703477047137e-05  9.9641661726257642e-05  1.0094545965345668e-04  1.0226631760359712e-04 
 1.0360445880481630e-04  1.0496010940616213e-04  1.0633349851581280e-04  1.0772485823979668e-04 
 1.0913442372121865e-04  1.1056243318000009e-04  1.1200912795313813e-04  1.1347475253549283e-04 
 1.1495955462110692e-04  1.1646378514506683e-04  1.1798769832591132e-04  1.1953155170859505e-04 
 1.2109560620801416e-04  1.2268012615310170e-04  1.2428537933149980e-04  1.2591163703481602e-04 
 1.2755917410447299e-04  1.2922826897815681e-04  1.3091920373687374e-04  1.3263226415262256e-04 
 1.3436773973669078e-04  1.3612592378858273e-04  1.3790711344558780e-04  1.3971160973299759e-04 
 1.4153971761497923e-04  1.4339174604611609e-04  1.4526800802362093e-04  1.4716882064023370e-04 
 1.4909450513781068e-04  1.5104538696161530e-04  1.5302179581531909e-04  1.5502406571672229e-04 
 1.5705253505420409e-04  1.5910754664391012e-04  1.6118944778769031e-04  1.6329859033179309e-04 
 1.6543533072632842e-04  1.6760003008550856e-04  1.6979305424867744e-04  1.7201477384213827e-04 
 1.7426556434179020e-04  1.7654580613658496e-04  1.7885588459281272e-04  1.8119619011923099e-04 
 1.8356711823304387e-04  1.8596906962674563e-04  1.8840245023583871e-04  1.9086767130743767e-04 
 1.9336514946977112e-04  1.9589530680259276e-04  1.9845857090851392e-04  2.0105537498526911e-04 
 2.0368615789892802e-04  2.0635136425806465e-04  2.0905144448889705e-04  2.1178685491141073e-04 
 2.1455805781647768e-04  2.1736552154398453e-04  2.2020972056198331e-04  2.2309113554687765e-04 
 2.2601025346465775e-04  2.2896756765319960e-04  2.3196357790563981e-04  2.3499879055484190e-04 
 2.3807371855896750e-04  2.4118888158816814e-04  2.4434480611240997e-04  2.4754202549044912e-04 
 2.5078108005997031e-04  2.5406251722890477e-04  2.5738689156794417e-04  2.6075476490426425e-04 
 2.6416670641647472e-04  2.6762329273081196e-04  2.7112510801858994e-04  2.7467274409492712e-04 
 2.7826680051876401e-04  2.8190788469419076e-04  2.8559661197309855e-04  2.8933360575917743e-04 
 2.9311949761327149e-04  2.9695492736011507e-04  3.0084054319646391e-04  3.0477700180064253e-04 
 3.0876496844352421e-04  3.1280511710096340e-04  3.1689813056769931e-04  3.2104470057274910e-04 
 3.2524552789631314e-04  3.2950132248820747e-04  3.3381280358784731e-04  3.3818069984580033e-04 
 3.4260574944693003e-04  3.4708870023515107e-04  3.5163030983981658e-04  3.5623134580375942e-04 
 3.6089258571300791e-04  3.6561481732820110e-04  3.7039883871772144e-04  3.7524545839257012e-04 
 3.8015549544300771e-04  3.8512977967698194e-04  3.9016915176036773e-04  3.9527446335904133e-04 
 4.0044657728281443e-04  4.0568636763124960e-04  4.1099471994138724e-04  4.1637253133740222e-04 
 4.2182071068221999e-04  4.2734017873111727e-04  4.3293186828733104e-04  4.3859672435970506e-04 
 4.4433570432239855e-04  4.5014977807668484e-04  4.5603992821486580e-04  4.6200715018633414e-04 
 4.6805245246580571e-04  4.7417685672375409e-04  4.8038139799907564e-04  4.8666712487401318e-04 
 4.9303509965136936e-04  4.9948639853403763e-04  5.0602211180688478e-04  5.1264334402100831e-04 
 5.1935121418041216e-04  5.2614685593111864e-04  5.3303141775275795e-04  5.4000606315266376e-04 
 5.4707197086250898e-04  5.5423033503751418e-04  5.6148236545826259e-04  5.6882928773515631e-04 
 5.7627234351554550e-04  5.8381279069357275e-04  5.9145190362275811e-04  5.9919097333136840e-04 
 6.0703130774060433e-04  6.1497423188564156e-04  6.2302108813956560e-04  6.3117323644023573e-04 
 6.3943205452011813e-04  6.4779893813912421e-04  6.5627530132049969e-04  6.6486257658979718e-04 
 6.7356221521697559e-04  6.8237568746166890e-04  6.9130448282166330e-04  7.0035011028462613e-04 
 7.0951409858312816e-04  7.1879799645300352e-04  7.2820337289508760e-04  7.3773181744038539e-04 
 7.4738494041870366e-04  7.5716437323080114e-04  7.6707176862409918e-04  7.7710880097199976e-04 
 7.8727716655685855e-04  7.9757858385666144e-04  8.0801479383545084e-04  8.1858756023755119e-04 
 8.2929866988564924e-04  8.4014993298276905e-04  8.5114318341820104e-04  8.6228027907743390e-04 
 8.7356310215614113e-04  8.8499355947827766e-04  8.9657358281833614e-04  9.0830512922782363e-04 
 9.2019018136600390e-04  9.3223074783497682e-04  9.4442886351913313e-04  9.5678658992905607e-04 
 9.6930601554992188e-04  9.8198925619445753e-04  9.9483845536051953e-04  1.0078557845933495e-03 
 1.0210434438525696e-03  1.0344036618839831e-03  1.0479386965962358e-03  1.0616508354424090e-03 
 1.0755423958066050e-03  1.0896157253955858e-03  1.1038732026355492e-03  1.1183172370740828e-03 
 1.1329502697873855e-03  1.1477747737928131e-03  1.1627932544668270e-03  1.1780082499684061e-03 
 1.1934223316680036e-03  1.2090381045821133e-03  1.2248582078135254e-03  1.2408853149973387e-03 
 1.2571221347528138e-03  1.2735714111411344e-03  1.2902359241291610e-03  1.3071184900592516e-03 
 1.3242219621252310e-03  1.3415492308545857e-03  1.3591032245969742e-03  1.3768869100191142e-03 
 1.3949032926061716e-03  1.4131554171696846e-03  1.4316463683621454e-03  1.4503792711983165e-03 
 1.4693572915833631e-03  1.4885836368478996e-03  1.5080615562900364e-03  1.5277943417245188e-03 
 1.5477853280390511e-03  1.5680378937579006e-03  1.5885554616128770e-03  1.6093414991217819e-03 
 1.6303995191744266e-03  1.6517330806263204e-03  1.6733457889001244e-03  1.6952412965949779e-03 
 1.7174233041037969e-03  1.7398955602386400e-03  1.7626618628642833e-03  1.7857260595400563e-03 
 1.8090920481700925e-03  1.8327637776620837e-03  1.8567452485946546e-03  1.8810405138934712e-03 
 1.9056536795161944e-03  1.9305889051463956e-03  1.9558504048965554e-03  1.9814424480202554e-03 
 2.0073693596336958e-03  2.0336355214466478e-03  2.0602453725029734e-03  2.0872034099308351e-03 
 2.1145141897027215e-03  2.1421823274054156e-03  2.1702124990200461e-03  2.1986094417123232e-03 
 2.2273779546331529e-03  2.2565228997296909e-03  2.2860492025670253e-03  2.3159618531606121e-03 
 2.3462659068195961e-03  2.3769664850011728e-03  2.4080687761761244e-03  2.4395780367056866e-03 
 2.4714995917298841e-03  2.5038388360674921e-03  2.5366012351277739e-03  2.5697923258341487e-03 
 2.6034177175599436e-03  2.6374830930763920e-03  2.6719942095130358e-03  2.7069568993306919e-03 
 2.7423770713071588e-03  2.7782607115357945e-03  2.8146138844372093e-03  2.8514427337841472e-03 
 2.8887534837398034e-03  2.9265524399097256e-03  2.9648459904074698e-03  3.0036406069342131e-03 
 3.0429428458724835e-03  3.0827593493942050e-03  3.1230968465832394e-03  3.1639621545726197e-03 
 3.2053621796966575e-03  3.2473039186581370e-03  3.2897944597107672e-03  3.3328409838571170e-03 
 3.3764507660622228e-03  3.4206311764830724e-03  3.4653896817141874e-03  3.5107338460494686e-03 
 3.5566713327606181e-03  3.6032099053922260e-03  3.6503574290738332e-03  3.6981218718491579e-03 
 3.7465113060227134e-03  3.7955339095240453e-03  3.8451979672898249e-03  3.8955118726640200e-03 
 3.9464841288163899e-03  3.9981233501795435e-03  4.0504382639047990e-03  4.1034377113370879e-03 
 4.1571306495091723e-03  4.2115261526553972e-03  4.2666334137452600e-03  4.3224617460370460e-03 
 4.3790205846517974e-03  4.4363194881678397e-03  4.4943681402362509e-03  4.5531763512173936e-03 
 4.6127540598388927e-03  4.6731113348753061e-03  4.7342583768497700e-03  4.7962055197579142e-03 
 4.8589632328143303e-03  4.9225421222218943e-03  4.9869529329642408e-03  5.0522065506216889e-03 
 5.1183140032109329e-03  5.1852864630488006e-03  5.2531352486404077e-03  5.3218718265920055e-03 
 5.3915078135488665e-03  5.4620549781585273e-03  5.5335252430597261e-03  5.6059306868973180e-03 
 5.6792835463636525e-03  5.7535962182665669e-03  5.8288812616244844e-03  5.9051513997889164e-03 
 5.9824195225947454e-03  6.0606986885386295e-03  6.1400021269859264e-03  6.2203432404064835e-03 
 6.3017356066396866e-03  6.3841929811891528e-03  6.4677292995474365e-03  6.5523586795511665e-03 
 6.6380954237669860e-03  6.7249540219087335e-03  6.8129491532862236e-03  6.9020956892860974e-03 
 6.9924086958851276e-03  7.0839034361963602e-03  7.1765953730486848e-03  7.2705001716000467e-03 
 7.3656337019849024e-03  7.4620120419963132e-03  7.5596514798031336e-03  7.6585685167027406e-03 
 7.7587798699098069e-03  7.8603024753815341e-03  7.9631534906798793e-03  8.0673502978712269e-03 
 8.1729105064639856e-03  8.2798519563846585e-03  8.3881927209928080e-03  8.4979511101355137e-03 
 8.6091456732417804e-03  8.7217952024574216e-03  8.8359187358210117e-03  8.9515355604812812e-03 
 9.0686652159567924e-03  9.1873274974381015e-03  9.3075424591332057e-03  9.4293304176567543e-03 
 9.5527119554636060e-03  9.6777079243273098e-03  9.8043394488641061e-03  9.9326279301030374e-03 
 1.0062595049102771e-02  1.0194262770615751e-02  1.0327653346800298e-02  1.0462789320981266e-02 
 1.0599693531459934e-02  1.0738389115373713e-02  1.0878899512606396e-02  1.1021248469749540e-02 
 1.1165460044115732e-02  1.1311558607804235e-02  1.1459568851820059e-02  1.1609515790246725e-02 
 1.1761424764473711e-02  1.1915321447479223e-02  1.2071231848168978e-02  1.2229182315771770e-02 
 1.2389199544292566e-02  1.2551310577023843e-02  1.2715542811115968e-02  1.2881924002207393e-02 
 1.3050482269115418e-02  1.3221246098588333e-02  1.3394244350119754e-02  1.3569506260825944e-02 
 1.3747061450386948e-02  1.3926939926052408e-02  1.4109172087712854e-02  1.4293788733037298e-02 
 1.4480821062678227e-02  1.4670300685544502e-02  1.4862259624143365e-02  1.5056730319992327e-02 
 1.5253745639101840e-02  1.5453338877529756e-02  1.5655543767008413e-02  1.5860394480645402e-02 
 1.6067925638698896e-02  1.6278172314428546e-02  1.6491170040022960e-02  1.6706954812604716e-02 
 1.6925563100313974e-02  1.7147031848471658e-02  1.7371398485823336e-02  1.7598700930864720e-02 
 1.7828977598250067e-02  1.8062267405284174e-02  1.8298609778499720e-02  1.8538044660320295e-02 
 1.8780612515810802e-02  1.9026354339516157e-02  1.9275311662389449e-02  1.9527526558810800e-02 
 1.9783041653697986e-02  2.0041900129710202e-02  2.0304145734546000e-02  2.0569822788336769e-02 
 2.0838976191136931e-02  2.1111651430512177e-02  2.1387894589226953e-02  2.1667752353032567e-02 
 2.1951272018557188e-02  2.2238501501299097e-02  2.2529489343724549e-02  2.2824284723471415e-02 
 2.3122937461660557e-02  2.3425498031315543e-02  2.3732017565892775e-02  2.4042547867923141e-02 
 2.4357141417766778e-02  2.4675851382482364e-02  2.4998731624812510e-02  2.5325836712286644e-02 
 2.5657221926443100e-02  2.5992943272171790e-02  2.6333057487179200e-02  2.6677622051577168e-02 
 2.7026695197597168e-02  2.7380335919431717e-02  2.7738603983204501e-02  2.8101559937071002e-02 
 2.8469265121451346e-02  2.8841781679396782e-02  2.9219172567092253e-02  2.9601501564496025e-02 
 2.9988833286118639e-02  3.0381233191942931e-02  3.0778767598486936e-02  3.1181503690011519e-02 
 3.1589509529874715e-02  3.2002854072034556e-02  3.2421607172702448e-02  3.2845839602149096e-02 
 3.3275623056664781e-02  3.3711030170676240e-02  3.4152134529022063e-02  3.4599010679388670e-02 
 3.5051734144909093e-02  3.5510381436926516e-02  3.5975030067924990e-02  3.6445758564628929e-02 
 3.6922646481274725e-02  3.7405774413055322e-02  3.7895224009741095e-02  3.8391077989478807e-02 
 3.8893420152771224e-02  3.9402335396639558e-02  3.9917909728971294e-02  4.0440230283055711e-02 
 4.0969385332309635e-02  4.1505464305195812e-02  4.2048557800336589e-02  4.2598757601825257e-02 
 4.3156156694737796e-02  4.3720849280847580e-02  4.4292930794545674e-02  4.4872497918969502e-02 
 4.5459648602342605e-02  4.6054482074527794e-02  4.6657098863797687e-02  4.7267600813823980e-02 
 4.7886091100889275e-02  4.8512674251324141e-02  4.9147456159172341e-02  4.9790544104087141e-02 
 5.0442046769461846e-02  5.1102074260797541e-02  5.1770738124311183e-02  5.2448151365787198e-02 
 5.3134428469675719e-02  5.3829685418440694e-02  5.4534039712161239e-02  5.5247610388389434e-02 
 5.5970518042267901e-02  5.6702884846910787e-02  5.7444834574051230e-02  5.8196492614958871e-02 
 5.8957986001631719e-02  5.9729443428264549e-02  6.0510995272998608e-02  6.1302773619955835e-02 
 6.2104912281561349e-02  6.2917546821158160e-02  6.3740814575917584e-02  6.4574854680049656e-02 
 6.5419808088317044e-02  6.6275817599856846e-02  6.7143027882313869e-02  6.8021585496289907e-02 
 6.8911638920112775e-02  6.9813338574929509e-02  7.0726836850127900e-02  7.1652288129090677e-02 
 7.2589848815286781e-02  7.3539677358703384e-02  7.4501934282625179e-02  7.5476782210762552e-02 
 7.6464385894735573e-02  7.7464912241917441e-02  7.8478530343642175e-02  7.9505411503781487e-02 
 8.0545729267695501e-02  8.1599659451562404e-02  8.2667380172091673e-02  8.3749071876626405e-02 
 8.4844917373639181e-02  8.5955101863627190e-02  8.7079812970411646e-02  8.8219240772846458e-02 
 8.9373577836942206e-02  9.0543019248410170e-02  9.1727762645632427e-02  9.2928008253062563e-02 
 9.4143958915065135e-02  9.5375820130196076e-02  9.6623800085932687e-02  9.7888109693857819e-02 
 9.9168962625304405e-02  1.0046657534746636e-01  1.0178116715998221e-01  1.0311296023199715e-01 
 1.0446217963971011e-01  1.0582905340441225e-01  1.0721381253102313e-01  1.0861669104713101e-01 
 1.1003792604254407e-01  1.1147775770935923e-01  1.1293642938255513e-01  1.1441418758111631e-01 
 1.1591128204969574e-01  1.1742796580082140e-01  1.1896449515765738e-01  1.2052112979732198e-01 
 1.2209813279477426e-01  1.2369577066727423e-01  1.2531431341942487e-01  1.2695403458880358e-01 
 1.2861521129219070e-01  1.3029812427240281e-01  1.3200305794573913e-01  1.3373030045004830e-01 
 1.3548014369342462e-01  1.3725288340354094e-01  1.3904881917762760e-01  1.4086825453310492e-01 
 1.4271149695887844e-01  1.4457885796730516e-01  1.4647065314684030e-01  1.4838720221537127e-01 
 1.5032882907425257e-01  1.5229586186304458e-01  1.5428863301497031e-01  1.5630747931309749e-01 
 1.5835274194725546e-01  1.6042476657169738e-01  1.6252390336351633e-01  1.6465050708182641e-01 
 1.6680493712771738e-01  1.6898755760499484e-01  1.7119873738171429e-01  1.7343885015252083e-01 
 1.7570827450180437e-01  1.7800739396768139e-01  1.8033659710681377e-01  1.8269627756007578e-01 
 1.8508683411908056e-01  1.8750867079357569e-01  1.8996219687972374e-01  1.9244782702927285e-01 
 1.9496598131963436e-01  1.9751708532487677e-01  2.0010157018764888e-01  2.0271987269204378e-01 
 2.0537243533741656e-01  2.0805970641316762e-01  2.1078214007450471e-01  2.1354019641919636e-01 
 2.1633434156532907e-01  2.1916504773008305e-01  2.2203279330953740e-01  2.2493806295952057e-01 
 2.2788134767751830e-01  2.3086314488565357e-01  2.3388395851475072e-01  2.3694429908950335e-01 
 2.4004468381475236e-01  2.4318563666289572e-01  2.4636768846244042e-01  2.4959137698771425e-01 
 2.5285724704975054e-01  2.5616585058836305e-01  2.5951774676542438e-01  2.6291350205936653e-01 
 2.6635369036091622e-01  2.6983889307008446e-01  2.7336969919442422e-01  2.7694670544857419e-01 
 2.8057051635510488e-01  2.8424174434668453e-01  2.8796100986958167e-01  2.9172894148852235e-01 
 2.9554617599291710e-01  2.9941335850448325e-01  3.0333114258626942e-01  3.0730019035311001e-01 
 3.1132117258352454e-01  3.1539476883308021e-01  3.1952166754923872e-01  3.2370256618770549e-01 
 3.2793817133030145e-01  3.3222919880437674e-01  3.3657637380378763e-01  3.4098043101145575e-01 
 3.4544211472353115e-01  3.4996217897518050e-01  3.5454138766802051e-01  3.5918051469921919e-01 
 3.6388034409228637e-01  3.6864167012957633e-01  3.7346529748652035e-01  3.7835204136762302e-01 
 3.8330272764423140e-01  3.8831819299410919e-01  3.9339928504283783e-01  3.9854686250706706e-01 
 4.0376179533964007e-01  4.0904496487661768e-01  4.1439726398622595e-01  4.1981959721975348e-01 
 4.2531288096442244e-01  4.3087804359826021e-01  4.3651602564699743e-01  4.4222777994301943e-01 
 4.4801427178639669e-01  4.5387647910802309e-01  4.5981539263488869e-01  4.6583201605751562e-01 
 4.7192736619958059e-01  4.7810247318976618e-01  4.8435838063585090e-01  4.9069614580108295e-01 
 4.9711683978285964e-01  5.0362154769374579e-01  5.1021136884486018e-01  5.1688741693166185e-01 
 5.2365082022216691e-01  5.3050272174762925e-01  5.3744427949571461e-01  5.4447666660620420e-01 
 5.5160107156925742e-01  5.5881869842626963e-01  5.6613076697335851e-01  5.7353851296751179e-01 
 5.8104318833543389e-01  5.8864606138512476e-01  5.9634841702022301e-01  6.0415155695716483e-01 
 6.1205679994517126e-01  6.2006548198912315e-01  6.2817895657534684e-01  6.3639859490035855e-01 
 6.4472578610259856e-01  6.5316193749719964e-01  6.6170847481382655e-01  6.7036684243762690e-01 
 6.7913850365333739e-01  6.8802494089258048e-01  6.9702765598440031e-01  7.0614817040907485e-01 
 7.1538802555524938e-01  7.2474878298043555e-01  7.3423202467491766e-01  7.4383935332911422e-01 
 7.5357239260443187e-01  7.6343278740767473e-01  7.7342220416903351e-01  7.8354233112371652e-01 
 7.9379487859726583e-01  8.0418157929460687e-01  8.1470418859287863e-01  8.2536448483809732e-01 
 8.3616426964570090e-01  8.4710536820502647e-01  8.5818962958777156e-01  8.6941892706049118e-01 
 8.8079515840118505e-01  8.9232024622002681e-01  9.0399613828428782e-01  9.1582480784751741e-01 
 9.2780825398302491e-01  9.3994850192173041e-01  9.5224760339442749e-01  9.6470763697853956e-01 
 9.7733070844939851e-01  9.9011895113612713e-01  1.0030745262821767e+00  1.0161996234105823e+00 
 1.0294964606939976e+00  1.0429672853295715e+00  1.0566143739187290e+00  1.0704400328519235e+00 
 1.0844465986984204e+00  1.0986364386011853e+00  1.1130119506769347e+00  1.1275755644214249e+00 
 1.1423297411200410e+00  1.1572769742637616e+00  1.1724197899705642e+00  1.1877607474123464e+00 
 1.2033024392474245e+00  1.2190474920587118e+00  1.2349985667976080e+00  1.2511583592337090e+00 
 1.2675296004103984e+00  1.2841150571064002e+00  1.3009175323033710e+00  1.3179398656596109e+00 
 1.3351849339899715e+00  1.3526556517520456e+00  1.3703549715387173e+00  1.3882858845771562e+00 
 1.4064514212343435e+00  1.4248546515292100e+00  1.4434986856514764e+00  1.4623866744872849e+00 
 1.4815218101517031e+00  1.5009073265282051e+00  1.5205464998151923e+00 
  </PP_RAB>
</PP_MESH>


<PP_LOCAL>
2.0111056737050302e+02 2.0111056724814154e+02 2.0111056712254489e+02 2.0111056700915114e+02 
2.0111056689281543e+02 2.0111056677342617e+02 2.0111056665086545e+02 2.0111056652511365e+02 
2.0111056639608066e+02 2.0111056626360227e+02 2.0111056612780882e+02 2.0111056598837922e+02 
2.0111056584519861e+02 2.0111056569848702e+02 2.0111056554793925e+02 2.0111056539338978e+02 
2.0111056523475762e+02 2.0111056507214144e+02 2.0111056490536114e+02 2.0111056473410491e+02 
2.0111056455853958e+02 2.0111056437842839e+02 2.0111056419364715e+02 2.0111056400415742e+02 
2.0111056380974642e+02 2.0111056361034460e+02 2.0111056340586103e+02 2.0111056319618854e+02 
2.0111056298108053e+02 2.0111056276046753e+02 2.0111056253435007e+02 2.0111056230246814e+02 
2.0111056206462987e+02 2.0111056182074401e+02 2.0111056157076192e+02 2.0111056131454424e+02 
2.0111056105172625e+02 2.0111056078233545e+02 2.0111056050629310e+02 2.0111056022320520e+02 
2.0111055993312044e+02 2.0111055963586830e+02 2.0111055933110191e+02 2.0111055901885194e+02 
2.0111055869890922e+02 2.0111055837101816e+02 2.0111055803509390e+02 2.0111055769095896e+02 
2.0111055733840163e+02 2.0111055697718598e+02 2.0111055660722928e+02 2.0111055622841266e+02 
2.0111055584043919e+02 2.0111055544306410e+02 2.0111055503622805e+02 2.0111055461973692e+02 
2.0111055419329597e+02 2.0111055375682537e+02 2.0111055331010922e+02 2.0111055285290661e+02 
2.0111055238505600e+02 2.0111055190641801e+02 2.0111055141681740e+02 2.0111055091590919e+02 
2.0111055040364974e+02 2.0111054987990539e+02 2.0111054934435236e+02 2.0111054879687686e+02 
2.0111054823733753e+02 2.0111054766556725e+02 2.0111054708140057e+02 2.0111054648467095e+02 
2.0111054587531530e+02 2.0111054525308151e+02 2.0111054461781282e+02 2.0111054396957934e+02 
2.0111054330822500e+02 2.0111054263365378e+02 2.0111054194574763e+02 2.0111054124445650e+02 
2.0111054052982652e+02 2.0111053980186813e+02 2.0111053906065979e+02 2.0111053830605294e+02 
2.0111053753822929e+02 2.0111053675744290e+02 2.0111053596363877e+02 2.0111053515710330e+02 
2.0111053433814840e+02 2.0111053350694786e+02 2.0111053266394501e+02 2.0111053180949301e+02 
2.0111053094408825e+02 2.0111053006833669e+02 2.0111052918274379e+02 2.0111052828814445e+02 
2.0111052738531399e+02 2.0111052647505781e+02 2.0111052555848383e+02 2.0111052463684584e+02 
2.0111052371139462e+02 2.0111052278342447e+02 2.0111052185463828e+02 2.0111052092695789e+02 
2.0111052000218672e+02 2.0111051908246040e+02 2.0111051817030727e+02 2.0111051726851119e+02 
2.0111051638002345e+02 2.0111051550792871e+02 2.0111051465588852e+02 2.0111051382804956e+02 
2.0111051302869967e+02 2.0111051226263717e+02 2.0111051153523326e+02 2.0111051085235627e+02 
2.0111051022030802e+02 2.0111050964613301e+02 2.0111050913779590e+02 2.0111050870362413e+02 
2.0111050835325707e+02 2.0111050809699773e+02 2.0111050794570318e+02 2.0111050791227811e+02 
2.0111050801051692e+02 2.0111050825507766e+02 2.0111050866267183e+02 2.0111050925152514e+02 
2.0111051004154507e+02 2.0111051105499848e+02 2.0111051231592236e+02 2.0111051385059704e+02 
2.0111051568865557e+02 2.0111051786260342e+02 2.0111052040773103e+02 2.0111052336323215e+02 
2.0111052677202218e+02 2.0111053068190159e+02 2.0111053514588019e+02 2.0111054022120982e+02 
2.0111054597188388e+02 2.0111055246894685e+02 2.0111055979024246e+02 2.0111056802186135e+02 
2.0111057725927472e+02 2.0111058760850915e+02 2.0111059918623675e+02 2.0111061212145285e+02 
2.0111062655800862e+02 2.0111064265496944e+02 2.0111066058898152e+02 2.0111068055630864e+02 
2.0111070277346013e+02 2.0111072748229793e+02 2.0111075495292911e+02 2.0111078548382426e+02 
2.0111081940731552e+02 2.0111085709455418e+02 2.0111089895923956e+02 2.0111094546193797e+02 
2.0111099711670977e+02 2.0111105449843177e+02 2.0111111824696451e+02 2.0111118908036701e+02 
2.0111126780165122e+02 2.0111135530629727e+02 2.0111145260075716e+02 2.0111156081125276e+02 
2.0111168119985024e+02 2.0111181518528252e+02 2.0111196435598546e+02 2.0111213049927719e+02 
2.0111231562796868e+02 2.0111252199531069e+02 2.0111275214060220e+02 2.0111300893399576e+02 
2.0111329559938014e+02 2.0111361576573404e+02 2.0111397353377993e+02 2.0111437353760098e+02 
2.0111482100191282e+02 2.0111532182204948e+02 2.0111588268096659e+02 2.0111651113323455e+02 
2.0111721570992154e+02 2.0111800608637478e+02 2.0111889323367808e+02 2.0111988956862476e+02 
2.0112100916759886e+02 2.0112226800629000e+02 2.0112368422242753e+02 2.0112527842523329e+02 
2.0112707398683855e+02 2.0112909746053748e+02 2.0113137907641854e+02 2.0113395319828768e+02 
2.0113685890791848e+02 2.0114014066152768e+02 2.0114384906752005e+02 2.0114804177068052e+02 
2.0115278436068317e+02 2.0115815158209588e+02 2.0116422859037056e+02 2.0117111234738880e+02 
2.0117891339860117e+02 2.0118775763914479e+02 2.0119778853393933e+02 2.0120916963845838e+02 
2.0122208725200321e+02 2.0123675353986036e+02 2.0125341010853896e+02 2.0127233228675749e+02 
2.0129383362067753e+02 2.0131827048436782e+02 2.0134604840397682e+02 2.0137762887917910e+02 
2.0141353591270638e+02 2.0145436460916932e+02 2.0150079035593802e+02 2.0155357867851870e+02 
2.0161359706435923e+02 2.0168182697868474e+02 2.0175937709726745e+02 2.0184749936266053e+02 
2.0194760476397835e+02 2.0206128012475307e+02 2.0219030785194482e+02 2.0233668530331184e+02 
2.0250264614312729e+02 2.0269068220897424e+02 2.0290356367986516e+02 2.0314436238260782e+02 
2.0341647249065824e+02 2.0372362707015319e+02 2.0406991682465099e+02 2.0445980061302626e+02 
2.0489810820108247e+02 2.0539004004155393e+02 2.0594115019192739e+02 2.0655731851976967e+02 
2.0724470652478368e+02 2.0800968606777559e+02 2.0885874663440867e+02 2.0979837149113206e+02 
2.1083487970442766e+02 2.1197421764441887e+02 2.1322171640467801e+02 2.1458180027276742e+02 
2.1605762656829194e+02 2.1765069405129424e+02 2.1936038912310758e+02 2.2118347687426160e+02 
2.2311358240370063e+02 2.2514063179749942e+02 2.2725029281721032e+02 2.2942348451828593e+02 
2.3163592729029702e+02 2.3385783138875868e+02 2.3605377813917377e+02 2.3818281180203564e+02 
2.4019886615791674e+02 2.4205157179307722e+02 2.4368747983137584e+02 2.4505174931400720e+02 
2.4609033358300749e+02 2.4675264585590099e+02 2.4699462084639785e+02 2.4678204979593016e+02 
2.4609404031046515e+02 2.4492634784800751e+02 2.4329426637691918e+02 2.4123477174698075e+02 
2.3880755091397606e+02 2.3609459844258112e+02 2.3319810835777437e+02 2.3023650383192231e+02 
2.2733859523060050e+02 2.2463606914451350e+02 2.2225471750944010e+02 2.2030501951728613e+02 
2.1887290711278686e+02 2.1787649850897313e+02 2.1688833815419758e+02 2.1587455504192283e+02 
2.1483565617744640e+02 2.1377224496369834e+02 2.1268502560891818e+02 2.1157480715150797e+02 
2.1044250544784177e+02 2.0928914375448832e+02 2.0811586120089291e+02 2.0692390901161352e+02 
2.0571465048753421e+02 2.0448956990987125e+02 2.0325026723926536e+02 2.0199845438947983e+02 
2.0073595696459603e+02 1.9946471502764783e+02 1.9818677582582427e+02 1.9690429492550444e+02 
1.9561952639248386e+02 1.9433481093893835e+02 1.9305258757032342e+02 1.9177537423325160e+02 
1.9050575550199252e+02 1.8924638357274659e+02 1.8799996347393756e+02 1.8676923613950555e+02 
1.8555697467363026e+02 1.8436597183611960e+02 1.8319901676343392e+02 1.8205889560202920e+02 
1.8094836681194755e+02 1.7987014332895703e+02 1.7882688925838133e+02 1.7782119688451453e+02 
1.7685556870928571e+02 1.7593240990097345e+02 1.7505401013611052e+02 1.7422252183779241e+02 
1.7343995807094663e+02 1.7270817555577693e+02 1.7202885149927405e+02 1.7140348746443931e+02 
1.7083339198820047e+02 1.7031966721794328e+02 1.6986320997192939e+02 1.6946469646543139e+02 
1.6912458378945698e+02 1.6884310695045534e+02 1.6862027186221766e+02 1.6845585757056517e+02 
1.6834942057458085e+02 1.6830029670715132e+02 1.6830760459274447e+02 1.6837025445578743e+02 
1.6848695510622872e+02 1.6865622455199014e+02 1.6887640022120598e+02 1.6914564886279013e+02 
1.6946198327955602e+02 1.6982327667436076e+02 1.7022727479118515e+02 1.7067161046514073e+02 
1.7115382352257222e+02 1.7167137545861834e+02 1.7222166326526479e+02 1.7280203972148328e+02 
1.7340982664336940e+02 1.7404233147697528e+02 1.7469686239885294e+02 1.7537074346512793e+02 
1.7606132914256213e+02 1.7676601529489312e+02 1.7748225320179367e+02 1.7820756084492498e+02 
1.7893953309989982e+02 1.7967585008076426e+02 1.8041428582057594e+02 1.8115271598966655e+02 
1.8188912316318948e+02 1.8262160163930761e+02 1.8334836154943807e+02 1.8406773152815768e+02 
1.8477816056859317e+02 1.8547821903937634e+02 1.8616659831929439e+02 1.8684211036516811e+02 
1.8750368609675368e+02 1.8815037296444379e+02 1.8878133244943953e+02 1.8939583639533606e+02 
1.8999326327022126e+02 1.9057309413354477e+02 1.9113490768750651e+02 1.9167837569680137e+02 
1.9220325790342000e+02 1.9270939680530785e+02 1.9319671230454674e+02 1.9366519634358795e+02 
1.9411490767494030e+02 1.9454596649672777e+02 1.9495854906611260e+02 1.9535288277865055e+02 
1.9572924104643144e+02 1.9608793825198620e+02 1.9642932545652513e+02 1.9675378577897342e+02 
1.9706172996609374e+02 1.9735359246063953e+02 1.9762982753353501e+02 1.9789090566085665e+02 
1.9813731036309269e+02 1.9836953485179509e+02 1.9858807894136990e+02 1.9879344678677512e+02 
1.9898614426016860e+02 1.9916667654122594e+02 1.9933554618213017e+02 1.9949325131460520e+02 
1.9964028406416219e+02 1.9977712889749137e+02 1.9990426142287359e+02 2.0002214730151704e+02 
2.0013124114196756e+02 2.0023198588419544e+02 2.0032481198169214e+02 2.0041013672931058e+02 
2.0048836397419564e+02 2.0055988369659318e+02 2.0062507175356049e+02 2.0068428975843014e+02 
2.0073788495666875e+02 2.0078619016507909e+02 2.0082952393484973e+02 2.0086819063344825e+02 
2.0090248056556436e+02 2.0093267022823738e+02 2.0095902252151919e+02 2.0098178706706375e+02 
2.0100120051303114e+02 2.0101748686029916e+02 2.0103085783750447e+02 2.0104151326074810e+02 
2.0104964143376742e+02 2.0105541951918096e+02 2.0105901398102958e+02 2.0106058096059752e+02 
2.0106026667915313e+02 2.0105820790150815e+02 2.0105453224980096e+02 2.0104935865563530e+02 
2.0104279779414563e+02 2.0103495239821584e+02 2.0102591765057653e+02 2.0101578159637162e+02 
2.0100462547375847e+02 2.0099252404688096e+02 2.0097954596918814e+02 2.0096575410925743e+02 
2.0095120586041043e+02 2.0093595343456786e+02 2.0092004415391420e+02 2.0090352074270791e+02 
2.0088642159432845e+02 2.0086878100288934e+02 2.0085062942362444e+02 2.0083199370286894e+02 
2.0081289728479581e+02 2.0079336043610763e+02 2.0077340043380534e+02 2.0075303174553935e+02 
2.0073226620888144e+02 2.0071111320047191e+02 2.0068957979158381e+02 2.0066767089081057e+02 
2.0064538937866337e+02 2.0062273623846565e+02 2.0059971068202083e+02 2.0057631025373240e+02 
2.0055253093472587e+02 2.0052836724686563e+02 2.0050381233692025e+02 2.0047885806018914e+02 
2.0045349506297254e+02 2.0042771284853700e+02 2.0040149984161678e+02 2.0037484345221617e+02 
2.0034773013043647e+02 2.0032014541529952e+02 2.0029207397867575e+02 2.0026349966910095e+02 
2.0023440554907145e+02 2.0020477392626080e+02 2.0017458638512599e+02 2.0014382381290929e+02 
2.0011246642217171e+02 2.0008049377175701e+02 2.0004788478349872e+02 2.0001461775690910e+02 
1.9998067038196336e+02 1.9994601974845153e+02 1.9991064235357820e+02 1.9987451410773002e+02 
1.9983761033796262e+02 1.9979990579015944e+02 1.9976137462877747e+02 1.9972199043524566e+02 
1.9968172620565511e+02 1.9964055434612146e+02 1.9959844666660368e+02 1.9955537437459219e+02 
1.9951130806708400e+02 1.9946621772098908e+02 1.9942007268313958e+02 1.9937284165915563e+02 
1.9932449270178805e+02 1.9927499319773383e+02 1.9922430985356274e+02 1.9917240868189799e+02 
1.9911925498622011e+02 1.9906481334485193e+02 1.9900904759462574e+02 1.9895192081390624e+02 
1.9889339530490983e+02 1.9883343257583104e+02 1.9877199332211322e+02 1.9870903740712691e+02 
1.9864452384302092e+02 1.9857841077073215e+02 1.9851065543943898e+02 1.9844121418586431e+02 
1.9837004241335126e+02 1.9829709457044959e+02 1.9822232412901639e+02 1.9814568356225357e+02 
1.9806712432248358e+02 1.9798659681854383e+02 1.9790405039290999e+02 1.9781943329872627e+02 
1.9773269267663295e+02 1.9764377453131002e+02 1.9755262370785462e+02 1.9745918386810618e+02 
1.9736339746685849e+02 1.9726520572785068e+02 1.9716454861978255e+02 1.9706136483224319e+02 
1.9695559175158238e+02 1.9684716543685317e+02 1.9673602059568913e+02 1.9662209056028269e+02 
1.9650530726340017e+02 1.9638560121456254e+02 1.9626290147636772e+02 1.9613713564089642e+02 
1.9600822980641820e+02 1.9587610855433189e+02 1.9574069492642019e+02 1.9560191040234693e+02 
1.9545967487760029e+02 1.9531390664189328e+02 1.9516452235794188e+02 1.9501143704083125e+02 
1.9485456403795024e+02 1.9469381500953313e+02 1.9452909990991827e+02 1.9436032696956181e+02 
1.9418740267785051e+02 1.9401023176681593e+02 1.9382871719581061e+02 1.9364276013720249e+02 
1.9345225996317325e+02 1.9325711423371951e+02 1.9305721868595543e+02 1.9285246722467491e+02 
1.9264275191448093e+02 1.9242796297338154e+02 1.9220798876804238e+02 1.9198271581080886e+02 
1.9175202875850923e+02 1.9151581041326753e+02 1.9127394172535659e+02 1.9102630179822316e+02 
1.9077276789578275e+02 1.9051321545217868e+02 1.9024751808405080e+02 1.8997554760545043e+02 
1.8969717404557153e+02 1.8941226566941805e+02 1.8912068900149495e+02 1.8882230885275257e+02 
1.8851698835082107e+02 1.8820458897375548e+02 1.8788497058742098e+02 1.8755799148661816e+02 
1.8722350844016401e+02 1.8688137674002672e+02 1.8653145025468029e+02 1.8617358148684662e+02 
1.8580762163572888e+02 1.8543342066394652e+02 1.8505082736925920e+02 1.8465968946126387e+02 
1.8425985364320340e+02 1.8385116569901319e+02 1.8343347058574997e+02 1.8300661253155906e+02 
1.8257043513925422e+02 1.8212478149569648e+02 1.8166949428704228e+02 1.8120441591999153e+02 
1.8072938864912641e+02 1.8024425471043941e+02 1.7974885646112648e+02 1.7924303652572300e+02 
1.7872663794863197e+02 1.7819950435309519e+02 1.7766148010664000e+02 1.7711241049301731e+02 
1.7655214189060877e+02 1.7598052195734468e+02 1.7539739982201516e+02 1.7480262628198162e+02 
1.7419605400717822e+02 1.7357753775033390e+02 1.7294693456325246e+02 1.7230410401904010e+02 
1.7164890844009125e+02 1.7098121313164674e+02 1.7030088662068295e+02 1.6960780089990561e+02 
1.6890183167653285e+02 1.6818285862560984e+02 1.6745076564744360e+02 1.6670544112886012e+02 
1.6594677820783539e+02 1.6517467504108740e+02 1.6438903507415986e+02 1.6358976731350779e+02 
1.6277678660006026e+02 1.6195001388369369e+02 1.6110937649805393e+02 1.6025480843508814e+02 
1.5938625061865653e+02 1.5850365117655048e+02 1.5760696571023891e+02 1.5669615756158944e+02 
1.5577119807585944e+02 1.5483206686017769e+02 1.5387875203674622e+02 1.5291125048996588e+02 
1.5192956810668520e+02 1.5093372000874996e+02 1.4992373077706003e+02 1.5094963466627362e+02 
1.4991147580937343e+02 1.4885930841127134e+02 1.4779319693063050e+02 1.4671321624914614e+02 
1.4561945182747905e+02 1.4451199984712053e+02 1.4339096733744159e+02 1.4225647228726856e+02 
1.4110864374028574e+02 1.3994762187369292e+02 1.3877355805952888e+02 1.3758661490814546e+02 
1.3638696629337636e+02 1.3517479735897808e+02 1.3395030450602735e+02 1.3271369536097330e+02 
1.3146518872414299e+02 1.3020501449858767e+02 1.2893341359916965e+02 1.2765063784195327e+02 
1.2635694981395594e+02 1.2505262272347753e+02 1.2373794023123637e+02 1.2241319626267207e+02 
1.2107869480183571e+02 1.1973474966737213e+02 1.1838168427117257e+02 1.1701983136037998e+02 
1.1564953274345385e+02 1.1427113900113366e+02 1.1288500918315115e+02 1.1149151049165033e+02 
1.1009101795229631e+02 1.0868391407413442e+02 1.0727058849928144e+02 1.0585143764359628e+02 
1.0442686432948412e+02 1.0299727741202443e+02 1.0156309139963898e+02 1.0012472607049830e+02 
9.8682606085884885e+01 9.7237160601714393e+01 9.5788822879394644e+01 9.4338029897178217e+01 
9.2885221963116109e+01 9.1430842330694361e+01 8.9975336818149785e+01 8.8519153432420183e+01 
8.7062741998601297e+01 8.5606553795697408e+01 8.4151041199364002e+01 8.2696657332251505e+01 
8.1243855722433736e+01 7.9793089970317453e+01 7.8344813424292141e+01 7.6899478865266147e+01 
7.5457538200101851e+01 7.4019442163843095e+01 7.2585640030470856e+01 7.1156579331814726e+01 
6.9732705584087086e+01 6.8314462021381772e+01 6.6902289335337244e+01 6.5496625420028963e+01 
6.4097905121025263e+01 6.2706559987405861e+01 6.1323018025429704e+01 5.9947703452407268e+01 
5.8581036449232819e+01 5.7223432909925272e+01 5.5875304186435841e+01 5.4537056826897739e+01 
5.3209092305431071e+01 5.1891806741554085e+01 5.0585590607222834e+01 4.9290828419491646e+01 
4.8007898416792862e+01 4.6737172216850844e+01 4.5479014454284730e+01 4.4233782396028474e+01 
4.3001825532783762e+01 4.1783485144849102e+01 4.0579093840821940e+01 3.9388975067860564e+01 
3.8213442592414587e+01 3.7052799950600324e+01 3.5907339867696201e+01 3.4777343646586409e+01 
3.3663080525366929e+01 3.2564807004769882e+01 3.1482766146546602e+01 3.0417186844483339e+01 
2.9368283070304400e+01 2.8336253097346898e+01 2.7321278705560541e+01 2.6323524372103780e+01 
2.5343136452547416e+01 2.4380242358480082e+01 2.3434949738100670e+01 2.2507345667182275e+01 
2.1597495858594467e+01 2.0705443899335553e+01 1.9831210524766991e+01 1.8974792940414829e+01 
1.8136164202289244e+01 1.7315272667175673e+01 1.6512041524709939e+01 1.5726368423275636e+01 
1.4958125201829134e+01 1.4207157739650095e+01 1.3473285935726317e+01 1.2756303829022698e+01 
1.2055979870251583e+01 1.1372057354992149e+01 1.0704255027103345e+01 1.0052267860404418e+01 
9.4157680255840983e+00 8.7944060482837525e+00 8.1878121633479974e+00 7.5955978693471895e+00 
7.0173576866772249e+00 6.4526711218220214e+00 5.9011048396639172e+00 5.3622150449581794e+00 
4.8355505782318531e+00 4.3206537095746960e+00 3.8170661230203105e+00 3.3243301529360774e+00 
2.8419926605205257e+00 2.3696086022893090e+00 1.9067447460260196e+00 1.4529835132727702e+00 
1.0079269019285719e+00 5.7120044170556872e-01 1.4245711738869068e-01 -2.7861881530199378e-01 
-6.9230821115842978e-01 -1.0988537128300651e+00 -1.4984568368406894e+00 -1.8912755824211993e+00 
-2.2774226834701037e+00 -2.6569646188087579e+00 -3.0299214856189587e+00 -3.3962678262360457e+00 
-3.7559344703042088e+00 -4.1088114256398383e+00 -4.4547518107055213e+00 -4.7935767765982940e+00 
-5.1250813260068764e+00 -5.4490408856720967e+00 -5.7652184559917812e+00 -6.0733721309702471e+00 
-6.3732627689850174e+00 -6.6646615991891522e+00 -6.9473575712089000e+00 -7.2211642956407314e+00 
-7.4859264720973879e+00 -7.7415257555565029e+00 -7.9878860549583157e+00 -8.2249782840557444e+00 
-8.4528245828825614e+00 -8.6715019938626998e+00 -8.8811455155256542e+00 -9.0819503730455597e+00 
-9.2741732559486199e+00 -9.4581321924015089e+00 -9.6342046777684356e+00 -9.8028236552425643e+00 
-9.9644709787411756e+00 -1.0119668061558013e+01 -1.0268963531933581e+01 -1.0412917868627183e+01 
-1.0552085165315020e+01 -1.0686992364449489e+01 -1.0818116496747615e+01 -1.0945860657370599e+01 
-1.1070529633058857e+01 -1.1192306262197912e+01 -1.1311229754633837e+01 -1.1427177314645320e+01 
-1.1539850492919578e+01 -1.1648767735340140e+01 -1.1753264587619395e+01 -1.1852502938052236e+01 
-1.1945490512364605e+01 -1.2031111530368333e+01 -1.2108168951333987e+01 -1.2175438017476493e+01 
-1.2231729828820232e+01 -1.2275962464953455e+01 -1.2307235807683872e+01 -1.2324904896502495e+01 
-1.2328645615016784e+01 -1.2318506016366959e+01 -1.2294936832028959e+01 -1.2258795712875072e+01 
-1.2211341630229052e+01 -1.2154078893199696e+01 -1.2088857186007692e+01 -1.2017579337081477e+01 
-1.1942135753745429e+01 -1.1864242641902583e+01 -1.1785279155488018e+01 -1.1706134367005731e+01 
-1.1627075552532693e+01 -1.1547653081249221e+01 -1.1466657113658982e+01 -1.1382139697677484e+01 
-1.1291512579780120e+01 -1.1191726240900755e+01 -1.1079529619008591e+01 -1.0951803006326742e+01 
-1.0805948873690774e+01 -1.0640316883703758e+01 -1.0454630164040688e+01 -1.0250370515585752e+01 
-1.0031071904775208e+01 -1.1852466476471490e+01 -1.1622428514568620e+01 -1.1400742197195681e+01 
-1.1198868060289366e+01 -1.1028793597091449e+01 -1.0902836467831804e+01 -1.0816887533797589e+01 
-1.0685821558838843e+01 -1.0545108104592451e+01 -1.0407638401611878e+01 -1.0272021527718799e+01 
-1.0138339440780767e+01 -1.0006531795367417e+01 -9.8765562862260250e+00 -9.7483720691943443e+00 
-9.6219410933311700e+00 -9.4972276543785483e+00 -9.3741981594143926e+00 -9.2528208991016552e+00 
-9.1330658458611556e+00 -9.0149044737660571e+00 -8.8983095982679590e+00 -8.7832552337353640e+00 
-8.6697164669708151e+00 -8.5576693450983967e+00 -8.4470907763153953e+00 -8.3379584423147310e+00 
-8.2302507213432765e+00 -8.1239466210172750e+00 -8.0190257202561632e+00 -7.9154681197445296e+00 
-7.8132544004186046e+00 -7.7123655894869065e+00 -7.6127831334174783e+00 -7.5144888772063281e+00 
-7.4174650490556155e+00 -7.3216942494519053e+00 -7.2271594434016428e+00 -7.1338439545373671e+00 
-7.0417314597583411e+00 -6.9508059831354974e+00 -6.8610518881032547e+00 -6.7724538671547245e+00 
-6.6849969287323514e+00 -6.5986663813054651e+00 -6.5134478150684103e+00 -6.4293270818783776e+00 
-6.3462902743147351e+00 -6.2643237047603240e+00 -6.1834138853833673e+00 -6.1035475097719800e+00 
-6.0247114368021801e+00 -5.9468926771109025e+00 -5.8700783823329470e+00 -5.7942558370994153e+00 
-5.7194124536157798e+00 -5.6455357685318486e+00 -5.5726134417713542e+00 -5.5006332568989365e+00 
-5.4295831226278377e+00 -5.3594510750990416e+00 -5.2902252805653847e+00 -5.2218940381815058e+00 
-5.1544457826550723e+00 -5.0878690865692500e+00 -5.0221526622419734e+00 -4.9572853630482037e+00 
-4.8932561841728512e+00 -4.8300542628041780e+00 -4.7676688778083482e+00 -4.7060894489453435e+00 
-4.6453055357025974e+00 -4.5853068358192104e+00 -4.5260831835848743e+00 -4.4676245479752739e+00 
-4.4099210306909207e+00 -4.3529628641473979e+00 -4.2967404094527817e+00 -4.2412441544067159e+00 
-4.1864647115357085e+00 -4.1323928161793519e+00 -4.0790193246327107e+00 -4.0263352123488785e+00 
-3.9743315721961805e+00 -3.9229996127746936e+00 -3.8723306567802660e+00 -3.8223161394167562e+00 
-3.7729476068507255e+00 -3.7242167147047924e+00 -3.6761152265852455e+00 -3.6286350126409515e+00 
-3.5817680481506327e+00 -3.5355064121372699e+00 -3.4898422860055911e+00 -3.4447679522027892e+00 
-3.4002757929001697e+00 -3.3563582886945675e+00 -3.3130080173295458e+00 -3.2702176524335536e+00 
-3.2279799622786545e+00 -3.1862878085522888e+00 -3.1451341451489032e+00 -3.1045120169770879e+00 
-3.0644145587816047e+00 -3.0248349939827754e+00 -2.9857666335290913e+00 -2.9472028747663832e+00 
-2.9091372003219296e+00 -2.8715631770013625e+00 -2.8344744547019252e+00 -2.7978647653387276e+00 
-2.7617279217853072e+00 -2.7260578168275766e+00 -2.6908484221318831e+00 -2.6560937872259029e+00 
-2.6217880384931487e+00 -2.5879253781802634e+00 -2.5545000834163427e+00 -2.5215065052471881e+00 
-2.4889390676790613e+00 -2.4567922667376605e+00 -2.4250606695368857e+00 -2.3937389133612665e+00 
-2.3628217047592832e+00 -2.3323038186493736e+00 -2.3021800974360489e+00 -2.2724454501385347e+00 
-2.2430948515307199e+00 -2.2141233412916170e+00 -2.1855260231670184e+00 -2.1572980641421937e+00 
-2.1294346936246451e+00 -2.1019312026387476e+00 -2.0747829430288105e+00 -2.0479853266744512e+00 
-2.0215338247146293e+00 -1.9954239667828981e+00 -1.9696513402504663e+00 -1.9442115894827756e+00 
-1.9191004151009525e+00 -1.8943135732569452e+00 -1.8698468749156343e+00 -1.8456961851463514e+00 
-1.8218574224255373e+00 -1.7983265579452805e+00 -1.7750996149334279e+00 -1.7521726679814122e+00 
-1.7295418423805342e+00 -1.7072033134675697e+00 -1.6851533059779782e+00 -1.6633880934080232e+00 
-1.6419039973846112e+00 -1.6206973870448815e+00 -1.5997646784207291e+00 -1.5791023338350600e+00 
-1.5587068613019854e+00 -1.5385748139384590e+00 -1.5187027893805605e+00 -1.4990874292086100e+00 
-1.4797254183800561e+00 -1.4606134846692109e+00 -1.4417483981136765e+00 -1.4231269704689233e+00 
-1.4047460546693558e+00 -1.3866025442964642e+00 -1.3686933730538056e+00 -1.3510155142488141e+00 
-1.3335659802812814e+00 -1.3163418221384307e+00 -1.2993401288965420e+00 -1.2825580272289925e+00 
-1.2659926809206565e+00 -1.2496412903885814e+00 -1.2335010922088490e+00 -1.2175693586495515e+00 
-1.2018433972097993e+00 -1.1863205501646785e+00 -1.1709981941160936e+00 -1.1558737395494034e+00 
-1.1409446303957880e+00 -1.1262083436002661e+00 -1.1116623886952997e+00 -1.0973043073798865e+00 
-1.0831316731041114e+00 -1.0691420906590487e+00 -1.0553331957719692e+00 -1.0417026547067700e+00 
-1.0282481638695697e+00 -1.0149674494193159e+00 -1.0018582668838116e+00 -9.8891840077993143e-01 
-9.7614566423950488e-01 -9.6353789863965589e-01 -9.5109297323799036e-01 -9.3880878481249530e-01 
-9.2668325730608925e-01 -9.1471434147576391e-01 -9.0290001454625646e-01 -8.9123827986819515e-01 
-8.7972716658066652e-01 -8.6836472927812569e-01 -8.5714904768162492e-01 -8.4607822631428020e-01 
-8.3515039418093040e-01 -8.2436370445193596e-01 -8.1371633415105926e-01 -8.0320648384737781e-01 
-7.9283237735117551e-01 -7.8259226141376348e-01 -7.7248440543117558e-01 -7.6250710115169307e-01 
-7.5265866238714607e-01 -7.4293742472794277e-01 -7.3334174526178142e-01 -7.2387000229599363e-01 
-7.1452059508347465e-01 -7.0529194355215152e-01 -6.9618248803795302e-01 -6.8719068902121472e-01 
-6.7831502686650114e-01 -6.6955400156578349e-01 -6.6090613248493368e-01 -6.5236995811349452e-01 
-6.4394403581768000e-01 -6.3562694159656785e-01 -6.2741726984143908e-01 -6.1931363309822729e-01 
-6.1131466183303551e-01 -6.0341900420068140e-01 -5.9562532581623306e-01 -5.8793230952949338e-01 
-5.8033865520240002e-01 -5.7284307948929802e-01 -5.6544431562005171e-01 -5.5814111318595616e-01 
-5.5093223792842017e-01 -5.4381647153036583e-01 -5.3679261141033607e-01 -5.2985947051925297e-01 
-5.2301587713980446e-01 -5.1626067468842096e-01 -5.0959272151981017e-01 -5.0301089073401606e-01 
-4.9651406998597075e-01 -4.9010116129750453e-01 -4.8377108087178577e-01 -4.7752275891015628e-01 
-4.7135513943133295e-01 -4.6526718009294438e-01 -4.5925785201537239e-01 -4.5332613960786922e-01 
-4.4747104039691976e-01 -4.4169156485682087e-01 -4.3598673624245238e-01 -4.3035559042419935e-01 
-4.2479717572501613e-01 -4.1931055275958867e-01 -4.1389479427557729e-01 -4.0854898499690812e-01 
-4.0327222146908953e-01 -3.9806361190652617e-01 -3.9292227604180480e-01 -3.8784734497692763e-01 
-3.8283796103646567e-01 -3.7789327762261038e-01 -3.7301245907209579e-01 -3.6819468051497012e-01 
-3.6343912773519049e-01 -3.5874499703301832e-01 -3.5411149508919254e-01 -3.4953783883085587e-01 
-3.4502325529921607e-01 -3.4056698151891063e-01 -3.3616826436906416e-01 -3.3182636045600911e-01 
-3.2754053598764998e-01 -3.2331006664945083e-01 -3.1913423748202474e-01 -3.1501234276030349e-01 
-3.1094368587426852e-01 -3.0692757921122238e-01 -3.0296334403958025e-01 -2.9905031039416291e-01 
-2.9518781696297092e-01 -2.9137521097542107e-01 -2.8761184809202739e-01 -2.8389709229550525e-01 
-2.8023031578328350e-01 -2.7661089886140405e-01 -2.7303822983979326e-01 -2.6951170492888288e-01 
-2.6603072813756934e-01 -2.6259471117248995e-01 -2.5920307333859943e-01 -2.5585524144103167e-01 
-2.5255064968822760e-01 -2.4928873959631584e-01 -2.4606895989472716e-01 -2.4289076643302859e-01 
-2.3975362208896078e-01 -2.3665699667766280e-01 -2.3360036686206989e-01 -2.3058321606446808e-01 
-2.2760503437919161e-01 -2.2466531848644722e-01 -2.2176357156725218e-01 -2.1889930321947038e-01 
-2.1607202937493461e-01 -2.1328127221763551e-01 -2.1052656010297124e-01 -2.0780742747803799e-01 
-2.0512341480295029e-01 -2.0247406847317787e-01 -1.9985894074288527e-01 -1.9727758964926184e-01 
-1.9472957893782888e-01 -1.9221447798871164e-01 -1.8973186174386356e-01 -1.8728131063523040e-01 
-1.8486241051384217e-01 -1.8247475257982124e-01 -1.8011793331329387e-01 -1.7779155440619454e-01 
-1.7549522269495094e-01 -1.7322855009403812e-01 -1.7099115353039218e-01 
</PP_LOCAL>


<PP_NONLOCAL>
  <PP_BETA>
  1  0      Beta    L
  1178  
 0.0000000000000000e+00  0.0000000000000000e+00  0.0000000000000000e+00  0.0000000000000000e+00 
 0.0000000000000000e+00  0.0000000000000000e+00  0.0000000000000000e+00  0.0000000000000000e+00 
 0.0000000000000000e+00  0.0000000000000000e+00  0.0000000000000000e+00  0.0000000000000000e+00 
 0.0000000000000000e+00  0.0000000000000000e+00  0.0000000000000000e+00  0.0000000000000000e+00 
 0.0000000000000000e+00  0.0000000000000000e+00  0.0000000000000000e+00  0.0000000000000000e+00 
 0.0000000000000000e+00  0.0000000000000000e+00  0.0000000000000000e+00  0.0000000000000000e+00 
 0.0000000000000000e+00  0.0000000000000000e+00  0.0000000000000000e+00  0.0000000000000000e+00 
 0.0000000000000000e+00  0.0000000000000000e+00  0.0000000000000000e+00  0.0000000000000000e+00 
 0.0000000000000000e+00  0.0000000000000000e+00  0.0000000000000000e+00  0.0000000000000000e+00 
 0.0000000000000000e+00  0.0000000000000000e+00  0.0000000000000000e+00  0.0000000000000000e+00 
 0.0000000000000000e+00  0.0000000000000000e+00  0.0000000000000000e+00  0.0000000000000000e+00 
 0.0000000000000000e+00  0.0000000000000000e+00  0.0000000000000000e+00  0.0000000000000000e+00 
 0.0000000000000000e+00  0.0000000000000000e+00  0.0000000000000000e+00  0.0000000000000000e+00 
 0.0000000000000000e+00  0.0000000000000000e+00  0.0000000000000000e+00  0.0000000000000000e+00 
 0.0000000000000000e+00  0.0000000000000000e+00  0.0000000000000000e+00  0.0000000000000000e+00 
 0.0000000000000000e+00  0.0000000000000000e+00  0.0000000000000000e+00  0.0000000000000000e+00 
 0.0000000000000000e+00  0.0000000000000000e+00  0.0000000000000000e+00  0.0000000000000000e+00 
 0.0000000000000000e+00  0.0000000000000000e+00  0.0000000000000000e+00  0.0000000000000000e+00 
 0.0000000000000000e+00  0.0000000000000000e+00  0.0000000000000000e+00  0.0000000000000000e+00 
 0.0000000000000000e+00  0.0000000000000000e+00  0.0000000000000000e+00  0.0000000000000000e+00 
 0.0000000000000000e+00  0.0000000000000000e+00  0.0000000000000000e+00  0.0000000000000000e+00 
 0.0000000000000000e+00  0.0000000000000000e+00  0.0000000000000000e+00  0.0000000000000000e+00 
 0.0000000000000000e+00  0.0000000000000000e+00  0.0000000000000000e+00  0.0000000000000000e+00 
 0.0000000000000000e+00  0.0000000000000000e+00  0.0000000000000000e+00  0.0000000000000000e+00 
 0.0000000000000000e+00  0.0000000000000000e+00  0.0000000000000000e+00  0.0000000000000000e+00 
 0.0000000000000000e+00  0.0000000000000000e+00  0.0000000000000000e+00  0.0000000000000000e+00 
 0.0000000000000000e+00  0.0000000000000000e+00  0.0000000000000000e+00  0.0000000000000000e+00 
 0.0000000000000000e+00  0.0000000000000000e+00  0.0000000000000000e+00  0.0000000000000000e+00 
 0.0000000000000000e+00  0.0000000000000000e+00  0.0000000000000000e+00  0.0000000000000000e+00 
 0.0000000000000000e+00  0.0000000000000000e+00  0.0000000000000000e+00  0.0000000000000000e+00 
 0.0000000000000000e+00  0.0000000000000000e+00  0.0000000000000000e+00  0.0000000000000000e+00 
 0.0000000000000000e+00  0.0000000000000000e+00  0.0000000000000000e+00  0.0000000000000000e+00 
 0.0000000000000000e+00  0.0000000000000000e+00  0.0000000000000000e+00  0.0000000000000000e+00 
 0.0000000000000000e+00  0.0000000000000000e+00  0.0000000000000000e+00  0.0000000000000000e+00 
 0.0000000000000000e+00  0.0000000000000000e+00  0.0000000000000000e+00  0.0000000000000000e+00 
 0.0000000000000000e+00  0.0000000000000000e+00  0.0000000000000000e+00  0.0000000000000000e+00 
 0.0000000000000000e+00  0.0000000000000000e+00  0.0000000000000000e+00  0.0000000000000000e+00 
 0.0000000000000000e+00  0.0000000000000000e+00  0.0000000000000000e+00  0.0000000000000000e+00 
 0.0000000000000000e+00  0.0000000000000000e+00  0.0000000000000000e+00  0.0000000000000000e+00 
 0.0000000000000000e+00  0.0000000000000000e+00  0.0000000000000000e+00  0.0000000000000000e+00 
 0.0000000000000000e+00  0.0000000000000000e+00  0.0000000000000000e+00  0.0000000000000000e+00 
 0.0000000000000000e+00  0.0000000000000000e+00  0.0000000000000000e+00  0.0000000000000000e+00 
 0.0000000000000000e+00  0.0000000000000000e+00  0.0000000000000000e+00  0.0000000000000000e+00 
 0.0000000000000000e+00  0.0000000000000000e+00  0.0000000000000000e+00  0.0000000000000000e+00 
 0.0000000000000000e+00  0.0000000000000000e+00  0.0000000000000000e+00  0.0000000000000000e+00 
 0.0000000000000000e+00  0.0000000000000000e+00  0.0000000000000000e+00  0.0000000000000000e+00 
 0.0000000000000000e+00  0.0000000000000000e+00  0.0000000000000000e+00  0.0000000000000000e+00 
 0.0000000000000000e+00  0.0000000000000000e+00  0.0000000000000000e+00  0.0000000000000000e+00 
 0.0000000000000000e+00  0.0000000000000000e+00  0.0000000000000000e+00  0.0000000000000000e+00 
 0.0000000000000000e+00  0.0000000000000000e+00  0.0000000000000000e+00  0.0000000000000000e+00 
 0.0000000000000000e+00  0.0000000000000000e+00  0.0000000000000000e+00  0.0000000000000000e+00 
 0.0000000000000000e+00  0.0000000000000000e+00  0.0000000000000000e+00  0.0000000000000000e+00 
 0.0000000000000000e+00  0.0000000000000000e+00  0.0000000000000000e+00  0.0000000000000000e+00 
 0.0000000000000000e+00  0.0000000000000000e+00  0.0000000000000000e+00  0.0000000000000000e+00 
 0.0000000000000000e+00  0.0000000000000000e+00  0.0000000000000000e+00  0.0000000000000000e+00 
 0.0000000000000000e+00  0.0000000000000000e+00  0.0000000000000000e+00  0.0000000000000000e+00 
 0.0000000000000000e+00  0.0000000000000000e+00  0.0000000000000000e+00  0.0000000000000000e+00 
 0.0000000000000000e+00  0.0000000000000000e+00  0.0000000000000000e+00  0.0000000000000000e+00 
 0.0000000000000000e+00  0.0000000000000000e+00  0.0000000000000000e+00  0.0000000000000000e+00 
 0.0000000000000000e+00  0.0000000000000000e+00  0.0000000000000000e+00  0.0000000000000000e+00 
 0.0000000000000000e+00  0.0000000000000000e+00  0.0000000000000000e+00  0.0000000000000000e+00 
 0.0000000000000000e+00  0.0000000000000000e+00  0.0000000000000000e+00  0.0000000000000000e+00 
 0.0000000000000000e+00  0.0000000000000000e+00  0.0000000000000000e+00  0.0000000000000000e+00 
 0.0000000000000000e+00  0.0000000000000000e+00  0.0000000000000000e+00  0.0000000000000000e+00 
 0.0000000000000000e+00  0.0000000000000000e+00  0.0000000000000000e+00  0.0000000000000000e+00 
 0.0000000000000000e+00  0.0000000000000000e+00  0.0000000000000000e+00  0.0000000000000000e+00 
 0.0000000000000000e+00  0.0000000000000000e+00  0.0000000000000000e+00  0.0000000000000000e+00 
 0.0000000000000000e+00  0.0000000000000000e+00  0.0000000000000000e+00  0.0000000000000000e+00 
 0.0000000000000000e+00  0.0000000000000000e+00  0.0000000000000000e+00  0.0000000000000000e+00 
 0.0000000000000000e+00  0.0000000000000000e+00  0.0000000000000000e+00  0.0000000000000000e+00 
 0.0000000000000000e+00  0.0000000000000000e+00  0.0000000000000000e+00  0.0000000000000000e+00 
 0.0000000000000000e+00  0.0000000000000000e+00  0.0000000000000000e+00  0.0000000000000000e+00 
 0.0000000000000000e+00  0.0000000000000000e+00  0.0000000000000000e+00  0.0000000000000000e+00 
 0.0000000000000000e+00  0.0000000000000000e+00  0.0000000000000000e+00  0.0000000000000000e+00 
 0.0000000000000000e+00  0.0000000000000000e+00  0.0000000000000000e+00  0.0000000000000000e+00 
 0.0000000000000000e+00  0.0000000000000000e+00  0.0000000000000000e+00  0.0000000000000000e+00 
 0.0000000000000000e+00  0.0000000000000000e+00  0.0000000000000000e+00  0.0000000000000000e+00 
 0.0000000000000000e+00  0.0000000000000000e+00  0.0000000000000000e+00  0.0000000000000000e+00 
 0.0000000000000000e+00  0.0000000000000000e+00  0.0000000000000000e+00  0.0000000000000000e+00 
 0.0000000000000000e+00  0.0000000000000000e+00  0.0000000000000000e+00  0.0000000000000000e+00 
 0.0000000000000000e+00  0.0000000000000000e+00  0.0000000000000000e+00  0.0000000000000000e+00 
 0.0000000000000000e+00  0.0000000000000000e+00  0.0000000000000000e+00  0.0000000000000000e+00 
 0.0000000000000000e+00  0.0000000000000000e+00  0.0000000000000000e+00  0.0000000000000000e+00 
 0.0000000000000000e+00  0.0000000000000000e+00  0.0000000000000000e+00  0.0000000000000000e+00 
 0.0000000000000000e+00  0.0000000000000000e+00  0.0000000000000000e+00  0.0000000000000000e+00 
 0.0000000000000000e+00  0.0000000000000000e+00  0.0000000000000000e+00  0.0000000000000000e+00 
 0.0000000000000000e+00  0.0000000000000000e+00  0.0000000000000000e+00  0.0000000000000000e+00 
 0.0000000000000000e+00  0.0000000000000000e+00  0.0000000000000000e+00  0.0000000000000000e+00 
 0.0000000000000000e+00  0.0000000000000000e+00  0.0000000000000000e+00  0.0000000000000000e+00 
 0.0000000000000000e+00  0.0000000000000000e+00  0.0000000000000000e+00  0.0000000000000000e+00 
 0.0000000000000000e+00  0.0000000000000000e+00  0.0000000000000000e+00  0.0000000000000000e+00 
 0.0000000000000000e+00  0.0000000000000000e+00  0.0000000000000000e+00  0.0000000000000000e+00 
 0.0000000000000000e+00  0.0000000000000000e+00  0.0000000000000000e+00  0.0000000000000000e+00 
 0.0000000000000000e+00  0.0000000000000000e+00  0.0000000000000000e+00  0.0000000000000000e+00 
 0.0000000000000000e+00  0.0000000000000000e+00  0.0000000000000000e+00  0.0000000000000000e+00 
 0.0000000000000000e+00  0.0000000000000000e+00  0.0000000000000000e+00  0.0000000000000000e+00 
 0.0000000000000000e+00  0.0000000000000000e+00  0.0000000000000000e+00  0.0000000000000000e+00 
 0.0000000000000000e+00  0.0000000000000000e+00  0.0000000000000000e+00  0.0000000000000000e+00 
 0.0000000000000000e+00  0.0000000000000000e+00  0.0000000000000000e+00  0.0000000000000000e+00 
 0.0000000000000000e+00  0.0000000000000000e+00  0.0000000000000000e+00  0.0000000000000000e+00 
 0.0000000000000000e+00  0.0000000000000000e+00  0.0000000000000000e+00  0.0000000000000000e+00 
 0.0000000000000000e+00  0.0000000000000000e+00  0.0000000000000000e+00  0.0000000000000000e+00 
 0.0000000000000000e+00  0.0000000000000000e+00  0.0000000000000000e+00  0.0000000000000000e+00 
 0.0000000000000000e+00  0.0000000000000000e+00  0.0000000000000000e+00  0.0000000000000000e+00 
 0.0000000000000000e+00  0.0000000000000000e+00  0.0000000000000000e+00  0.0000000000000000e+00 
 0.0000000000000000e+00  0.0000000000000000e+00  0.0000000000000000e+00  0.0000000000000000e+00 
 0.0000000000000000e+00  0.0000000000000000e+00  0.0000000000000000e+00  0.0000000000000000e+00 
 0.0000000000000000e+00  0.0000000000000000e+00  0.0000000000000000e+00  0.0000000000000000e+00 
 0.0000000000000000e+00  0.0000000000000000e+00  0.0000000000000000e+00  0.0000000000000000e+00 
 0.0000000000000000e+00  0.0000000000000000e+00  0.0000000000000000e+00  0.0000000000000000e+00 
 0.0000000000000000e+00  0.0000000000000000e+00  0.0000000000000000e+00  0.0000000000000000e+00 
 0.0000000000000000e+00  0.0000000000000000e+00  0.0000000000000000e+00  0.0000000000000000e+00 
 0.0000000000000000e+00  0.0000000000000000e+00  0.0000000000000000e+00  0.0000000000000000e+00 
 0.0000000000000000e+00  0.0000000000000000e+00  0.0000000000000000e+00  0.0000000000000000e+00 
 0.0000000000000000e+00  0.0000000000000000e+00  0.0000000000000000e+00  0.0000000000000000e+00 
 0.0000000000000000e+00  0.0000000000000000e+00  0.0000000000000000e+00  0.0000000000000000e+00 
 0.0000000000000000e+00  0.0000000000000000e+00  0.0000000000000000e+00  0.0000000000000000e+00 
 0.0000000000000000e+00  0.0000000000000000e+00  0.0000000000000000e+00  0.0000000000000000e+00 
 0.0000000000000000e+00  0.0000000000000000e+00  0.0000000000000000e+00  0.0000000000000000e+00 
 0.0000000000000000e+00  0.0000000000000000e+00  0.0000000000000000e+00  0.0000000000000000e+00 
 0.0000000000000000e+00  0.0000000000000000e+00  0.0000000000000000e+00  0.0000000000000000e+00 
 0.0000000000000000e+00  0.0000000000000000e+00  0.0000000000000000e+00  0.0000000000000000e+00 
 0.0000000000000000e+00  0.0000000000000000e+00  0.0000000000000000e+00  0.0000000000000000e+00 
 0.0000000000000000e+00  0.0000000000000000e+00  0.0000000000000000e+00  0.0000000000000000e+00 
 0.0000000000000000e+00  0.0000000000000000e+00  0.0000000000000000e+00  0.0000000000000000e+00 
 0.0000000000000000e+00  0.0000000000000000e+00  0.0000000000000000e+00  0.0000000000000000e+00 
 0.0000000000000000e+00  0.0000000000000000e+00  0.0000000000000000e+00  0.0000000000000000e+00 
 0.0000000000000000e+00  0.0000000000000000e+00  0.0000000000000000e+00  0.0000000000000000e+00 
 0.0000000000000000e+00  0.0000000000000000e+00  0.0000000000000000e+00  0.0000000000000000e+00 
 0.0000000000000000e+00  0.0000000000000000e+00  0.0000000000000000e+00  0.0000000000000000e+00 
 0.0000000000000000e+00  0.0000000000000000e+00  0.0000000000000000e+00  0.0000000000000000e+00 
 0.0000000000000000e+00  0.0000000000000000e+00  0.0000000000000000e+00  0.0000000000000000e+00 
 0.0000000000000000e+00  0.0000000000000000e+00  0.0000000000000000e+00  0.0000000000000000e+00 
 0.0000000000000000e+00  0.0000000000000000e+00  0.0000000000000000e+00  0.0000000000000000e+00 
 0.0000000000000000e+00  0.0000000000000000e+00  0.0000000000000000e+00  0.0000000000000000e+00 
 0.0000000000000000e+00  0.0000000000000000e+00  0.0000000000000000e+00  0.0000000000000000e+00 
 0.0000000000000000e+00  0.0000000000000000e+00  0.0000000000000000e+00  0.0000000000000000e+00 
 0.0000000000000000e+00  0.0000000000000000e+00  0.0000000000000000e+00  0.0000000000000000e+00 
 0.0000000000000000e+00  0.0000000000000000e+00  0.0000000000000000e+00  0.0000000000000000e+00 
 0.0000000000000000e+00  0.0000000000000000e+00  0.0000000000000000e+00  0.0000000000000000e+00 
 0.0000000000000000e+00  0.0000000000000000e+00  0.0000000000000000e+00  0.0000000000000000e+00 
 0.0000000000000000e+00  0.0000000000000000e+00  0.0000000000000000e+00  0.0000000000000000e+00 
 0.0000000000000000e+00  0.0000000000000000e+00  0.0000000000000000e+00  0.0000000000000000e+00 
 0.0000000000000000e+00  0.0000000000000000e+00  0.0000000000000000e+00  0.0000000000000000e+00 
 0.0000000000000000e+00  0.0000000000000000e+00  0.0000000000000000e+00  0.0000000000000000e+00 
 0.0000000000000000e+00  0.0000000000000000e+00  0.0000000000000000e+00  0.0000000000000000e+00 
 0.0000000000000000e+00  0.0000000000000000e+00  0.0000000000000000e+00  0.0000000000000000e+00 
 0.0000000000000000e+00  0.0000000000000000e+00  0.0000000000000000e+00  0.0000000000000000e+00 
 0.0000000000000000e+00  0.0000000000000000e+00  0.0000000000000000e+00  0.0000000000000000e+00 
 0.0000000000000000e+00  0.0000000000000000e+00  0.0000000000000000e+00  0.0000000000000000e+00 
 0.0000000000000000e+00  0.0000000000000000e+00  0.0000000000000000e+00  0.0000000000000000e+00 
 0.0000000000000000e+00  0.0000000000000000e+00  0.0000000000000000e+00  0.0000000000000000e+00 
 0.0000000000000000e+00  0.0000000000000000e+00  0.0000000000000000e+00  0.0000000000000000e+00 
 0.0000000000000000e+00  0.0000000000000000e+00  0.0000000000000000e+00  0.0000000000000000e+00 
 0.0000000000000000e+00  0.0000000000000000e+00  0.0000000000000000e+00  0.0000000000000000e+00 
 0.0000000000000000e+00  0.0000000000000000e+00  0.0000000000000000e+00  0.0000000000000000e+00 
 0.0000000000000000e+00  0.0000000000000000e+00  0.0000000000000000e+00  0.0000000000000000e+00 
 0.0000000000000000e+00  0.0000000000000000e+00  0.0000000000000000e+00  0.0000000000000000e+00 
 0.0000000000000000e+00  0.0000000000000000e+00  0.0000000000000000e+00  -6.9847509219026363e-03 
 -7.1263767191471214e-03  -7.2718761668652074e-03  -7.4213816334484954e-03  -7.5750305385033270e-03 
 -7.7329655540592044e-03  -7.8953348138494535e-03  -8.0622921309804925e-03  -8.2339972243124070e-03 
 -8.4106159538909556e-03  -8.5923205657767055e-03  -8.7792899466327991e-03  -8.9717098884416462e-03 
 -9.1697733637368644e-03  -9.3736808117445766e-03  -9.5836404358442453e-03  -9.7998685127698611e-03 
 -1.0022589713988233e-02  -1.0252037439695922e-02  -1.0488454165903523e-02  -1.0732091805071575e-02 
 -1.0983212080793238e-02  -1.1242086917014327e-02  -1.1508998842311484e-02  -1.1784241409747190e-02 
 -1.2068119632843053e-02  -1.2360950438219897e-02  -1.2663063135469168e-02  -1.2974799904826421e-02 
 -1.3296516303236815e-02  -1.3628581789404381e-02  -1.3971380268436921e-02  -1.4325310656697982e-02 
 -1.4690787467494944e-02  -1.5068241418233964e-02  -1.5458120059684560e-02  -1.5860888427996975e-02 
 -1.6277029720126408e-02  -1.6707045993317880e-02  -1.7151458889307643e-02  -1.7610810383899486e-02 
 -1.8085663562572039e-02  -1.8576603422772047e-02  -1.9084237703539262e-02  -1.9609197743108046e-02 
 -2.0152139365118515e-02  -2.0713743794056935e-02  -2.1294718600537128e-02  -2.1895798677013013e-02 
 -2.2517747244496216e-02  -2.3161356890831538e-02  -2.3827450641059497e-02  -2.4516883060364349e-02 
 -2.5230541390082534e-02  -2.5969346717207339e-02  -2.6734255177796012e-02  -2.7526259194640881e-02 
 -2.8346388749533494e-02  -2.9195712690395281e-02  -3.0075340073518111e-02  -3.0986421541093680e-02 
 -3.1930150734171513e-02  -3.2907765741132113e-02  -3.3920550581703360e-02  -3.4969836726504805e-02 
 -3.6057004652039600e-02  -3.7183485431014379e-02  -3.8350762357800917e-02  -3.9560372608819588e-02 
 -4.0813908937564661e-02  -4.2113021403959783e-02  -4.3459419137687236e-02  -4.4854872135109615e-02 
 -4.6301213089373010e-02  -4.7800339253271533e-02  -4.9354214334445139e-02  -5.0964870422487651e-02 
 -5.2634409947569218e-02  -5.4365007670197155e-02  -5.6158912701803038e-02  -5.8018450555896162e-02 
 -5.9946025229614106e-02  -6.1944121315599766e-02  -6.4015306144249301e-02  -6.6162231956521378e-02 
 -6.8387638107643881e-02  -7.0694353302240193e-02  -7.3085297861571211e-02  -7.5563486023806581e-02 
 -7.8132028278435031e-02  -8.0794133736152407e-02  -8.3553112535771551e-02  -8.6412378289907790e-02 
 -8.9375450571382700e-02  -9.2445957442442481e-02  -9.5627638029012210e-02  -9.8924345142251069e-02 
 -1.0234004794967350e-01  -1.0587883469796569e-01  -1.0954491548940881e-01  -1.1334262511342334e-01 
 -1.1727642593418976e-01  -1.2135091083452951e-01  -1.2557080621520453e-01  -1.2994097504748287e-01 
 -1.3446641997518094e-01  -1.3915228646036690e-01  -1.4400386596447604e-01  -1.4902659915366187e-01 
 -1.5422607911377079e-01  -1.5960805455630575e-01  -1.6517843299209983e-01  -1.7094328384410265e-01 
 -1.7690884146466465e-01  -1.8308150801589615e-01  -1.8946785616415698e-01  -1.9607463153136001e-01 
 -2.0290875483664458e-01  -2.0997732365208008e-01  -2.1728761368539770e-01  -2.2484707949147564e-01 
 -2.3266335450241227e-01  -2.4074425025373272e-01  -2.4909775467169895e-01  -2.5773202927406041e-01 
 -2.6665540512417174e-01  -2.7587637736647269e-01  -2.8540359816028171e-01  -2.9524586781906154e-01 
 -3.0541212395427997e-01  -3.1591142841713721e-01  -3.2675295182844277e-01  -3.3794595548719086e-01 
 -3.4949977045272707e-01  -3.6142377360423533e-01  -3.7372736049532740e-01  -3.8641991484129129e-01 
 -3.9951077450254985e-01  -4.1300919386049600e-01  -4.2692430252136998e-01  -4.4126506033024765e-01 
 -4.5604020873042911e-01  -4.7125821856304317e-01  -4.8692723446677916e-01  -5.0305501610718883e-01 
 -5.1964887653731640e-01  -5.3671561806459689e-01  -5.5426146607035420e-01  -5.7229200129489299e-01 
 -5.9081209115963673e-01  -6.0982582074389102e-01  -6.2933642406356449e-01  -6.4934621630774048e-01 
 -6.6985652767186410e-01  -6.9086763937888485e-01  -7.1237872239788147e-01  -7.3438777925006082e-01 
 -7.5689158913223720e-01  -7.7988565638723084e-01  -8.0336416211016592e-01  -8.2731991840323504e-01 
 -8.5174432448561366e-01  -8.7662732353997119e-01  -9.0195735884622263e-01  -9.2772132743458169e-01 
 -9.5390452920545243e-01  -9.8049060923898312e-01  -1.0074614908813198e+00  -1.0347972971790769e+00 
 -1.0624762583714047e+00  -1.0904746034718782e+00  -1.1187664345097168e+00  -1.1473235827746444e+00 
 -1.1761154474363937e+00  -1.2051088181899463e+00  -1.2342676850960532e+00  -1.2635530405084032e+00 
 -1.2929226798449025e+00  -1.3223310098861196e+00  -1.3517288751564616e+00  -1.3810634146235874e+00 
 -1.4102779622755317e+00  -1.4393120059212379e+00  -1.4681012186180453e+00  -1.4965775762723896e+00 
 -1.5246695730220139e+00  -1.5523025428639952e+00  -1.5793990915831295e+00  -1.6058796373871698e+00 
 -1.6316630519107385e+00  -1.6566673856836001e+00  -1.6808106541958199e+00  -1.7040116529105733e+00 
 -1.7261907626985673e+00  -1.7472707020376876e+00  -1.7671771798489599e+00  -1.7858394039346066e+00 
 -1.8031904054574228e+00  -1.8191671503507010e+00  -1.8337104242256306e+00  -1.8467644980176161e+00 
 -1.8582766064439196e+00  -1.8681962987855596e+00  -1.8764747492575731e+00  -1.8830641392723539e+00 
 -1.8879172426182500e+00  -1.8909873530136239e+00  -1.8922286877322521e+00  -1.8915973776393529e+00 
 -1.8890531107709085e+00  -1.8845614330578737e+00  -1.8780966278778537e+00  -1.8696450006672538e+00 
 -1.8592082938942420e+00  -1.8468068624253480e+00  -1.8324821633938178e+00  -1.8162980731770249e+00 
 -1.7983405517838369e+00  0.0000000000000000e+00  0.0000000000000000e+00  0.0000000000000000e+00 
 0.0000000000000000e+00  0.0000000000000000e+00  0.0000000000000000e+00  0.0000000000000000e+00 
 0.0000000000000000e+00  0.0000000000000000e+00  0.0000000000000000e+00  0.0000000000000000e+00 
 0.0000000000000000e+00  0.0000000000000000e+00  0.0000000000000000e+00  0.0000000000000000e+00 
 0.0000000000000000e+00  0.0000000000000000e+00  0.0000000000000000e+00  0.0000000000000000e+00 
 0.0000000000000000e+00  0.0000000000000000e+00  0.0000000000000000e+00  0.0000000000000000e+00 
 0.0000000000000000e+00  0.0000000000000000e+00  0.0000000000000000e+00  0.0000000000000000e+00 
 0.0000000000000000e+00  0.0000000000000000e+00  0.0000000000000000e+00  0.0000000000000000e+00 
 0.0000000000000000e+00  0.0000000000000000e+00  0.0000000000000000e+00  0.0000000000000000e+00 
 0.0000000000000000e+00  0.0000000000000000e+00  0.0000000000000000e+00  0.0000000000000000e+00 
 0.0000000000000000e+00  0.0000000000000000e+00  0.0000000000000000e+00  0.0000000000000000e+00 
 0.0000000000000000e+00  0.0000000000000000e+00  0.0000000000000000e+00  0.0000000000000000e+00 
 0.0000000000000000e+00  0.0000000000000000e+00  0.0000000000000000e+00  0.0000000000000000e+00 
 0.0000000000000000e+00  0.0000000000000000e+00  0.0000000000000000e+00  0.0000000000000000e+00 
 0.0000000000000000e+00  0.0000000000000000e+00  0.0000000000000000e+00  0.0000000000000000e+00 
 0.0000000000000000e+00  0.0000000000000000e+00  0.0000000000000000e+00  0.0000000000000000e+00 
 0.0000000000000000e+00  0.0000000000000000e+00  0.0000000000000000e+00  0.0000000000000000e+00 
 0.0000000000000000e+00  0.0000000000000000e+00  0.0000000000000000e+00  0.0000000000000000e+00 
 0.0000000000000000e+00  0.0000000000000000e+00  0.0000000000000000e+00  0.0000000000000000e+00 
 0.0000000000000000e+00  0.0000000000000000e+00  0.0000000000000000e+00  0.0000000000000000e+00 
 0.0000000000000000e+00  0.0000000000000000e+00  0.0000000000000000e+00  0.0000000000000000e+00 
 0.0000000000000000e+00  0.0000000000000000e+00  0.0000000000000000e+00  0.0000000000000000e+00 
 0.0000000000000000e+00  0.0000000000000000e+00  0.0000000000000000e+00  0.0000000000000000e+00 
 0.0000000000000000e+00  0.0000000000000000e+00  0.0000000000000000e+00  0.0000000000000000e+00 
 0.0000000000000000e+00  0.0000000000000000e+00  0.0000000000000000e+00  0.0000000000000000e+00 
 0.0000000000000000e+00  0.0000000000000000e+00  0.0000000000000000e+00  0.0000000000000000e+00 
 0.0000000000000000e+00  0.0000000000000000e+00  0.0000000000000000e+00  0.0000000000000000e+00 
 0.0000000000000000e+00  0.0000000000000000e+00  0.0000000000000000e+00  0.0000000000000000e+00 
 0.0000000000000000e+00  0.0000000000000000e+00  0.0000000000000000e+00  0.0000000000000000e+00 
 0.0000000000000000e+00  0.0000000000000000e+00  0.0000000000000000e+00  0.0000000000000000e+00 
 0.0000000000000000e+00  0.0000000000000000e+00  0.0000000000000000e+00  0.0000000000000000e+00 
 0.0000000000000000e+00  0.0000000000000000e+00  0.0000000000000000e+00  0.0000000000000000e+00 
 0.0000000000000000e+00  0.0000000000000000e+00  0.0000000000000000e+00  0.0000000000000000e+00 
 0.0000000000000000e+00  0.0000000000000000e+00  0.0000000000000000e+00  0.0000000000000000e+00 
 0.0000000000000000e+00  0.0000000000000000e+00  0.0000000000000000e+00  0.0000000000000000e+00 
 0.0000000000000000e+00  0.0000000000000000e+00  0.0000000000000000e+00  0.0000000000000000e+00 
 0.0000000000000000e+00  0.0000000000000000e+00  0.0000000000000000e+00  0.0000000000000000e+00 
 0.0000000000000000e+00  0.0000000000000000e+00  0.0000000000000000e+00  0.0000000000000000e+00 
 0.0000000000000000e+00  0.0000000000000000e+00  0.0000000000000000e+00  0.0000000000000000e+00 
 0.0000000000000000e+00  0.0000000000000000e+00  0.0000000000000000e+00  0.0000000000000000e+00 
 0.0000000000000000e+00  0.0000000000000000e+00  0.0000000000000000e+00  0.0000000000000000e+00 
 0.0000000000000000e+00  0.0000000000000000e+00  0.0000000000000000e+00  0.0000000000000000e+00 
 0.0000000000000000e+00  0.0000000000000000e+00  0.0000000000000000e+00  0.0000000000000000e+00 
 0.0000000000000000e+00  0.0000000000000000e+00  0.0000000000000000e+00  0.0000000000000000e+00 
 0.0000000000000000e+00  0.0000000000000000e+00  0.0000000000000000e+00  0.0000000000000000e+00 
 0.0000000000000000e+00  0.0000000000000000e+00  0.0000000000000000e+00  0.0000000000000000e+00 
 0.0000000000000000e+00  0.0000000000000000e+00  0.0000000000000000e+00  0.0000000000000000e+00 
 0.0000000000000000e+00  0.0000000000000000e+00  0.0000000000000000e+00  0.0000000000000000e+00 
 0.0000000000000000e+00  0.0000000000000000e+00  0.0000000000000000e+00  0.0000000000000000e+00 
 0.0000000000000000e+00  0.0000000000000000e+00  0.0000000000000000e+00  0.0000000000000000e+00 
 0.0000000000000000e+00  0.0000000000000000e+00  0.0000000000000000e+00  0.0000000000000000e+00 
 0.0000000000000000e+00  0.0000000000000000e+00  0.0000000000000000e+00  0.0000000000000000e+00 
 0.0000000000000000e+00  0.0000000000000000e+00  0.0000000000000000e+00  0.0000000000000000e+00 
 0.0000000000000000e+00  0.0000000000000000e+00  0.0000000000000000e+00  0.0000000000000000e+00 
 0.0000000000000000e+00  0.0000000000000000e+00  0.0000000000000000e+00  0.0000000000000000e+00 
 0.0000000000000000e+00  0.0000000000000000e+00  0.0000000000000000e+00  0.0000000000000000e+00 
 0.0000000000000000e+00  0.0000000000000000e+00  0.0000000000000000e+00  0.0000000000000000e+00 
 0.0000000000000000e+00  0.0000000000000000e+00  0.0000000000000000e+00  0.0000000000000000e+00 
 0.0000000000000000e+00  0.0000000000000000e+00  0.0000000000000000e+00  0.0000000000000000e+00 
 0.0000000000000000e+00  0.0000000000000000e+00  0.0000000000000000e+00  0.0000000000000000e+00 
 0.0000000000000000e+00  0.0000000000000000e+00  0.0000000000000000e+00  0.0000000000000000e+00 
 0.0000000000000000e+00  0.0000000000000000e+00  0.0000000000000000e+00  0.0000000000000000e+00 
 0.0000000000000000e+00  0.0000000000000000e+00  0.0000000000000000e+00  0.0000000000000000e+00 
 0.0000000000000000e+00  0.0000000000000000e+00  0.0000000000000000e+00  0.0000000000000000e+00 
 0.0000000000000000e+00  0.0000000000000000e+00  0.0000000000000000e+00  0.0000000000000000e+00 
 0.0000000000000000e+00  0.0000000000000000e+00  0.0000000000000000e+00  0.0000000000000000e+00 
 0.0000000000000000e+00  0.0000000000000000e+00  0.0000000000000000e+00  0.0000000000000000e+00 
 0.0000000000000000e+00  0.0000000000000000e+00  0.0000000000000000e+00  0.0000000000000000e+00 
 0.0000000000000000e+00  0.0000000000000000e+00  0.0000000000000000e+00  0.0000000000000000e+00 
 0.0000000000000000e+00  0.0000000000000000e+00  0.0000000000000000e+00  0.0000000000000000e+00 
 0.0000000000000000e+00  0.0000000000000000e+00  0.0000000000000000e+00  0.0000000000000000e+00 
 0.0000000000000000e+00  0.0000000000000000e+00  0.0000000000000000e+00  0.0000000000000000e+00 
 0.0000000000000000e+00  0.0000000000000000e+00  0.0000000000000000e+00  0.0000000000000000e+00 
 0.0000000000000000e+00  0.0000000000000000e+00  0.0000000000000000e+00  0.0000000000000000e+00 
 0.0000000000000000e+00  0.0000000000000000e+00  0.0000000000000000e+00  0.0000000000000000e+00 
 0.0000000000000000e+00  0.0000000000000000e+00  0.0000000000000000e+00  0.0000000000000000e+00 
 0.0000000000000000e+00  0.0000000000000000e+00  0.0000000000000000e+00  0.0000000000000000e+00 
 0.0000000000000000e+00  0.0000000000000000e+00  0.0000000000000000e+00  0.0000000000000000e+00 
 0.0000000000000000e+00  0.0000000000000000e+00  0.0000000000000000e+00  0.0000000000000000e+00 
 0.0000000000000000e+00  0.0000000000000000e+00  0.0000000000000000e+00  0.0000000000000000e+00 
 0.0000000000000000e+00  0.0000000000000000e+00  0.0000000000000000e+00  0.0000000000000000e+00 
 0.0000000000000000e+00  0.0000000000000000e+00  0.0000000000000000e+00 
  </PP_BETA>
  <PP_BETA>
  2  1      Beta    L
  1178  
 -1.2487103414268170e-08  -1.2816025552547815e-08  -1.3153611811425191e-08  -1.3500090412027956e-08 
 -1.3855695587043383e-08  -1.4220667739068106e-08  -1.4595253603129996e-08  -1.4979706413489425e-08 
 -1.5374286074836245e-08  -1.5779259337993782e-08  -1.6194899980253996e-08  -1.6621488990459389e-08 
 -1.7059314758963443e-08  -1.7508673272593185e-08  -1.7969868314746133e-08  -1.8443211670760692e-08 
 -1.8929023338693986e-08  -1.9427631745652866e-08  -1.9939373969822788e-08  -2.0464595968344276e-08 
 -2.1003652811195565e-08  -2.1556908921229642e-08  -2.2124738320540677e-08  -2.2707524883315247e-08 
 -2.3305662595346042e-08  -2.3919555820381256e-08  -2.4549619573489092e-08  -2.5196279801623824e-08 
 -2.5859973671580858e-08  -2.6541149865539407e-08  -2.7240268884386753e-08  -2.7957803359034669e-08 
 -2.8694238369934991e-08  -2.9450071775013059e-08  -3.0225814546236780e-08  -3.1021991115054098e-08 
 -3.1839139726925415e-08  -3.2677812805201136e-08  -3.3538577324577587e-08  -3.4422015194392794e-08 
 -3.5328723652021080e-08  -3.6259315666624761e-08  -3.7214420353544776e-08  -3.8194683399607520e-08 
 -3.9200767499630103e-08  -4.0233352804427753e-08  -4.1293137380621605e-08  -4.2380837682555526e-08 
 -4.3497189036646893e-08  -4.4642946138492700e-08  -4.5818883563073729e-08  -4.7025796288393207e-08 
 -4.8264500232911596e-08  -4.9535832807137014e-08  -5.0840653479746819e-08  -5.2179844358617290e-08 
 -5.3554310787161546e-08  -5.4964981956375458e-08  -5.6412811533002622e-08  -5.7898778304248454e-08 
 -5.9423886839476725e-08  -6.0989168169331711e-08  -6.2595680482756202e-08  -6.4244509842359042e-08 
 -6.5936770918640811e-08  -6.7673607743543036e-08  -6.9456194483859338e-08  -7.1285736235012126e-08 
 -7.3163469835741772e-08  -7.5090664704251018e-08  -7.7068623696379835e-08  -7.9098683986378537e-08 
 -8.1182217970888327e-08  -8.3320634196726728e-08  -8.5515378313116955e-08  -8.7767934048998878e-08 
 -9.0079824216077357e-08  -9.2452611738299400e-08  -9.4887900708444596e-08  -9.7387337472546938e-08 
 -9.9952611742885641e-08  -1.0258545774028147e-07  -1.0528765536650046e-07  -1.0806103140751488e-07 
 -1.1090746076848790e-07  -1.1382886774126617e-07  -1.1682722730526429e-07  -1.1990456646262462e-07 
 -1.2306296560853655e-07  -1.2630455993765193e-07  -1.2963154088755249e-07  -1.3304615762023273e-07 
 -1.3655071854260899e-07  -1.4014759286708171e-07  -1.4383921221319620e-07  -1.4762807225150753e-07 
 -1.5151673439072397e-07  -1.5550782750931490e-07  -1.5960404973271010e-07  -1.6380817025732804e-07 
 -1.6812303122263394e-07  -1.7255154963252355e-07  -1.7709671932730968e-07  -1.8176161300765705e-07 
 -1.8654938431181697e-07  -1.9146326994759706e-07  -1.9650659188047058e-07  -2.0168275957933540e-07 
 -2.0699527232141196e-07  -2.1244772155786838e-07  -2.1804379334175371e-07  -2.2378727081987955e-07 
 -2.2968203679034186e-07  -2.3573207632740907e-07  -2.4194147947555572e-07  -2.4831444401444689e-07 
 -2.5485527829676870e-07  -2.6156840416079180e-07  -2.6845835991967988e-07  -2.7552980342949240e-07 
 -2.8278751523805696e-07  -2.9023640181673638e-07  -2.9788149887734248e-07  -3.0572797477643009e-07 
 -3.1378113400923407e-07  -3.2204642079565753e-07  -3.3052942276071193e-07  -3.3923587471190306e-07 
 -3.4817166251610312e-07  -3.5734282707856530e-07  -3.6675556842671217e-07  -3.7641624990152250e-07 
 -3.8633140245931224e-07  -3.9650772908681978e-07  -4.0695210933258124e-07  -4.1767160395767572e-07 
 -4.2867345970897239e-07  -4.3996511421808536e-07  -4.5155420102941262e-07  -4.6344855476053196e-07 
 -4.7565621639862900e-07  -4.8818543873634919e-07  -5.0104469195086549e-07  -5.1424266932989347e-07 
 -5.2778829314853818e-07  -5.4169072070092076e-07  -5.5595935049068490e-07  -5.7060382858456613e-07 
 -5.8563405513331899e-07  -6.0106019106437605e-07  -6.1689266495082767e-07  -6.3314218006130818e-07 
 -6.4981972159556038e-07  -6.6693656411063213e-07  -6.8450427914263509e-07  -7.0253474302925713e-07 
 -7.2104014493833674e-07  -7.4003299510791576e-07  -7.5952613330329087e-07  -7.7953273749688135e-07 
 -8.0006633277663268e-07  -8.2114080048918360e-07  -8.4277038762371763e-07  -8.6496971644313156e-07 
 -8.8775379436874244e-07  -9.1113802412543629e-07  -9.3513821415402042e-07  -9.5977058929782339e-07 
 -9.8505180177074118e-07  -1.0109989424142280e-06  -1.0376295522507405e-06  -1.0649616343415293e-06 
 -1.0930136659567109e-06  -1.1218046110659037e-06  -1.1513539331578607e-06  -1.1816816083978048e-06 
 -1.2128081391311819e-06  -1.2447545677431956e-06  -1.2775424908833804e-06  -1.3111940740647852e-06 
 -1.3457320666477135e-06  -1.3811798172180309e-06  -1.4175612893707070e-06  -1.4549010779088480e-06 
 -1.4932244254694756e-06  -1.5325572395872862e-06  -1.5729261102077065e-06  -1.6143583276612571e-06 
 -1.6568819011113303e-06  -1.7005255774878787e-06  -1.7453188609197207e-06  -1.7912920326787008e-06 
 -1.8384761716490349e-06  -1.8869031753358988e-06  -1.9366057814273187e-06  -1.9876175899238038e-06 
 -2.0399730858510107e-06  -2.0937076625704005e-06  -2.1488576457040168e-06  -2.2054603176892983e-06 
 -2.2635539429804731e-06  -2.3231777939139154e-06  -2.3843721772545785e-06  -2.4471784614414221e-06 
 -2.5116391045508126e-06  -2.5777976829958291e-06  -2.6456989209819101e-06  -2.7153887207379267e-06 
 -2.7869141935436000e-06  -2.8603236915738051e-06  -2.9356668405818876e-06  -3.0129945734434894e-06 
 -3.0923591645837949e-06  -3.1738142653113278e-06  -3.2574149400824798e-06  -3.3432177037211452e-06 
 -3.4312805596180024e-06  -3.5216630389364564e-06  -3.6144262408505079e-06  -3.7096328738425701e-06 
 -3.8073472980888023e-06  -3.9076355689605226e-06  -4.0105654816710752e-06  -4.1162066170988227e-06 
 -4.2246303888165049e-06  -4.3359100913588613e-06  -4.4501209497618575e-06  -4.5673401704059288e-06 
 -4.6876469931982086e-06  -4.8111227451291101e-06  -4.9378508952385821e-06  -5.0679171110303315e-06 
 -5.2014093163714047e-06  -5.3384177509158372e-06  -5.4790350310939132e-06  -5.6233562127066476e-06 
 -5.7714788551685322e-06  -5.9235030874420851e-06  -6.0795316757083353e-06  -6.2396700928188895e-06 
 -6.4040265895772273e-06  -6.5727122678958622e-06  -6.7458411558806544e-06  -6.9235302848912176e-06 
 -7.1058997686310091e-06  -7.2930728843186589e-06  -7.4851761559972737e-06  -7.6823394400370442e-06 
 -7.8846960128878722e-06  -8.0923826611437384e-06  -8.3055397739769743e-06  -8.5243114380063045e-06 
 -8.7488455346626087e-06  -8.9792938401177107e-06  -9.2158121278431624e-06  -9.4585602738702651e-06 
 -9.7077023648193595e-06  -9.9634068087738327e-06  -1.0225846449072525e-05  -1.0495198681096805e-05 
 -1.0771645572132473e-05  -1.1055373984386362e-05  -1.1346575701241163e-05  -1.1645447556832431e-05 
 -1.1952191569037072e-05  -1.2267015075961389e-05  -1.2590130876022010e-05  -1.2921757371712502e-05 
 -1.3262118717154376e-05  -1.3611444969531247e-05  -1.3969972244507580e-05  -1.4337942875738115e-05 
 -1.4715605578574249e-05  -1.5103215618078345e-05  -1.5501034981459887e-05  -1.5909332555047495e-05 
 -1.6328384305919837e-05  -1.6758473468311599e-05  -1.7199890734929384e-05  -1.7652934453295707e-05 
 -1.8117910827262099e-05  -1.8595134123823275e-05  -1.9084926885370504e-05  -1.9587620147529744e-05 
 -2.0103553662730856e-05  -2.0633076129656057e-05  -2.1176545428725295e-05  -2.1734328863774384e-05 
 -2.2306803410090635e-05  -2.2894355968971857e-05  -2.3497383628979290e-05  -2.4116293934062576e-05 
 -2.4751505158735020e-05  -2.5403446590484185e-05  -2.6072558819610218e-05  -2.6759294036684292e-05 
 -2.7464116337828077e-05  -2.8187502038019151e-05  -2.8929939992633824e-05  -2.9691931927443443e-05 
 -3.0473992777283248e-05  -3.1276651033628486e-05  -3.2100449101298550e-05  -3.2945943664544690e-05 
 -3.3813706062753589e-05  -3.4704322676026793e-05  -3.5618395320891944e-05  -3.6556541656413001e-05 
 -3.7519395600969929e-05  -3.8507607759986823e-05  -3.9521845864904497e-05  -4.0562795223672877e-05 
 -4.1631159183089197e-05  -4.2727659603272385e-05  -4.3853037344600728e-05  -4.5008052767437914e-05 
 -4.6193486244983286e-05  -4.7410138689584775e-05  -4.8658832092874191e-05  -4.9940410080081179e-05 
 -5.1255738478898004e-05  -5.2605705903276291e-05  -5.3991224352550032e-05  -5.5413229826274764e-05 
 -5.6872682955205911e-05  -5.8370569648834639e-05  -5.9907901759903661e-05  -6.1485717766368177e-05 
 -6.3105083471232177e-05  -6.4767092720747230e-05  -6.6472868141443427e-05  -6.8223561896487564e-05 
 -7.0020356461867277e-05  -7.1864465422926871e-05  -7.3757134291781016e-05  -7.5699641346148357e-05 
 -7.7693298490169718e-05  -7.9739452137778447e-05  -8.1839484119212343e-05  -8.3994812611274828e-05 
 -8.6206893091950499e-05  -8.8477219320024314e-05  -9.0807324340347914e-05  -9.3198781515420478e-05 
 -9.5653205583967304e-05  -9.8172253747217284e-05  -1.0075762678361425e-04  -1.0341107019266681e-04 
 -1.0613437536873785e-04  -1.0892938080551078e-04  -1.1179797333195249e-04  -1.1474208938058783e-04 
 -1.1776371628890067e-04  -1.2086489363477135e-04  -1.2404771460675906e-04  -1.2731432741020841e-04 
 -1.3066693671003822e-04  -1.3410780511122523e-04  -1.3763925467790439e-04  -1.4126366849210933e-04 
 -1.4498349225318228e-04  -1.4880123591888594e-04  -1.5271947538930756e-04  -1.5674085423464666e-04 
 -1.6086808546803873e-04  -1.6510395336453366e-04  -1.6945131532748124e-04  -1.7391310380347711e-04 
 -1.7849232824715074e-04  -1.8319207713709103e-04  -1.8801552004419147e-04  -1.9296590975375800e-04 
 -1.9804658444280685e-04  -2.0326096991391489e-04  -2.0861258188706674e-04  -2.1410502835105796e-04 
 -2.1974201197586234e-04  -2.2552733258763606e-04  -2.3146488970785439e-04  -2.3755868515830866e-04 
 -2.4381282573355688e-04  -2.5023152594263017e-04  -2.5681911082166281e-04  -2.6358001881934064e-04 
 -2.7051880475694292e-04  -2.7764014286491175e-04  -2.8494882989787556e-04  -2.9244978833010607e-04 
 -3.0014806963343500e-04  -3.0804885763974931e-04  -3.1615747199013915e-04  -3.2447937167294201e-04 
 -3.3302015865286830e-04  -3.4178558159353922e-04  -3.5078153967571350e-04  -3.6001408651371847e-04 
 -3.6948943417240080e-04  -3.7921395728721043e-04  -3.8919419728994934e-04  -3.9943686674282901e-04 
 -4.0994885378352011e-04  -4.2073722668394849e-04  -4.3180923852566738e-04  -4.4317233199470053e-04 
 -4.5483414429875176e-04  -4.6680251220989542e-04  -4.7908547723573078e-04  -4.9169129092219870e-04 
 -5.0462842029134179e-04  -5.1790555341719633e-04  -5.3153160514329216e-04  -5.4551572294513648e-04 
 -5.5986729294126480e-04  -5.7459594605636336e-04  -5.8971156434030011e-04  -6.0522428744665179e-04 
 -6.2114451927466365e-04  -6.3748293477857104e-04  -6.5425048694820159e-04  -6.7145841396505873e-04 
 -6.8911824653797283e-04  -7.0724181542260818e-04  -7.2584125912921306e-04  -7.4492903182294225e-04 
 -7.6451791142142535e-04  -7.8462100789404804e-04  -8.0525177176777500e-04  -8.2642400284423502e-04 
 -8.4815185913294155e-04  -8.7044986600581646e-04  -8.9333292557774221e-04  -9.1681632631872073e-04 
 -9.4091575290263484e-04  -9.6564729629803432e-04  -9.9102746410644946e-04  -1.0170731911537908e-03 
 -1.0438018503404569e-03  -1.0712312637557895e-03  -1.0993797140630387e-03  -1.1282659561603447e-03 
 -1.1579092291241929e-03  -1.1883292684410273e-03  -1.2195463185337345e-03  -1.2515811455888141e-03 
 -1.2844550506911092e-03  -1.3181898832720870e-03  -1.3528080548787442e-03  -1.3883325532694389e-03 
 -1.4247869568435505e-03  -1.4621954494117950e-03  -1.5005828353140433e-03  -1.5399745548916326e-03 
 -1.5803967003212771e-03  -1.6218760318176457e-03  -1.6644399942118315e-03  -1.7081167339128068e-03 
 -1.7529351162594077e-03  -1.7989247432699123e-03  -1.8461159717968877e-03  -1.8945399320943754e-03 
 -1.9442285468051588e-03  -1.9952145503754509e-03  -2.0475315089044498e-03  -2.1012138404362525e-03 
 -2.1562968357017567e-03  -2.2128166793176553e-03  -2.2708104714502979e-03  -2.3303162499516421e-03 
 -2.3913730129746413e-03  -2.4540207420753117e-03  -2.5183004258086603e-03  -2.5842540838256203e-03 
 -2.6519247914779968e-03  -2.7213567049379234e-03  -2.7925950868391194e-03  -2.8656863324458509e-03 
 -2.9406779963562796e-03  -3.0176188197462129e-03  -3.0965587581591029e-03  -3.1775490098478370e-03 
 -3.2606420446738317e-03  -3.3458916335681174e-03  -3.4333528785592485e-03  -3.5230822433723031e-03 
 -3.6151375846025448e-03  -3.7095781834674988e-03  -3.8064647781399018e-03  -3.9058595966640938e-03 
 -4.0078263904577104e-03  -4.1124304683995408e-03  -4.2197387315039995e-03  -4.3298197081823283e-03 
 -4.4427435900891077e-03  -4.5585822685522085e-03  -4.6774093715837156e-03  -4.7993003014676948e-03 
 -4.9243322729205837e-03  -5.0525843518178203e-03  -5.1841374944798409e-03  -5.3190745875097561e-03 
 -5.4574804881723686e-03  -5.5994420653042495e-03  -5.7450482407418813e-03  -5.8943900312544324e-03 
 -6.0475605909648313e-03  -6.2046552542424100e-03  -6.3657715790472425e-03  -6.5310093907044713e-03 
 -6.7004708260867433e-03  -6.8742603781770566e-03  -7.0524849409854219e-03  -7.2352538547880638e-03 
 -7.4226789516566088e-03  -7.6148746012409656e-03  -7.8119577567667504e-03  -8.0140480012061751e-03 
 -8.2212675935765533e-03  -8.4337415153185186e-03  -8.6515975167006341e-03  -8.8749661631961855e-03 
 -9.1039808817711104e-03  -9.3387780070194968e-03  -9.5794968270777499e-03  -9.8262796292455639e-03 
 -1.0079271745235796e-02  -1.0338621595969074e-02  -1.0604480735827431e-02  -1.0877003896272115e-02 
 -1.1156349028726481e-02  -1.1442677346620208e-02  -1.1736153366481150e-02  -1.2036944947959087e-02 
 -1.2345223332655589e-02  -1.2661163181628122e-02  -1.2984942611430973e-02  -1.3316743228542056e-02 
 -1.3656750162025996e-02  -1.4005152094266045e-02  -1.4362141289596800e-02  -1.4727913620652060e-02 
 -1.5102668592242871e-02  -1.5486609362564347e-02  -1.5879942761518794e-02  -1.6282879305940735e-02 
 -1.6695633211488217e-02  -1.7118422400961526e-02  -1.7551468508795645e-02  -1.7994996881462780e-02 
 -1.8449236573505869e-02  -1.8914420338916479e-02  -1.9390784617554706e-02  -1.9878569516293874e-02 
 -2.0378018784566344e-02  -2.0889379783961153e-02  -2.1412903451528614e-02  -2.1948844256404726e-02 
 -2.2497460149388911e-02  -2.3059012505060480e-02  -2.3633766056024120e-02  -2.4221988818857558e-02 
 -2.4823952011303819e-02  -2.5439929960259407e-02  -2.6070200000070411e-02  -2.6715042360646958e-02 
 -2.7374740044881943e-02  -2.8049578694853788e-02  -2.8739846446264403e-02  -2.9445833770555280e-02 
 -3.0167833304126587e-02  -3.0906139664073361e-02  -3.1661049249820307e-02  -3.2432860030050609e-02 
 -3.3221871314273441e-02  -3.4028383508393066e-02  -3.4852697853610143e-02  -3.5695116147970073e-02 
 -3.6555940449877103e-02  -3.7435472762864047e-02  -3.8334014700903501e-02  -3.9251867133541861e-02 
 -4.0189329810112702e-02  -4.1146700962301677e-02  -4.2124276884303348e-02  -4.3122351489825107e-02 
 -4.4141215845183775e-02  -4.5181157677735506e-02  -4.6242460858882325e-02  -4.7325404860912051e-02 
 -4.8430264186908364e-02  -4.9557307773007084e-02  -5.0706798362256680e-02  -5.1878991849373571e-02 
 -5.3074136595684926e-02  -5.4292472713582555e-02  -5.5534231319819521e-02  -5.6799633757027713e-02 
 -5.8088890782837466e-02  -5.9402201726037974e-02  -6.0739753609239951e-02  -6.2101720237552262e-02 
 -6.3488261252814288e-02  -6.4899521153014991e-02  -6.6335628276525838e-02  -6.7796693750894726e-02 
 -6.9282810405973588e-02  -7.0794051651251674e-02  -7.2330470317310658e-02  -7.3892097461439502e-02 
 -7.5478941137498187e-02  -7.7090985130247466e-02  -7.8728187654427406e-02  -8.0390480019013985e-02 
 -8.2077765257150992e-02  -8.3789916722428096e-02  -8.5526776652238803e-02  -8.7288154699151035e-02 
 -8.9073826431310565e-02  -9.0883531803076831e-02  -9.2716973597226873e-02  -9.4573815840231987e-02 
 -9.6453682192288587e-02  -9.8356154313928107e-02  -1.0028077021126679e-01  -1.0222702256208818e-01 
 -1.0419435702519171e-01  -1.0618217053561779e-01  -1.0818980958861524e-01  -1.1021656851535686e-01 
 -1.1226168775373417e-01  -1.1432435211773040e-01  -1.1640368906913598e-01  -1.1849876699562782e-01 
 -1.2060859349949611e-01  -1.2273211370154130e-01  -1.2486820856501143e-01  -1.2941679738722120e-01 
 -1.3164096655861030e-01  -1.3387588973011647e-01  -1.3612023661238051e-01  -1.3837260709611549e-01 
 -1.4063152990838176e-01  -1.4289546133586073e-01  -1.4516278402271576e-01  -1.4743180585116669e-01 
 -1.4970075891315748e-01  -1.5196779858203760e-01  -1.5423100269353235e-01  -1.5648837084575626e-01 
 -1.5873782382852872e-01  -1.6097720319261932e-01  -1.6320427097020426e-01  -1.6541670955821053e-01 
 -1.6761212177680071e-01  -1.6978803111586491e-01  -1.7194188218281317e-01  -1.7407104136572690e-01 
 -1.7617279772637354e-01  -1.7824436413832778e-01  -1.8028287868598644e-01  -1.8228540634094847e-01 
 -1.8424894093288419e-01  -1.8617040743265903e-01  -1.8804666456609870e-01  -1.8987450777752188e-01 
 -1.9165067256268570e-01  -1.9337183819152987e-01  -1.9503463184157616e-01  -1.9663563316353042e-01 
 -1.9817137930103623e-01  -1.9963837038703591e-01  -2.0103307553961883e-01  -2.0235193938046511e-01 
 -2.0359138909924065e-01  -2.0474784208735450e-01  -2.0581771416449135e-01  -2.0679742842102466e-01 
 -2.0768342469904999e-01  -2.0847216973422081e-01  -2.0916016797955692e-01  -2.0974397313149021e-01 
 -2.1022020037671924e-01  -2.1058553937692029e-01  -2.1083676800608644e-01  -2.1097076685268404e-01 
 -2.1098453449596238e-01  -2.1087520356210060e-01  -2.1064005756188581e-01  -2.1027654850708113e-01 
 -2.0978231529719948e-01  -2.0915520286275496e-01  -2.0839328204413676e-01  -2.0749487017806370e-01 
 -2.0645855235522967e-01  -2.0528320330380065e-01  -2.0396800984337413e-01  -2.0251249384321587e-01 
 -2.0091653560670972e-01  -1.9918039759124206e-01  -1.9730474835888040e-01  -1.9529068663848673e-01 
 -1.9313976536415414e-01  -1.9085401553808384e-01  -1.8843596974850538e-01  -1.8588868515460205e-01 
 -1.8321576573120393e-01  -1.8042138354603782e-01  -1.7751029882173497e-01  -1.7448787851391867e-01 
 -1.7136011311558816e-01  -1.6813363137688064e-01  -1.6481571260854294e-01  -1.6141429621729450e-01 
 -1.5793798810211757e-01  -1.5439606352279439e-01  -1.5079846603612251e-01  -1.4715580208203513e-01 
 -1.4347933079131597e-01  -1.3978094858016515e-01  -1.3607316809460859e-01  -1.3236909107095951e-01 
 -1.2868237468764479e-01  -1.2502719100014018e-01  -1.2141817907500538e-01  -1.1787038947255281e-01 
 -1.1439922077116908e-01  -1.1102034788159641e-01  -1.0774964196630116e-01  -1.0460308186065284e-01 
 -1.0159665698773300e-01  -9.8746261870076277e-02  -9.6067582469421736e-02  -9.3575974730905440e-02 
 -9.1286335870993843e-02  -8.9212969130116948e-02  -8.7369442910295345e-02  -8.5768445435732366e-02 
 -8.4421636308202860e-02  -8.3339496579423050e-02  -8.2531179224850384e-02  -8.2004362177273124e-02 
 -8.1765106358180684e-02  -8.1817721426627590e-02  -8.2164642242879921e-02  -8.2806319310797988e-02 
 -8.3741126709738128e-02  -8.4965291245004959e-02  -8.6472846724118743e-02  -8.8255617391983746e-02 
 -9.0303234618235612e-02  -9.2603190909908900e-02  -9.5140935205831625e-02  -9.7900013180257012e-02 
 -1.0086225592463209e-01  -1.0400801987196749e-01  -1.0731648016195360e-01  -1.1076597880204112e-01 
 -1.1433442794879491e-01  -1.1799974085546515e-01  -1.2174044149895223e-01  -1.2553608001008879e-01 
 -1.2936795828960776e-01  -1.3321959753829243e-01  -1.3707761015384395e-01  -1.4093223041617836e-01 
 -1.4477801685318056e-01  -1.4861450127040779e-01  -1.5244679962967866e-01  -1.5628616368599563e-01 
 -1.6015045039285286e-01  -1.6406448498351037e-01  -1.6806029241160170e-01  -1.7217717196453117e-01 
 -1.7646159035102532e-01  -1.8096687014346149e-01  -1.8575265318474293e-01  -1.9088412246673872e-01 
 -1.9643097102066767e-01  -2.0246611338193382e-01  -2.0906414235572718e-01  -2.1629954420744515e-01 
 -2.2424469485194048e-01  -2.3296767236200558e-01  -2.4252993247537027e-01  -2.5298390775865853e-01 
 -2.6437060310290500e-01  -2.7671727273788277e-01  -2.9003527515857974e-01  -3.0431821059724051e-01 
 -3.1954045212002530e-01  -3.3565618312097945e-01  -3.5259905129535207e-01  -3.7028254069328687e-01 
 -3.8860114847637073e-01  -4.0743243067861268e-01  -4.2663995144785039e-01  -4.4607713275554217e-01 
 -4.6559195639926282e-01  -4.8503241880749393e-01  -5.0425258247328864e-01  -5.2311900865778926e-01 
 -5.4151729683003524e-01  -5.5935840125631664e-01  -5.7658434863937080e-01  -5.9317294764260686e-01 
 -6.0914106805111179e-01  -6.2454607800999795e-01  -6.3948507026088475e-01  -6.5409158394438660e-01 
 -6.6852964313926255e-01  -6.8298508509495226e-01  -6.9765433940127941e-01  -7.1273103721936004e-01 
 -7.2839106671847331e-01  -7.4477693315881277e-01  -7.6198250884822138e-01  -7.8003944752658161e-01 
 -7.9890666228918672e-01  -8.1846429919775476e-01  -8.3851355315663223e-01  -8.5878344659329808e-01 
 -8.7894530940054238e-01  -8.9863515629843416e-01  -9.1748346593111596e-01  -9.3515105318770775e-01 
 -9.5136884044242953e-01  -9.6597844706104607e-01  -9.7896971958082901e-01  -9.9051072923959638e-01 
 -1.0009654884644041e+00  -1.0108948088891843e+00  -1.0210364480503418e+00  -1.0322620513061669e+00 
 -1.0455104153587882e+00  -1.0616992310200941e+00  -1.0816205608678828e+00  -1.1058286154893755e+00 
 -1.1345315380166501e+00  -1.1675014203428558e+00  -1.2040181189574404e+00  -1.2428620767151621e+00 
 -1.2823688319749085e+00  -1.3205529332940396e+00  -1.3553015817513019e+00  -1.3846288663736162e+00 
 -1.4069707296067420e+00  -1.4214899994896188e+00  -1.4283515025997882e+00  -1.4289211932646750e+00 
 -1.4258421964957841e+00  -1.4229462568676166e+00  -1.4249723868024957e+00  -1.4370860929280036e+00 
 -1.4642189212132535e+00  2.2032909082828489e-01  1.4920328865059576e-01  5.4995263652166705e-02 
 -4.6814937385154937e-02  -7.4172592531268469e-02  -5.6040806837059302e-02  -8.0339224629230113e-03 
 8.0388377148071061e-04  -8.0443455237509705e-05  8.0504727620205705e-06  -8.0572412220578603e-07 
 8.0646140910500303e-08  -8.0722456239776432e-09  8.0796173012296756e-10  -8.1528286201307076e-11 
 8.8979346019362130e-12  -4.8961883065802779e-13  -1.3670725095023112e-12  6.3383314317071814e-13 
 2.0647725184792116e-13  -4.3107911692649883e-13  8.5207045583493186e-15  -1.9996122832498867e-13 
 3.5481000234388945e-13  1.2903123959306496e-13  5.1125606124836236e-14  1.7573490438695733e-13 
 -3.8107116305598293e-13  4.5349000591938607e-13  -3.1463312671284516e-13  -9.7744422134630808e-14 
 4.7608543635608165e-13  -3.9021646275561547e-13  3.1159039068360124e-13  2.7636984069098600e-13 
 -1.6035902734264802e-13  2.3573330838252583e-13  -7.4711181132403071e-14  -2.9459662085603208e-13 
 2.3844267811314565e-13  -6.9320817085566467e-14  1.9899164842066622e-13  -3.5669548423244352e-13 
 1.5056826652494158e-13  1.2073195758244915e-13  -3.8447745681586922e-14  4.7755491604510164e-14 
 1.0394756451154328e-13  8.2694574552651662e-14  -4.6362548343008644e-15  1.5067940512415976e-13 
 -8.7377110984020769e-14  8.3441267838546080e-14  3.5512508573989825e-14  3.0085544713872783e-13 
 5.2835957703597224e-13  3.6380666859823840e-13  0.0000000000000000e+00  0.0000000000000000e+00 
 0.0000000000000000e+00  0.0000000000000000e+00  0.0000000000000000e+00  0.0000000000000000e+00 
 0.0000000000000000e+00  0.0000000000000000e+00  0.0000000000000000e+00  0.0000000000000000e+00 
 0.0000000000000000e+00  0.0000000000000000e+00  0.0000000000000000e+00  0.0000000000000000e+00 
 0.0000000000000000e+00  0.0000000000000000e+00  0.0000000000000000e+00  0.0000000000000000e+00 
 0.0000000000000000e+00  0.0000000000000000e+00  0.0000000000000000e+00  0.0000000000000000e+00 
 0.0000000000000000e+00  0.0000000000000000e+00  0.0000000000000000e+00  0.0000000000000000e+00 
 0.0000000000000000e+00  0.0000000000000000e+00  0.0000000000000000e+00  0.0000000000000000e+00 
 0.0000000000000000e+00  0.0000000000000000e+00  0.0000000000000000e+00  0.0000000000000000e+00 
 0.0000000000000000e+00  0.0000000000000000e+00  0.0000000000000000e+00  0.0000000000000000e+00 
 0.0000000000000000e+00  0.0000000000000000e+00  0.0000000000000000e+00  0.0000000000000000e+00 
 0.0000000000000000e+00  0.0000000000000000e+00  0.0000000000000000e+00  0.0000000000000000e+00 
 0.0000000000000000e+00  0.0000000000000000e+00  0.0000000000000000e+00  0.0000000000000000e+00 
 0.0000000000000000e+00  0.0000000000000000e+00  0.0000000000000000e+00  0.0000000000000000e+00 
 0.0000000000000000e+00  0.0000000000000000e+00  0.0000000000000000e+00  0.0000000000000000e+00 
 0.0000000000000000e+00  0.0000000000000000e+00  0.0000000000000000e+00  0.0000000000000000e+00 
 0.0000000000000000e+00  0.0000000000000000e+00  0.0000000000000000e+00  0.0000000000000000e+00 
 0.0000000000000000e+00  0.0000000000000000e+00  0.0000000000000000e+00  0.0000000000000000e+00 
 0.0000000000000000e+00  0.0000000000000000e+00  0.0000000000000000e+00  0.0000000000000000e+00 
 0.0000000000000000e+00  0.0000000000000000e+00  0.0000000000000000e+00  0.0000000000000000e+00 
 0.0000000000000000e+00  0.0000000000000000e+00  0.0000000000000000e+00  0.0000000000000000e+00 
 0.0000000000000000e+00  0.0000000000000000e+00  0.0000000000000000e+00  0.0000000000000000e+00 
 0.0000000000000000e+00  0.0000000000000000e+00  0.0000000000000000e+00  0.0000000000000000e+00 
 0.0000000000000000e+00  0.0000000000000000e+00  0.0000000000000000e+00  0.0000000000000000e+00 
 0.0000000000000000e+00  0.0000000000000000e+00  0.0000000000000000e+00  0.0000000000000000e+00 
 0.0000000000000000e+00  0.0000000000000000e+00  0.0000000000000000e+00  0.0000000000000000e+00 
 0.0000000000000000e+00  0.0000000000000000e+00  0.0000000000000000e+00  0.0000000000000000e+00 
 0.0000000000000000e+00  0.0000000000000000e+00  0.0000000000000000e+00  0.0000000000000000e+00 
 0.0000000000000000e+00  0.0000000000000000e+00  0.0000000000000000e+00  0.0000000000000000e+00 
 0.0000000000000000e+00  0.0000000000000000e+00  0.0000000000000000e+00  0.0000000000000000e+00 
 0.0000000000000000e+00  0.0000000000000000e+00  0.0000000000000000e+00  0.0000000000000000e+00 
 0.0000000000000000e+00  0.0000000000000000e+00  0.0000000000000000e+00  0.0000000000000000e+00 
 0.0000000000000000e+00  0.0000000000000000e+00  0.0000000000000000e+00  0.0000000000000000e+00 
 0.0000000000000000e+00  0.0000000000000000e+00  0.0000000000000000e+00  0.0000000000000000e+00 
 0.0000000000000000e+00  0.0000000000000000e+00  0.0000000000000000e+00  0.0000000000000000e+00 
 0.0000000000000000e+00  0.0000000000000000e+00  0.0000000000000000e+00  0.0000000000000000e+00 
 0.0000000000000000e+00  0.0000000000000000e+00  0.0000000000000000e+00  0.0000000000000000e+00 
 0.0000000000000000e+00  0.0000000000000000e+00  0.0000000000000000e+00  0.0000000000000000e+00 
 0.0000000000000000e+00  0.0000000000000000e+00  0.0000000000000000e+00  0.0000000000000000e+00 
 0.0000000000000000e+00  0.0000000000000000e+00  0.0000000000000000e+00  0.0000000000000000e+00 
 0.0000000000000000e+00  0.0000000000000000e+00  0.0000000000000000e+00  0.0000000000000000e+00 
 0.0000000000000000e+00  0.0000000000000000e+00  0.0000000000000000e+00  0.0000000000000000e+00 
 0.0000000000000000e+00  0.0000000000000000e+00  0.0000000000000000e+00  0.0000000000000000e+00 
 0.0000000000000000e+00  0.0000000000000000e+00  0.0000000000000000e+00  0.0000000000000000e+00 
 0.0000000000000000e+00  0.0000000000000000e+00  0.0000000000000000e+00  0.0000000000000000e+00 
 0.0000000000000000e+00  0.0000000000000000e+00  0.0000000000000000e+00  0.0000000000000000e+00 
 0.0000000000000000e+00  0.0000000000000000e+00  0.0000000000000000e+00  0.0000000000000000e+00 
 0.0000000000000000e+00  0.0000000000000000e+00  0.0000000000000000e+00  0.0000000000000000e+00 
 0.0000000000000000e+00  0.0000000000000000e+00  0.0000000000000000e+00  0.0000000000000000e+00 
 0.0000000000000000e+00  0.0000000000000000e+00  0.0000000000000000e+00  0.0000000000000000e+00 
 0.0000000000000000e+00  0.0000000000000000e+00  0.0000000000000000e+00  0.0000000000000000e+00 
 0.0000000000000000e+00  0.0000000000000000e+00  0.0000000000000000e+00  0.0000000000000000e+00 
 0.0000000000000000e+00  0.0000000000000000e+00  0.0000000000000000e+00  0.0000000000000000e+00 
 0.0000000000000000e+00  0.0000000000000000e+00  0.0000000000000000e+00  0.0000000000000000e+00 
 0.0000000000000000e+00  0.0000000000000000e+00  0.0000000000000000e+00  0.0000000000000000e+00 
 0.0000000000000000e+00  0.0000000000000000e+00  0.0000000000000000e+00  0.0000000000000000e+00 
 0.0000000000000000e+00  0.0000000000000000e+00  0.0000000000000000e+00  0.0000000000000000e+00 
 0.0000000000000000e+00  0.0000000000000000e+00  0.0000000000000000e+00  0.0000000000000000e+00 
 0.0000000000000000e+00  0.0000000000000000e+00  0.0000000000000000e+00  0.0000000000000000e+00 
 0.0000000000000000e+00  0.0000000000000000e+00  0.0000000000000000e+00  0.0000000000000000e+00 
 0.0000000000000000e+00  0.0000000000000000e+00  0.0000000000000000e+00  0.0000000000000000e+00 
 0.0000000000000000e+00  0.0000000000000000e+00  0.0000000000000000e+00  0.0000000000000000e+00 
 0.0000000000000000e+00  0.0000000000000000e+00  0.0000000000000000e+00  0.0000000000000000e+00 
 0.0000000000000000e+00  0.0000000000000000e+00  0.0000000000000000e+00  0.0000000000000000e+00 
 0.0000000000000000e+00  0.0000000000000000e+00  0.0000000000000000e+00  0.0000000000000000e+00 
 0.0000000000000000e+00  0.0000000000000000e+00  0.0000000000000000e+00  0.0000000000000000e+00 
 0.0000000000000000e+00  0.0000000000000000e+00  0.0000000000000000e+00  0.0000000000000000e+00 
 0.0000000000000000e+00  0.0000000000000000e+00  0.0000000000000000e+00 
  </PP_BETA>
  <PP_BETA>
  3  2      Beta    L
  1178  
 -2.1172690669499096e-12  -2.2014738805228128e-12  -2.2890275601740859e-12  -2.3800632919217700e-12 
 -2.4747195586558873e-12  -2.5731403507975498e-12  -2.6754753853361666e-12  -2.7818803335777253e-12 
 -2.8925170579509220e-12  -3.0075538582309134e-12  -3.1271657275558825e-12  -3.2515346186250432e-12 
 -3.3808497204838708e-12  -3.5153077463170872e-12  -3.6551132326870508e-12  -3.8004788506734665e-12 
 -3.9516257293868641e-12  -4.1087837923486278e-12  -4.2721921072488719e-12  -4.4420992496142024e-12 
 -4.6187636809393827e-12  -4.8024541418564024e-12  -4.9934500609411445e-12  -5.1920419797777416e-12 
 -5.3985319949282515e-12  -5.6132342174797165e-12  -5.8364752508673880e-12  -6.0685946877015154e-12 
 -6.3099456263527914e-12  -6.5608952080831113e-12  -6.8218251755378514e-12  -7.0931324534498362e-12 
 -7.3752297524381251e-12  -7.6685461968203665e-12  -7.9735279773931251e-12  -8.2906390301740706e-12 
 -8.6203617421374064e-12  -8.9631976850176797e-12  -9.3196683782964584e-12  -9.6903160825334263e-12 
 -1.0075704624249452e-11  -1.0476420253614487e-11  -1.0893072536246724e-11  -1.1326295280479454e-11 
 -1.1776747501504553e-11  -1.2245114423861466e-11  -1.2732108523795425e-11  -1.3238470613070178e-11 
 -1.3764970965885234e-11  -1.4312410490610325e-11  -1.4881621948121336e-11  -1.5473471218588758e-11 
 -1.6088858618647766e-11  -1.6728720270952378e-11  -1.7394029528197987e-11  -1.8085798453776873e-11 
 -1.8805079361320883e-11  -1.9552966415472445e-11  -2.0330597296318240e-11  -2.1139154930018838e-11 
 -2.1979869288266414e-11  -2.2854019259306453e-11  -2.3762934593372966e-11  -2.4707997925491453e-11 
 -2.5690646878733774e-11  -2.6712376251116210e-11  -2.7774740289474105e-11  -2.8879355053768698e-11 
 -3.0027900875423687e-11  -3.1222124913430245e-11  -3.2463843812110647e-11  -3.3754946464580820e-11 
 -3.5097396886118856e-11  -3.6493237201806591e-11  -3.7944590752992729e-11  -3.9453665327301202e-11 
 -4.1022756517096255e-11  -4.2654251211517981e-11  -4.4350631227396005e-11  -4.6114477084566134e-11 
 -4.7948471931334881e-11  -4.9855405626057075e-11  -5.1838178981045972e-11  -5.3899808175257265e-11 
 -5.6043429342476726e-11  -5.8272303341974638e-11  -6.0589820718893191e-11  -6.2999506861913204e-11 
 -6.5505027366040340e-11  -6.8110193608671341e-11  -7.0818968547426546e-11  -7.3635472748559435e-11 
 -7.6563990655122103e-11  -7.9608977104418157e-11  -8.2775064104653034e-11  -8.6067067881102384e-11 
 -8.9489996202500228e-11  -9.3049055998808190e-11  -9.6749661281941326e-11  -1.0059744138150817e-10 
 -1.0459824950808490e-10  -1.0875817165705830e-10  -1.1308353586657627e-10  -1.1758092184369251e-10 
 -1.2225717097334005e-10  -1.2711939672537607e-10  -1.3217499547550937e-10  -1.3743165775658649e-10 
 -1.4289737995733977e-10  -1.4858047648640436e-10  -1.5448959242009978e-10  -1.6063371665322031e-10 
 -1.6702219557283342e-10  -1.7366474727589266e-10  -1.8057147635229165e-10  -1.8775288925583932e-10 
 -1.9521991028655319e-10  -2.0298389820856100e-10  -2.1105666352892199e-10  -2.1945048646360329e-10 
 -2.2817813561800336e-10  -2.3725288741037599e-10  -2.4668854626774423e-10  -2.5649946562502045e-10 
 -2.6670056975924590e-10  -2.7730737649220166e-10  -2.8833602079590643e-10  -2.9980327933690867e-10 
 -3.1172659599671004e-10  -3.2412410840715591e-10  -3.3701467554112615e-10  -3.5041790640053169e-10 
 -3.6435418984523806e-10  -3.7884472560828759e-10  -3.9391155654460391e-10  -4.0957760216224175e-10 
 -4.2586669348718345e-10  -4.4280360931470771e-10  -4.6041411390250420e-10  -4.7872499616280987e-10 
 -4.9776411041328296e-10  -5.1756041874850110e-10  -5.3814403509660348e-10  -5.5954627102807055e-10 
 -5.8179968338632990e-10  -6.0493812381263838e-10  -6.2899679024057325e-10  -6.5401228043847109e-10 
 -6.8002264768127275e-10  -7.0706745863641538e-10  -7.3518785355188373e-10  -7.6442660883793409e-10 
 -7.9482820213769121e-10  -8.2643887998564445e-10  -8.5930672815690223e-10  -8.9348174481423790e-10 
 -9.2901591656421163e-10  -9.6596329753807461e-10  -1.0043800916176669e-09  -1.0443247379315127e-09 
 -1.0858579997510219e-09  -1.1290430569221929e-09  -1.1739456019732082e-09  -1.2206339400443662e-09 
 -1.2691790927920950e-09  -1.3196549064253037e-09  -1.3721381640383314e-09  -1.4267087024113499e-09 
 -1.4834495334559040e-09  -1.5424469704903958e-09  -1.6037907595374224e-09  -1.6675742158429207e-09 
 -1.7338943658245791e-09  -1.8028520946655183e-09  -1.8745522997777897e-09  -1.9491040503691387e-09 
 -2.0266207533555401e-09  -2.1072203258721972e-09  -2.1910253746452344e-09  -2.2781633824969279e-09 
 -2.3687669022682195e-09  -2.4629737584534122e-09  -2.5609272568540071e-09  -2.6627764025701522e-09 
 -2.7686761266616942e-09  -2.8787875218234740e-09  -2.9932780874332728e-09  -3.1123219843451992e-09 
 -3.2361002998161369e-09  -3.3648013229682668e-09  -3.4986208312064539e-09  -3.6377623880264841e-09 
 -3.7824376526667377e-09  -3.9328667020747610e-09  -4.0892783656782850e-09  -4.2519105734696247e-09 
 -4.4210107179334341e-09  -4.5968360303678761e-09  -4.7796539721720429e-09  -4.9697426416944481e-09 
 -5.1673911972615365e-09  -5.3729002970298393e-09  -5.5865825563306994e-09  -5.8087630232028131e-09 
 -6.0397796728370463e-09  -6.2799839216838926e-09  -6.5297411620073651e-09  -6.7894313176970592e-09 
 -7.0594494221843519e-09  -7.3402062193417139e-09  -7.6321287882792161e-09  -7.9356611929884352e-09 
 -8.2512651578218892e-09  -8.5794207698350710e-09  -8.9206272090602842e-09  -9.2754035078225676e-09 
 -9.6442893402514686e-09  -1.0027845843191966e-08  -1.0426656469760759e-08  -1.0841327876847598e-08 
 -1.1272490847911197e-08  -1.1720801252472961e-08  -1.2186941043767893e-08  -1.2671619296071294e-08 
 -1.3175573283276821e-08  -1.3699569600368173e-08  -1.4244405329489608e-08  -1.4810909252388364e-08 
 -1.5399943111073658e-08  -1.6012402918609432e-08  -1.6649220322033714e-08  -1.7311364019479057e-08 
 -1.7999841233648286e-08  -1.8715699243885681e-08  -1.9460026979176825e-08  -2.0233956674496039e-08 
 -2.1038665593022890e-08  -2.1875377816846956e-08  -2.2745366108883237e-08  -2.3649953848830313e-08 
 -2.4590517046116997e-08  -2.5568486432895147e-08  -2.6585349640266747e-08  -2.7642653461050016e-08 
 -2.8742006202530298e-08  -2.9885080132768773e-08  -3.1073614024194074e-08  -3.2309415798343427e-08 
 -3.3594365275771855e-08  -3.4930417035318719e-08  -3.6319603387072007e-08  -3.7764037463556378e-08 
 -3.9265916433844626e-08  -4.0827524845480350e-08  -4.2451238099290476e-08  -4.4139526062380421e-08 
 -4.5894956824795038e-08  -4.7720200605565907e-08  -4.9618033814082772e-08  -5.1591343272960657e-08 
 -5.3643130608831527e-08  -5.5776516817730910e-08  -5.7994747012025485e-08  -6.0301195356094793e-08 
 -6.2699370198277459e-08  -6.5192919406882180e-08  -6.7785635918378607e-08  -7.0481463506199813e-08 
 -7.3284502778933845e-08  -7.6199017417021043e-08  -7.9229440657438144e-08  -8.2380382036232294e-08 
 -8.5656634399153443e-08  -8.9063181191042593e-08  -9.2605204035066529e-08  -9.6288090613308013e-08 
 -1.0011744286071000e-07  -1.0409908548480656e-07  -1.0823907482422690e-07  -1.1254370805940167e-07 
 -1.1701953278950176e-07  -1.2167335699016127e-07  -1.2651225936710892e-07  -1.3154360012146464e-07 
 -1.3677503214305927e-07  -1.4221451264878455e-07  -1.4787031528367686e-07  -1.5375104270311623e-07 
 -1.5986563965527721e-07  -1.6622340658370934e-07  -1.7283401377071509e-07  -1.7970751604304153e-07 
 -1.8685436806221888e-07  -1.9428544022278192e-07  -2.0201203518255838e-07  -2.1004590505012095e-07 
 -2.1839926925553750e-07  -2.2708483313156778e-07  -2.3611580723355532e-07  -2.4550592742735848e-07 
 -2.5526947577585268e-07  -2.6542130225575553e-07  -2.7597684733771872e-07  -2.8695216546407736e-07 
 -2.9836394945985515e-07  -3.1022955591414826e-07  -3.2256703157044655e-07  -3.3539514076597735e-07 
 -3.4873339396176123e-07  -3.6260207740669725e-07  -3.7702228398081359e-07  -3.9201594526439513e-07 
 -4.0760586488187534e-07  -4.2381575317097920e-07  -4.4067026322986848e-07  -4.5819502839699580e-07 
 -4.7641670122061791e-07  -4.9536299397709704e-07  -5.1506272079958007e-07  -5.3554584148099343e-07 
 -5.5684350701784610e-07  -5.7898810696403883e-07  -6.0201331866656511e-07  -6.2595415845778675e-07 
 -6.5084703488209315e-07  -6.7672980403771692e-07  -7.0364182711761521e-07  -7.3162403023696005e-07 
 -7.6071896663778485e-07  -7.9097088136542999e-07  -8.2242577851478117e-07  -8.5513149114843815e-07 
 -8.8913775399281593e-07  -9.2449627902259085e-07  -9.6126083404807677e-07  -9.9948732442479220e-07 
 -1.0392338780091704e-06  -1.0805609334892798e-06  -1.1235313322244869e-06  -1.1682104137334734e-06 
 -1.2146661149752059e-06  -1.2629690735736185e-06  -1.3131927351424072e-06  -1.3654134648726974e-06 
 -1.4197106635527114e-06  -1.4761668881952954e-06  -1.5348679774563338e-06  -1.5959031820337129e-06 
 -1.6593653002450018e-06  -1.7253508189887720e-06  -1.7939600603034458e-06  -1.8652973337456473e-06 
 -1.9394710948186571e-06  -2.0165941096914516e-06  -2.0967836264570506e-06  -2.1801615531902627e-06 
 -2.2668546430737390e-06  -2.3569946868732779e-06  -2.4507187130531142e-06  -2.5481691958344094e-06 
 -2.6494942715118039e-06  -2.7548479633552078e-06  -2.8643904154372013e-06  -2.9782881357395951e-06 
 -3.0967142489071350e-06  -3.2198487590300540e-06  -3.3478788228535570e-06  -3.4809990338264962e-06 
 -3.6194117174188943e-06  -3.7633272381549100e-06  -3.9129643188247009e-06  -4.0685503723573728e-06 
 -4.2303218468570218e-06  -4.3985245843221382e-06  -4.5734141935899731e-06  -4.7552564380699528e-06 
 -4.9443276388495774e-06  -5.1409150937829225e-06  -5.3453175131922220e-06  -5.5578454728413843e-06 
 -5.7788218848629697e-06  -6.0085824873499898e-06  -6.2474763533490216e-06  -6.4958664200232033e-06 
 -6.7541300387807807e-06  -7.0226595471988965e-06  -7.3018628636032145e-06  -7.5921641051986153e-06 
 -7.8940042306807973e-06  -8.2078417082963215e-06  -8.5341532103549931e-06  -8.8734343352396927e-06 
 -9.2262003579980447e-06  -9.5929870106448059e-06  -9.9743512933454226e-06  -1.0370872317701571e-05 
 -1.0783152183401357e-05  -1.1211816889552272e-05  -1.1657517282062384e-05  -1.2120930038491286e-05 
 -1.2602758691846512e-05  -1.3103734694859305e-05  -1.3624618526334268e-05  -1.4166200841229062e-05 
 -1.4729303666184447e-05  -1.5314781642294766e-05  -1.5923523316975020e-05  -1.6556452486855942e-05 
 -1.7214529593714472e-05  -1.7898753175521005e-05  -1.8610161374771757e-05  -1.9349833506353669e-05 
 -2.0118891687281294e-05  -2.0918502530731036e-05  -2.1749878906899762e-05  -2.2614281773303851e-05 
 -2.3513022077244123e-05  -2.4447462733264170e-05  -2.5419020678538958e-05  -2.6429169009246618e-05 
 -2.7479439201093031e-05  -2.8571423417280141e-05  -2.9706776907341147e-05  -3.0887220500390208e-05 
 -3.2114543196480700e-05  -3.3390604859898439e-05  -3.4717339018373900e-05  -3.6096755772342612e-05 
 -3.7530944818544570e-05  -3.9022078592425543e-05  -4.0572415533956403e-05  -4.2184303481688322e-05 
 -4.3860183200025520e-05  -4.5602592044896589e-05  -4.7414167773206471e-05  -4.9297652501651525e-05 
 -5.1255896820696031e-05  -5.3291864069724397e-05  -5.5408634779627823e-05  -5.7609411289296386e-05 
 -5.9897522542763853e-05  -6.2276429073976447e-05  -6.4749728186456039e-05  -6.7321159335367167e-05 
 -6.9994609719816432e-05  -7.2774120093470817e-05  -7.5663890801927540e-05  -7.8668288055549045e-05 
 -8.1791850446824701e-05  -8.5039295721657296e-05  -8.8415527814318795e-05  -9.1925644156187346e-05 
 -9.5574943268762459e-05  -9.9368932651830292e-05  -1.0331333697807425e-04  -1.0741410660582225e-04 
 -1.1167742642208590e-04  -1.1610972502846100e-04  -1.2071768428295932e-04  -1.2550824921128416e-04 
 -1.3048863830159349e-04  -1.3566635419729064e-04  -1.4104919480291308e-04  -1.4664526481874689e-04 
 -1.5246298772036824e-04  -1.5851111819987791e-04  -1.6479875508622951e-04  -1.7133535476266870e-04 
 -1.7813074509994128e-04  -1.8519513992461045e-04  -1.9253915404250524e-04  -2.0017381883805026e-04 
 -2.0811059847095255e-04  -2.1636140669246983e-04  -2.2493862430432148e-04  -2.3385511728403805e-04 
 -2.4312425560144853e-04  -2.5275993275182816e-04  -2.6277658603212934e-04  -2.7318921758763396e-04 
 -2.8401341625731118e-04  -2.9526538024712682e-04  -3.0696194066155615e-04  -3.1912058592459876e-04 
 -3.3175948712260933e-04  -3.4489752430240920e-04  -3.5855431375920218e-04  -3.7275023635001815e-04 
 -3.8750646686957791e-04  -4.0284500452667172e-04  -4.1878870456040613e-04  -4.3536131103696999e-04 
 -4.5258749086887138e-04  -4.7049286909991712e-04  -4.8910406550065131e-04  -5.0844873252032575e-04 
 -5.2855559464296768e-04  -5.4945448919655653e-04  -5.7117640866583084e-04  -5.9375354456090530e-04 
 -6.1721933289525543e-04  -6.4160850132847830e-04  -6.6695711803066080e-04  -6.9330264232706862e-04 
 -7.2068397718341216e-04  -7.4914152359381342e-04  -7.7871723693527745e-04  -8.0945468535427261e-04 
 -8.4139911025299711e-04  -8.7459748894447764e-04  -9.0909859954779509e-04  -9.4495308819644061e-04 
 -9.8221353863482230e-04  -1.0209345442798239e-03  -1.0611727828261975e-03  -1.1029870934766955e-03 
 -1.1464385568796267e-03  -1.1915905778586144e-03  -1.2385089710211321e-03  -1.2872620493346511e-03 
 -1.3379207157608402e-03  -1.3905585580404089e-03  -1.4452519467230381e-03  -1.5020801365387669e-03 
 -1.5611253712090763e-03  -1.6224729917975751e-03  -1.6862115487022570e-03  -1.7524329173927591e-03 
 -1.8212324179978450e-03  -1.8927089388500002e-03  -1.9669650640952259e-03  -2.0441072054780142e-03 
 -2.1242457384123459e-03  -2.2074951424510803e-03  -2.2939741462671436e-03  -2.3838058772604276e-03 
 -2.4771180159060065e-03  -2.5740429549588823e-03  -2.6747179636318211e-03  -2.7792853568621495e-03 
 -2.8878926697843066e-03  -3.0006928375243794e-03  -3.1178443804318855e-03  -3.2395115948643145e-03 
 -3.3658647496380661e-03  -3.4970802882584051e-03  -3.6333410370395819e-03  -3.7748364192237440e-03 
 -3.9217626752049905e-03  -4.0743230889624567e-03  -4.2327282208023554e-03  -4.3971961465056834e-03 
 -4.5679527029735033e-03  -4.7452317404574297e-03  -4.9292753814579576e-03  -5.1203342863646124e-03 
 -5.3186679259105592e-03  -5.5245448605009840e-03  -5.7382430264711808e-03  -5.9600500293199073e-03 
 -6.1902634439529617e-03  -6.4291911219646735e-03  -6.6771515059706648e-03  -6.9344739509957171e-03 
 -7.2014990529057363e-03  -7.4785789838612803e-03  -7.7660778347531101e-03  -8.0643719645649096e-03 
 -8.3738503565924504e-03  -8.6949149814299111e-03  -9.0279811666129448e-03  -9.3734779727923986e-03 
 -9.7318485762846567e-03  -1.0103550657828154e-02  -1.0489056797347561e-02  -1.0888854874501801e-02 
 -1.1303448474768428e-02  -1.1733357300785481e-02  -1.2179117588644076e-02  -1.2641282528795173e-02 
 -1.3120422691198770e-02  -1.3617126454314659e-02  -1.4132000437494244e-02  -1.4665669936299979e-02 
 -1.5218779360240110e-02  -1.5791992672366858e-02  -1.6385993830145749e-02  -1.7001487226964755e-02 
 -1.7639198133602221e-02  -1.8299873138937783e-02  -1.8984280589135382e-02  -1.9693211024488611e-02 
 -2.0427477613065181e-02  -2.1187916580243122e-02  -2.1975387633178429e-02  -2.2790774379196549e-02 
 -2.3634984737045894e-02  -2.4508951339903148e-02  -2.5413631928966521e-02  -2.6350009736420529e-02 
 -2.7319093856503884e-02  -2.8321919603363693e-02  -2.9359548854316627e-02  -3.0433070377099074e-02 
 -3.1543600139625816e-02  -3.2692281600738483e-02  -3.3880285980357104e-02  -3.5108812507423016e-02 
 -3.6379088643955428e-02  -3.7692370283508629e-02  -3.9049941922269696e-02  -4.0453116801000576e-02 
 -4.1903237015976834e-02  -4.3401673597062262e-02  -4.4949826550992424e-02  -4.6549124867945102e-02 
 -4.8201026489417417e-02  -4.9907018235431123e-02  -5.1668615689041734e-02  -5.3487363036137880e-02 
 -5.5364832858483384e-02  -5.7302625877951360e-02  -5.9302370649910764e-02  -6.1365723203699242e-02 
 -6.3494366628140744e-02  -6.5690010600083268e-02  -6.7954390853889088e-02  -7.0289268589960208e-02 
 -7.2696429820190353e-02  -7.5177684648518761e-02  -7.7734866484562681e-02  -8.0369831188503216e-02 
 -8.3084456145344016e-02  -8.5880639266766742e-02  -8.8760297918793640e-02  -9.2804329065931571e-02 
 -9.5899352092915502e-02  -9.9085379857237713e-02  -1.0236446034302708e-01  -1.0573865694860686e-01 
 -1.0921004702817000e-01  -1.1278072035189930e-01  -1.1645277748337894e-01  -1.2022832807325778e-01 
 -1.2410948906809735e-01  -1.2809838283355485e-01  -1.3219713519102452e-01  -1.3640787336697904e-01 
 -1.4073272385437435e-01  -1.4517381018549136e-01  -1.4973325061576667e-01  -1.5441315571818687e-01 
 -1.5921562588795204e-01  -1.6414274875723980e-01  -1.6919659651994964e-01  -1.7437922316647747e-01 
 -1.7969266162871905e-01  -1.8513892083552907e-01  -1.9071998267912338e-01  -1.9643779889308660e-01 
 -2.0229428784272957e-01  -2.0829133122877050e-01  -2.1443077070568270e-01  -2.2071440441606238e-01 
 -2.2714398344293441e-01  -2.3372120818190761e-01  -2.4044772463578204e-01  -2.4732512063433762e-01 
 -2.5435492198259330e-01  -2.6153858854139922e-01  -2.6887751024450540e-01  -2.7637300305719448e-01 
 -2.8402630488191344e-01  -2.9183857141732256e-01  -2.9981087197784340e-01  -3.0794418528165551e-01 
 -3.1623939521621253e-01  -3.2469728659112962e-01  -3.3331854088970048e-01  -3.4210373203126682e-01 
 -3.5105332215813428e-01  -3.6016765746204848e-01  -3.6944696406666611e-01  -3.7889134398411412e-01 
 -3.8850077116534459e-01  -3.9827508766560937e-01  -4.0821399994829793e-01  -4.1831707535217139e-01 
 -4.2858373874884426e-01  -4.3901326941949009e-01  -4.4960479818143134e-01  -4.6035730479746984e-01 
 -4.7126961570258935e-01  -4.8234040208457740e-01  -4.9356817835693301e-01  -5.0495130106409125e-01 
 -5.1648796826051568e-01  -5.2817621940659532e-01  -5.4001393582533930e-01  -5.5199884176466607e-01 
 -5.6412850611055321e-01  -5.7640034479632229e-01  -5.8881162395290176e-01  -6.0135946384381334e-01 
 -6.1404084362707168e-01  -6.2685260698363865e-01  -6.3979146864893965e-01  -6.5285402187971364e-01 
 -6.6603674688328074e-01  -6.7933602022991402e-01  -6.9274812526143248e-01  -7.0626926349999808e-01 
 -7.1989556705070468e-01  -7.3362311197939223e-01  -7.4744793263268028e-01  -7.6136603685259019e-01 
 -7.7537342201881621e-01  -7.8946609183291694e-01  -8.0364007373622892e-01  -8.1789143682847454e-01 
 -8.3221631012795461e-01  -8.4661090098440994e-01  -8.6107151342458355e-01  -8.7559456617560860e-01 
 -8.9017661007655080e-01  -9.0481434454803356e-01  -9.1950463275108973e-01  -9.3424451502326755e-01 
 -9.4903122013597552e-01  -9.6386217387378237e-01  -9.7873500439008998e-01  -9.9364754374931408e-01 
 -1.0085978250224863e+00  -1.0235840742606264e+00  -1.0386046966327209e+00  -1.0536582559801932e+00 
 -1.0687434470123292e+00  -1.0838590593458475e+00  -1.0990039325814396e+00  -1.1141769016095560e+00 
 -1.1293767313520993e+00  -1.1446020401775734e+00  -1.1598512112749959e+00  -1.1751222913431254e+00 
 -1.1904128760465502e+00  -1.2057199818111957e+00  -1.2210399036849302e+00  -1.2363680591727124e+00 
 -1.2516988181760584e+00  -1.2670253194241772e+00  -1.2823392740797839e+00  -1.2976307575401229e+00 
 -1.3128879908299014e+00  -1.3280971133998403e+00  -1.3432419495984551e+00  -1.3583037715732373e+00 
 -1.3732610618741878e+00  -1.3880892795723658e+00  -1.4027606342578227e+00  -1.4172438747693017e+00 
 -1.4315041140825611e+00  -1.4455025624892468e+00  -1.4591965373479434e+00  -1.4725392601948941e+00 
 -1.4854798234590312e+00  -1.4979631846953221e+00  -1.5099302196754194e+00  -1.5213178421722404e+00 
 -1.5320591970521027e+00  -1.5420839329064107e+00  -1.5513185598324013e+00  -1.5596868965498725e+00 
 -1.5671106098152185e+00  -1.5735098472168918e+00  -1.5788039625319414e+00  -1.5829123302348591e+00 
 -1.5857552432373270e+00  -1.5872548847860874e+00  -1.5873363624085033e+00  -1.5859287882076745e+00 
 -1.5829663863558985e+00  -1.5783896051453705e+00  -1.5721462074543651e+00  -1.5641923099275754e+00 
 -1.5544933392049354e+00  -1.5430248696684796e+00  -1.5297733072656101e+00  -1.5147363819165929e+00 
 -1.4979234119953535e+00  -1.4793553063255604e+00  -1.4590642721020095e+00  -1.4370932025195844e+00 
 -1.4134947252492374e+00  -1.3883299019096214e+00  -1.3616665805482999e+00  -1.3335774171955272e+00 
 -1.3041375984394223e+00  -1.2734223159005615e+00  -1.2415040628318610e+00  -1.2084498452682646e+00 
 -1.1743184211470858e+00  -1.1391577028190254e+00  -1.1030024774756004e+00  -1.0658726165988139e+00 
 -1.0277719567111432e+00  -9.8868803788876314e-01  -9.4859288201878156e-01  -9.0744497625827680e-01 
 -8.6519259854782726e-01  -8.2177857743934335e-01  -7.7714651884679697e-01  -7.3124845580914666e-01 
 -6.8405378524864824e-01  -6.3555925033772875e-01  -5.8579961081628729e-01  -5.3485852323298821e-01 
 -4.8287903369362289e-01  -4.3007297759869900e-01  -3.7672849325902946e-01  -3.2321480079960174e-01 
 -2.6998338741400379e-01  -2.1756478659609080e-01  -1.6656025438911862e-01  -1.1762784096706577e-01 
 -7.1462636718026037e-02  -2.8771342031127706e-02  9.7582348772211908e-03  4.3491620622242919e-02 
 7.1884350909505013e-02  9.4518576781894598e-02  1.1113674744829981e-01  1.2166905916021037e-01 
 1.2625108085424741e-01  1.2522795313019044e-01  1.1914189437316809e-01  1.0870051705907213e-01 
 9.4724712681286585e-02  7.8076619923004145e-02  5.9570401860699888e-02  3.9871104709376014e-02 
 1.9389549829815327e-02  -1.8162625319980861e-03  -2.4120735076003780e-02  -4.8377606400736295e-02 
 -7.5920746486599924e-02  -1.0850708359158372e-01  -1.4819353429264287e-01  -1.9714533990422076e-01 
 -2.5738056890406336e-01  -3.3046439241925624e-01  -4.1717647805776598e-01  -5.1718456358582199e-01 
 -6.2876567689528673e-01  3.8426959271813454e-01  2.7885241716860026e-01  1.7597958571024344e-01 
 8.3184114258137681e-02  7.5581935106035216e-03  -3.4273145712530394e-02  -6.4571842101148443e-03 
 6.5658374942984975e-04  -6.6776684682625075e-05  6.7928548073753380e-06  -6.9115809325526965e-07 
 7.0340425271766550e-08  -7.1607366258541595e-09  7.2940026595613861e-10  -7.4864334466017034e-11 
 7.5584360362007093e-12  -5.2630010870174564e-14  -7.1833973331588761e-13  -1.6899648668512767e-13 
 4.3897622958377856e-13  -7.0615993208854925e-13  2.1984482679712241e-13  6.0731569740958003e-13 
 -6.5957017879239833e-13  3.9709299415852008e-13  4.7462164973017685e-13  -5.7393264503399491e-13 
 4.1265287873514547e-14  1.3601364786139945e-13  4.6454479980153807e-14  -1.4796038002317629e-13 
 3.1315911317099443e-13  -7.6648841766128339e-14  3.1554736708113444e-13  -5.9346463990088487e-14 
 -7.7276199791440363e-14  -2.0347490099059066e-14  1.0357749305196519e-13  -3.6636622900766015e-13 
 2.4008727019937859e-13  -2.7558012718006990e-14  5.1937332322583283e-13  -4.2458684432948809e-13 
 3.2691951311991144e-13  -2.3162040016459905e-13  5.8560866413896650e-14  1.4737760231620459e-14 
 1.5528900137531241e-13  -2.9118682562484057e-14  1.9402895684520861e-13  -7.4491113401393862e-14 
 1.3075811259042919e-13  2.9699618995545525e-14  1.5136286074938475e-13  -4.8788988415663905e-13 
 3.7133281605931718e-13  8.5045979081563693e-13  0.0000000000000000e+00  0.0000000000000000e+00 
 0.0000000000000000e+00  0.0000000000000000e+00  0.0000000000000000e+00  0.0000000000000000e+00 
 0.0000000000000000e+00  0.0000000000000000e+00  0.0000000000000000e+00  0.0000000000000000e+00 
 0.0000000000000000e+00  0.0000000000000000e+00  0.0000000000000000e+00  0.0000000000000000e+00 
 0.0000000000000000e+00  0.0000000000000000e+00  0.0000000000000000e+00  0.0000000000000000e+00 
 0.0000000000000000e+00  0.0000000000000000e+00  0.0000000000000000e+00  0.0000000000000000e+00 
 0.0000000000000000e+00  0.0000000000000000e+00  0.0000000000000000e+00  0.0000000000000000e+00 
 0.0000000000000000e+00  0.0000000000000000e+00  0.0000000000000000e+00  0.0000000000000000e+00 
 0.0000000000000000e+00  0.0000000000000000e+00  0.0000000000000000e+00  0.0000000000000000e+00 
 0.0000000000000000e+00  0.0000000000000000e+00  0.0000000000000000e+00  0.0000000000000000e+00 
 0.0000000000000000e+00  0.0000000000000000e+00  0.0000000000000000e+00  0.0000000000000000e+00 
 0.0000000000000000e+00  0.0000000000000000e+00  0.0000000000000000e+00  0.0000000000000000e+00 
 0.0000000000000000e+00  0.0000000000000000e+00  0.0000000000000000e+00  0.0000000000000000e+00 
 0.0000000000000000e+00  0.0000000000000000e+00  0.0000000000000000e+00  0.0000000000000000e+00 
 0.0000000000000000e+00  0.0000000000000000e+00  0.0000000000000000e+00  0.0000000000000000e+00 
 0.0000000000000000e+00  0.0000000000000000e+00  0.0000000000000000e+00  0.0000000000000000e+00 
 0.0000000000000000e+00  0.0000000000000000e+00  0.0000000000000000e+00  0.0000000000000000e+00 
 0.0000000000000000e+00  0.0000000000000000e+00  0.0000000000000000e+00  0.0000000000000000e+00 
 0.0000000000000000e+00  0.0000000000000000e+00  0.0000000000000000e+00  0.0000000000000000e+00 
 0.0000000000000000e+00  0.0000000000000000e+00  0.0000000000000000e+00  0.0000000000000000e+00 
 0.0000000000000000e+00  0.0000000000000000e+00  0.0000000000000000e+00  0.0000000000000000e+00 
 0.0000000000000000e+00  0.0000000000000000e+00  0.0000000000000000e+00  0.0000000000000000e+00 
 0.0000000000000000e+00  0.0000000000000000e+00  0.0000000000000000e+00  0.0000000000000000e+00 
 0.0000000000000000e+00  0.0000000000000000e+00  0.0000000000000000e+00  0.0000000000000000e+00 
 0.0000000000000000e+00  0.0000000000000000e+00  0.0000000000000000e+00  0.0000000000000000e+00 
 0.0000000000000000e+00  0.0000000000000000e+00  0.0000000000000000e+00  0.0000000000000000e+00 
 0.0000000000000000e+00  0.0000000000000000e+00  0.0000000000000000e+00  0.0000000000000000e+00 
 0.0000000000000000e+00  0.0000000000000000e+00  0.0000000000000000e+00  0.0000000000000000e+00 
 0.0000000000000000e+00  0.0000000000000000e+00  0.0000000000000000e+00  0.0000000000000000e+00 
 0.0000000000000000e+00  0.0000000000000000e+00  0.0000000000000000e+00  0.0000000000000000e+00 
 0.0000000000000000e+00  0.0000000000000000e+00  0.0000000000000000e+00  0.0000000000000000e+00 
 0.0000000000000000e+00  0.0000000000000000e+00  0.0000000000000000e+00  0.0000000000000000e+00 
 0.0000000000000000e+00  0.0000000000000000e+00  0.0000000000000000e+00  0.0000000000000000e+00 
 0.0000000000000000e+00  0.0000000000000000e+00  0.0000000000000000e+00  0.0000000000000000e+00 
 0.0000000000000000e+00  0.0000000000000000e+00  0.0000000000000000e+00  0.0000000000000000e+00 
 0.0000000000000000e+00  0.0000000000000000e+00  0.0000000000000000e+00  0.0000000000000000e+00 
 0.0000000000000000e+00  0.0000000000000000e+00  0.0000000000000000e+00  0.0000000000000000e+00 
 0.0000000000000000e+00  0.0000000000000000e+00  0.0000000000000000e+00  0.0000000000000000e+00 
 0.0000000000000000e+00  0.0000000000000000e+00  0.0000000000000000e+00  0.0000000000000000e+00 
 0.0000000000000000e+00  0.0000000000000000e+00  0.0000000000000000e+00  0.0000000000000000e+00 
 0.0000000000000000e+00  0.0000000000000000e+00  0.0000000000000000e+00  0.0000000000000000e+00 
 0.0000000000000000e+00  0.0000000000000000e+00  0.0000000000000000e+00  0.0000000000000000e+00 
 0.0000000000000000e+00  0.0000000000000000e+00  0.0000000000000000e+00  0.0000000000000000e+00 
 0.0000000000000000e+00  0.0000000000000000e+00  0.0000000000000000e+00  0.0000000000000000e+00 
 0.0000000000000000e+00  0.0000000000000000e+00  0.0000000000000000e+00  0.0000000000000000e+00 
 0.0000000000000000e+00  0.0000000000000000e+00  0.0000000000000000e+00  0.0000000000000000e+00 
 0.0000000000000000e+00  0.0000000000000000e+00  0.0000000000000000e+00  0.0000000000000000e+00 
 0.0000000000000000e+00  0.0000000000000000e+00  0.0000000000000000e+00  0.0000000000000000e+00 
 0.0000000000000000e+00  0.0000000000000000e+00  0.0000000000000000e+00  0.0000000000000000e+00 
 0.0000000000000000e+00  0.0000000000000000e+00  0.0000000000000000e+00  0.0000000000000000e+00 
 0.0000000000000000e+00  0.0000000000000000e+00  0.0000000000000000e+00  0.0000000000000000e+00 
 0.0000000000000000e+00  0.0000000000000000e+00  0.0000000000000000e+00  0.0000000000000000e+00 
 0.0000000000000000e+00  0.0000000000000000e+00  0.0000000000000000e+00  0.0000000000000000e+00 
 0.0000000000000000e+00  0.0000000000000000e+00  0.0000000000000000e+00  0.0000000000000000e+00 
 0.0000000000000000e+00  0.0000000000000000e+00  0.0000000000000000e+00  0.0000000000000000e+00 
 0.0000000000000000e+00  0.0000000000000000e+00  0.0000000000000000e+00  0.0000000000000000e+00 
 0.0000000000000000e+00  0.0000000000000000e+00  0.0000000000000000e+00  0.0000000000000000e+00 
 0.0000000000000000e+00  0.0000000000000000e+00  0.0000000000000000e+00  0.0000000000000000e+00 
 0.0000000000000000e+00  0.0000000000000000e+00  0.0000000000000000e+00  0.0000000000000000e+00 
 0.0000000000000000e+00  0.0000000000000000e+00  0.0000000000000000e+00  0.0000000000000000e+00 
 0.0000000000000000e+00  0.0000000000000000e+00  0.0000000000000000e+00  0.0000000000000000e+00 
 0.0000000000000000e+00  0.0000000000000000e+00  0.0000000000000000e+00  0.0000000000000000e+00 
 0.0000000000000000e+00  0.0000000000000000e+00  0.0000000000000000e+00  0.0000000000000000e+00 
 0.0000000000000000e+00  0.0000000000000000e+00  0.0000000000000000e+00  0.0000000000000000e+00 
 0.0000000000000000e+00  0.0000000000000000e+00  0.0000000000000000e+00  0.0000000000000000e+00 
 0.0000000000000000e+00  0.0000000000000000e+00  0.0000000000000000e+00  0.0000000000000000e+00 
 0.0000000000000000e+00  0.0000000000000000e+00  0.0000000000000000e+00  0.0000000000000000e+00 
 0.0000000000000000e+00  0.0000000000000000e+00  0.0000000000000000e+00 
  </PP_BETA>
  <PP_DIJ>
 3   Number of nonzero Dij
 1 1 -8.4144003661590405e-01 
 2 2 -1.5642508555625112e+00 
 3 3 -8.7590715695516987e+00 
  </PP_DIJ>
</PP_NONLOCAL>
<PP_PSWFC>
S    0   2.00          Wavefunction
 6.4925351144526436e-07  6.5774890794752115e-07  6.6635546560296687e-07  6.7507463894121466e-07 
 6.8390790152422689e-07  6.9285674619536548e-07  7.0192268533166859e-07  7.1110725109946824e-07 
 7.2041199571330340e-07  7.2983849169829349e-07  7.3938833215583870e-07  7.4906313103292982e-07 
 7.5886452339486008e-07  7.6879416570155743e-07  7.7885373608758010e-07  7.8904493464567207e-07 
 7.9936948371411894e-07  8.0982912816780682e-07  8.2042563571312523e-07  8.3116079718674394e-07 
 8.4203642685818969e-07  8.5305436273656966e-07  8.6421646688111505e-07  8.7552462571592505e-07 
 8.8698075034876824e-07  8.9858677689405318e-07  9.1034466680006446e-07  9.2225640718042680e-07 
 9.3432401114997381e-07  9.4654951816492823e-07  9.5893499436760503e-07  9.7148253293560156e-07 
 9.8419425443554704e-07  9.9707230718147127e-07  1.0101188675979070e-06  1.0233361405876850e-06 
 1.0367263599046265e-06  1.0502917885309797e-06  1.0640347190599288e-06  1.0779574740830628e-06 
 1.0920624065828447e-06  1.1063519003303326e-06  1.1208283702880451e-06  1.1354942630180492e-06 
 1.1503520570955077e-06  1.1654042635275378e-06  1.1806534261775733e-06  1.1961021221953253e-06 
 1.2117529624522974e-06  1.2276085919830760e-06  1.2436716904323034e-06  1.2599449725076022e-06 
 1.2764311884383559e-06  1.2931331244405226e-06  1.3100536031874906e-06  1.3271954842871614e-06 
 1.3445616647652403e-06  1.3621550795548149e-06  1.3799787019924169e-06  1.3980355443205240e-06 
 1.4163286581966210e-06  1.4348611352089996e-06  1.4536361073991905e-06  1.4726567477913996e-06 
 1.4919262709286385e-06  1.5114479334161180e-06  1.5312250344715888e-06  1.5512609164829301e-06 
 1.5715589655730417e-06  1.5921226121721396e-06  1.6129553315974982e-06  1.6340606446408409e-06 
 1.6554421181633327e-06  1.6771033656984645e-06  1.6990480480627340e-06  1.7212798739743247e-06 
 1.7438026006799917e-06  1.7666200345899991e-06  1.7897360319214729e-06  1.8131544993501262e-06 
 1.8368793946704848e-06  1.8609147274648777e-06  1.8852645597809805e-06  1.9099330068184886e-06 
 1.9349242376244619e-06  1.9602424757980430e-06  1.9858920002042723e-06  2.0118771456972319e-06 
 2.0382023038526820e-06  2.0648719237103466e-06  2.0918905125257471e-06  2.1192626365320809e-06 
 2.1469929217119032e-06  2.1750860545789751e-06  2.2035467829704116e-06  2.2323799168489968e-06 
 2.2615903291162659e-06  2.2911829564359841e-06  2.3211628000685631e-06  2.3515349267162914e-06 
 2.3823044693797474e-06  2.4134766282252915e-06  2.4450566714639917e-06  2.4770499362419847e-06 
 2.5094618295426332e-06  2.5422978291002758e-06  2.5755634843261107e-06  2.6092644172461039e-06 
 2.6434063234512345e-06  2.6779949730601443e-06  2.7130362116943488e-06  2.7485359614662539e-06 
 2.7845002219801434e-06  2.8209350713461796e-06  2.8578466672077170e-06  2.8952412477820956e-06 
 2.9331251329149688e-06  2.9715047251485585e-06  3.0103865108036721e-06  3.0497770610762335e-06 
 3.0896830331477382e-06  3.1301111713106242e-06  3.1710683081081791e-06  3.2125613654892770e-06 
 3.2545973559784827e-06  3.2971833838613202e-06  3.3403266463849895e-06  3.3840344349749543e-06 
 3.4283141364673651e-06  3.4731732343575899e-06  3.5186193100651995e-06  3.5646600442153914e-06 
 3.6113032179372006e-06  3.6585567141787649e-06  3.7064285190398258e-06  3.7549267231215406e-06 
 3.8040595228940946e-06  3.8538352220821532e-06  3.9042622330683815e-06  3.9553490783156379e-06 
 4.0071043918072941e-06  4.0595369205068551e-06  4.1126555258364416e-06  4.1664691851747329e-06 
 4.2209869933744339e-06  4.2762181642996812e-06  4.3321720323835602e-06  4.3888580542060231e-06 
 4.4462858100923580e-06  4.5044650057327502e-06  4.5634054738229459e-06  4.6231171757263790e-06 
 4.6836102031582149e-06  4.7448947798911649e-06  4.8069812634838610e-06  4.8698801470318466e-06 
 4.9336020609414059e-06  4.9981577747265868e-06  5.0635581988299393e-06  5.1298143864668336e-06 
 5.1969375354942739e-06  5.2649389903036744e-06  5.3338302437391093e-06  5.4036229390399043e-06 
 5.4743288718093362e-06  5.5459599920087554e-06  5.6185284059778547e-06  5.6920463784814910e-06 
 5.7665263347833104e-06  5.8419808627463321e-06  5.9184227149614154e-06  5.9958648109032028e-06 
 6.0743202391145145e-06  6.1538022594194822e-06  6.2343243051653545e-06  6.3158999854937120e-06 
 6.3985430876418561e-06  6.4822675792738534e-06  6.5670876108422793e-06  6.6530175179809052e-06 
 6.7400718239288089e-06  6.8282652419862732e-06  6.9176126780024480e-06  7.0081292328961863e-06 
 7.0998302052096681e-06  7.1927310936952444e-06  7.2868475999364693e-06  7.3821956310035094e-06 
 7.4787913021431827e-06  7.5766509395041945e-06  7.6757910828983393e-06  7.7762284885975523e-06 
 7.8779801321681362e-06  7.9810632113416365e-06  8.0854951489233071e-06  8.1912935957392543e-06 
 8.2984764336216644e-06  8.4070617784335424e-06  8.5170679831328154e-06  8.6285136408766825e-06 
 8.7414175881668838e-06  8.8557989080359047e-06  8.9716769332749656e-06  9.0890712497049518e-06 
 9.2080016994890202e-06  9.3284883844901652e-06  9.4505516696713817e-06  9.5742121865414426e-06 
 9.6994908366453809e-06  9.8264087951010505e-06  9.9549875141817722e-06  1.0085248726946084e-05 
 1.0217214450915095e-05  1.0350906991798666e-05  1.0486348947269570e-05  1.0623563210787230e-05 
 1.0762572975472940e-05  1.0903401738034204e-05  1.1046073302741847e-05  1.1190611785458713e-05 
 1.1337041617721412e-05  1.1485387550875649e-05  1.1635674660266258e-05  1.1787928349481291e-05 
 1.1942174354652766e-05  1.2098438748813812e-05  1.2256747946312365e-05  1.2417128707283658e-05 
 1.2579608142180874e-05  1.2744213716365565e-05  1.2910973254758793e-05  1.3079914946552654e-05 
 1.3251067349984079e-05  1.3424459397171876e-05  1.3600120399016320e-05  1.3778080050163998e-05 
 1.3958368434037999e-05  1.4141016027933472e-05  1.4326053708181103e-05  1.4513512755378157e-05 
 1.4703424859687800e-05  1.4895822126209636e-05  1.5090737080419021e-05  1.5288202673679888e-05 
 1.5488252288828248e-05  1.5690919745831210e-05  1.5896239307519041e-05  1.6104245685392844e-05 
 1.6314974045510173e-05  1.6528460014446113e-05  1.6744739685334543e-05  1.6963849623988534e-05 
 1.7185826875101249e-05  1.7410708968528471e-05  1.7638533925655478e-05  1.7869340265845086e-05 
 1.8103167012973739e-05  1.8340053702052114e-05  1.8580040385933247e-05  1.8823167642110554e-05 
 1.9069476579603953e-05  1.9319008845937989e-05  1.9571806634211441e-05  1.9827912690261535e-05 
 2.0087370319921777e-05  2.0350223396376372e-05  2.0616516367611325e-05  2.0886294263965157e-05 
 2.1159602705778811e-05  2.1436487911146672e-05  2.1716996703771031e-05  2.2001176520919950e-05 
 2.2289075421490914e-05  2.2580742094181624e-05  2.2876225865768145e-05  2.3175576709494536e-05 
 2.3478845253571391e-05  2.3786082789791142e-05  2.4097341282252533e-05  2.4412673376205977e-05 
 2.4732132407013843e-05  2.5055772409229391e-05  2.5383648125798677e-05  2.5715815017383745e-05 
 2.6052329271809072e-05  2.6393247813635663e-05  2.6738628313861315e-05  2.7088529199751076e-05 
 2.7443009664798419e-05  2.7802129678818982e-05  2.8165949998180618e-05  2.8534532176168047e-05 
 2.8907938573487311e-05  2.9286232368911392e-05  2.9669477570066277e-05  3.0057739024363211e-05 
 3.0451082430076237e-05  3.0849574347569866e-05  3.1253282210675361e-05  3.1662274338221231e-05 
 3.2076619945718116e-05  3.2496389157199143e-05  3.2921653017224108e-05  3.3352483503039575e-05 
 3.3788953536906534e-05  3.4231136998593071e-05  3.4679108738035426e-05  3.5132944588170176e-05 
 3.5592721377939345e-05  3.6058516945473677e-05  3.6530410151449226e-05  3.7008480892632073e-05 
 3.7492810115599237e-05  3.7983479830651204e-05  3.8480573125910836e-05  3.8984174181615140e-05 
 3.9494368284599836e-05  4.0011241842983770e-05  4.0534882401051426e-05  4.1065378654338950e-05 
 4.1602820464927334e-05  4.2147298876944693e-05  4.2698906132278081e-05  4.3257735686505411e-05 
 4.3823882225042827e-05  4.4397441679512946e-05  4.4978511244343804e-05  4.5567189393588289e-05 
 4.6163575897984504e-05  4.6767771842244125e-05  4.7379879642585234e-05  4.8000003064503879e-05 
 4.8628247240796361e-05  4.9264718689828008e-05  4.9909525334058636e-05  5.0562776518824632e-05 
 5.1224583031384330e-05  5.1895057120228188e-05  5.2574312514660893e-05  5.3262464444655545e-05 
 5.3959629660990214e-05  5.4665926455665120e-05  5.5381474682608349e-05  5.6106395778673290e-05 
 5.6840812784934454e-05  5.7584850368285861e-05  5.8338634843340877e-05  5.9102294194652408e-05 
 5.9875958099241029e-05  6.0659757949450920e-05  6.1453826876131133e-05  6.2258299772147344e-05 
 6.3073313316238782e-05  6.3899005997206495e-05  6.4735518138466034e-05  6.5582991922942421e-05 
 6.6441571418337055e-05  6.7311402602753063e-05  6.8192633390700810e-05  6.9085413659482272e-05 
 6.9989895275960636e-05  7.0906232123724811e-05  7.1834580130653250e-05  7.2775097296887758e-05 
 7.3727943723217473e-05  7.4693281639891230e-05  7.5671275435852160e-05  7.6662091688414055e-05 
 7.7665899193384935e-05  7.8682868995637035e-05  7.9713174420142365e-05  8.0756991103482823e-05 
 8.1814497025828656e-05  8.2885872543411116e-05  8.3971300421495487e-05  8.5070965867848318e-05 
 8.6185056566734670e-05  8.7313762713426768e-05  8.8457277049262597e-05  8.9615794897236346e-05 
 9.0789514198157822e-05  9.1978635547367601e-05  9.3183362232044265e-05  9.4403900269086652e-05 
 9.5640458443611902e-05  9.6893248348058666e-05  9.8162484421919339e-05  9.9448383992110326e-05 
 1.0075116731399950e-04  1.0207105761309173e-04  1.0340828112740160e-04  1.0476306715051304e-04 
 1.0613564807535271e-04  1.0752625943868181e-04  1.0893513996633778e-04  1.1036253161921211e-04 
 1.1180867964001839e-04  1.1327383260083645e-04  1.1475824245146825e-04  1.1626216456861197e-04 
 1.1778585780588038e-04  1.1932958454468022e-04  1.2089361074597189e-04  1.2247820600292422e-04 
 1.2408364359449843e-04  1.2571020053996326e-04  1.2735815765438181e-04  1.2902779960508585e-04 
 1.3071941496914944e-04  1.3243329629190968e-04  1.3416974014653207e-04  1.3592904719467299e-04 
 1.3771152224823898e-04  1.3951747433229851e-04  1.4134721674914099e-04  1.4320106714354485e-04 
 1.4507934756926118e-04  1.4698238455675494e-04  1.4891050918223206e-04  1.5086405713798459e-04 
 1.5284336880408810e-04  1.5484878932149073e-04  1.5688066866651813e-04  1.5893936172684989e-04 
 1.6102522837898380e-04  1.6313863356725065e-04  1.6527994738439942e-04  1.6744954515380948e-04 
 1.6964780751337481e-04  1.7187512050108219e-04  1.7413187564237510e-04  1.7641847003929947e-04 
 1.7873530646151582e-04  1.8108279343922738e-04  1.8346134535806178e-04  1.8587138255597238e-04 
 1.8831333142221317e-04  1.9078762449846018e-04  1.9329470058210632e-04  1.9583500483184033e-04 
 1.9840898887552570e-04  2.0101711092050128e-04  2.0365983586631526e-04  2.0633763542002276e-04 
 2.0905098821406484e-04  2.1180037992687568e-04  2.1458630340622162e-04  2.1740925879542132e-04 
 2.2026975366249747e-04  2.2316830313235487e-04  2.2610543002209082e-04  2.2908166497952553e-04 
 2.3209754662504732e-04  2.3515362169688607e-04  2.3825044519991141e-04  2.4138858055808448e-04 
 2.4456859977065617e-04  2.4779108357225440e-04  2.5105662159695077e-04  2.5436581254648289e-04 
 2.5771926436272085e-04  2.6111759440453623e-04  2.6456142962921655e-04  2.6805140677857572e-04 
 2.7158817256989009e-04  2.7517238389186509e-04  2.7880470800575473e-04  2.8248582275182334e-04 
 2.8621641676132787e-04  2.8999718967420463e-04  2.9382885236265452e-04  2.9771212716081459e-04 
 3.0164774810072736e-04  3.0563646115483781e-04  3.0967902448520633e-04  3.1377620869970079e-04 
 3.1792879711538757e-04  3.2213758602937282e-04  3.2640338499735785e-04  3.3072701712016803e-04 
 3.3510931933853217e-04  3.3955114273640847e-04  3.4405335285314843e-04  3.4861683000480718e-04 
 3.5324246961493361e-04  3.5793118255515391e-04  3.6268389549592143e-04  3.6750155126777205e-04 
 3.7238510923346497e-04  3.7733554567140088e-04  3.8235385417072768e-04  3.8744104603852752e-04 
 3.9259815071954532e-04  3.9782621622890798e-04  4.0312630959828463e-04  4.0849951733599560e-04 
 4.1394694590156253e-04  4.1946972219522946e-04  4.2506899406303156e-04  4.3074593081789841e-04 
 4.3650172377747648e-04  4.4233758681921562e-04  4.4825475695339713e-04  4.5425449491472380e-04 
 4.6033808577320779e-04  4.6650683956501679e-04  4.7276209194405821e-04  4.7910520485508137e-04 
 4.8553756722902641e-04  4.9206059570153910e-04  4.9867573535547168e-04  5.0538446048827251e-04 
 5.1218827540518857e-04  5.1908871523926269e-04  5.2608734679915792e-04  5.3318576944580095e-04 
 5.4038561599897676e-04  5.4768855367498851e-04  5.5509628505657712e-04  5.6261054909629790e-04 
 5.7023312215463120e-04  5.7796581907417247e-04  5.8581049429125309e-04  5.9376904298642699e-04 
 6.0184340227528070e-04  6.1003555244117742e-04  6.1834751821146538e-04  6.2678137007885360e-04 
 6.3533922566971714e-04  6.4402325116104473e-04  6.5283566274803174e-04  6.6177872816414337e-04 
 6.7085476825577315e-04  6.8006615861354168e-04  6.8941533126242187e-04  6.9890477641308040e-04 
 7.0853704427662606e-04  7.1831474694540858e-04  7.2824056034225980e-04  7.3831722624103453e-04 
 7.4854755436106455e-04  7.5893442453843995e-04  7.6948078897722493e-04  7.8018967458357642e-04 
 7.9106418538611365e-04  8.0210750504588059e-04  8.1332289945941136e-04  8.2471371945853455e-04 
 8.3628340361076097e-04  8.4803548112416147e-04  8.5997357486085173e-04  8.7210140446340322e-04 
 8.8442278959856031e-04  8.9694165332299288e-04  9.0966202557566885e-04  9.2258804680230976e-04 
 9.3572397171654638e-04  9.4907417320371661e-04  9.6264314637267017e-04  9.7643551276145135e-04 
 9.9045602470320174e-04  1.0047095698582987e-03  1.0192011759196250e-03  1.0339360154976839e-03 
 1.0489194111929173e-03  1.0641568408623619e-03  1.0796539430887053e-03  1.0954165228597025e-03 
 1.1114505574663439e-03  1.1277622026284351e-03  1.1443577988569707e-03  1.1612438780623437e-03 
 1.1784271704187105e-03  1.1959146114944388e-03  1.2137133496593830e-03  1.2318307537802964e-03 
 1.2502744212156574e-03  1.2690521861221838e-03  1.2881721280855020e-03  1.3076425810879043e-03 
 1.3274721428270569e-03  1.3476696843994287e-03  1.3682443603635329e-03  1.3892056191980556e-03 
 1.4105632141708951e-03  1.4323272146357679e-03  1.4545080177736694e-03  1.4771163607970150e-03 
 1.5001633336355689e-03  1.5236603921232475e-03  1.5476193717064229e-03  1.5720525016947112e-03 
 1.5969724200763531e-03  1.6223921889210351e-03  1.6483253103940724e-03  1.6747857434067479e-03 
 1.7017879209287206e-03  1.7293467679894200e-03  1.7574777203964284e-03  1.7861967442000318e-03 
 1.8155203559345559e-03  1.8454656436675610e-03  1.8760502888905532e-03  1.9072925892849267e-03 
 1.9392114823991650e-03  1.9718265702741190e-03  2.0051581450554741e-03  2.0392272156332671e-03 
 2.0740555353505807e-03  2.1096656308248942e-03  2.1460808319276386e-03  2.1833253029689532e-03 
 2.2214240751371726e-03  2.2604030802436297e-03  2.3002891858267811e-03  2.3411102316702832e-03 
 2.3828950677931334e-03  2.4256735939716424e-03  2.4694768008556569e-03  2.5143368127438690e-03 
 2.5602869320856723e-03  2.6073616857798460e-03  2.6555968733427793e-03  2.7050296170223619e-03 
 2.7556984139362559e-03  2.8076431903165931e-03  2.8609053579460243e-03  2.9155278728741798e-03 
 2.9715552965059754e-03  3.0290338591576144e-03  3.0880115261793790e-03  3.1485380667483540e-03 
 3.2106651254379804e-03  3.2744462966756370e-03  3.3399372022030601e-03  3.4071955716598120e-03 
 3.4762813264132171e-03  3.5472566667635094e-03  3.6201861626578083e-03  3.6951368480504076e-03 
 3.7721783190532545e-03  3.8513828360241279e-03  3.9328254297465899e-03  4.0165840118597061e-03 
 4.1027394897028904e-03  4.1913758857447456e-03  4.2825804617720852e-03  4.3764438480203404e-03 
 4.4730601774326381e-03  4.5725272252412708e-03  4.6749465540703297e-03  4.7804236647658030e-03 
 4.8890681531649615e-03  5.0009938730224066e-03  5.1163191053187574e-03  5.2351667341812829e-03 
 5.3576644296552270e-03  5.4839448375679821e-03  5.6141457767373403e-03  5.7484104437791521e-03 
 5.8868876257770989e-03  6.0297319210828723e-03  6.1771039685215414e-03  6.3291706852812088e-03 
 6.4861055137740526e-03  6.6480886777582574e-03  6.8153074480180424e-03  6.9879564179014895e-03 
 7.1662377890219361e-03  7.3503616674312393e-03  7.5405463705778596e-03  7.7370187453643753e-03 
 7.9400144976226102e-03  8.1497785333257914e-03  8.3665653118574091e-03  8.5906392116582558e-03 
 8.8222749085717575e-03  9.0617577672059135e-03  9.3093842456289412e-03  9.5654623137112465e-03 
 9.8303118854236281e-03  1.0104265265393580e-02  1.0387667610018093e-02  1.0680877403420974e-02 
 1.0984266948534717e-02  1.1298222873576350e-02  1.1623146654175376e-02  1.1959455151397248e-02 
 1.2307581165893883e-02  1.2667974008393829e-02  1.3041100086729750e-02  1.3427443509580949e-02 
 1.3827506707089496e-02  1.4241811068485474e-02  1.4670897596838112e-02  1.5115327581021288e-02 
 1.5575683284961738e-02  1.6052568654210772e-02  1.6546610039855320e-02  1.7058456939758423e-02 
 1.7588782757092497e-02  1.8138285576104560e-02  1.8707688955024861e-02  1.9297742736009552e-02 
 1.9909223871982750e-02  2.0542937270224250e-02  2.1199716652530332e-02  2.1880425431760775e-02 
 2.2585957604572163e-02  2.3317238660132484e-02  2.4075226504607340e-02  2.4860912401213485e-02 
 2.5675321925643532e-02  2.6519515936681545e-02  2.7394591561855156e-02  2.8301683197998091e-02 
 2.9241963526641036e-02  3.0216644544194971e-02  3.1226978606950916e-02  3.2274259490985995e-02 
 3.3359823467143383e-02  3.4485050391336640e-02  3.5651364810522557e-02  3.6860237084783663e-02 
 3.8113184526065873e-02  3.9411772554220702e-02  4.0757615871108079e-02  4.2152379653613598e-02 
 4.3597780766528205e-02  4.5095588996313399e-02  4.6647628306835165e-02  4.8255778118171305e-02 
 4.9921974609596763e-02  5.1648212047788106e-02  5.3436544141175060e-02  5.5289085421182133e-02 
 5.7208012650824279e-02  5.9195566260746062e-02  6.1254051812294902e-02  6.3385841486577027e-02 
 6.5593375597649259e-02  6.7879164127008215e-02  7.0245788275354132e-02  7.2695902026176498e-02 
 7.5232233714034494e-02  7.7857587588441787e-02  8.0574845361999922e-02  8.3386967728830558e-02 
 8.6296995836421739e-02  8.9308052690681053e-02  9.2423344470320482e-02  9.5646161722614587e-02 
 9.8979880408119267e-02  1.0242796275711220e-01  1.0599395789531596e-01  1.0968150219096369e-01 
 1.1349431926946940e-01  1.1743621963596719e-01  1.2151109983985312e-01  1.2572294110929774e-01 
 1.3007580737764471e-01  1.3457384261779157e-01  1.3922126739525936e-01  1.4402237454588368e-01 
 1.4898152388013655e-01  1.5410313581323765e-01  1.5939168381875254e-01  1.6485168560350771e-01 
 1.7048769290376931e-01  1.7630427980694399e-01  1.8230602950991573e-01  1.8849751943477616e-01 
 1.9488330463539011e-01  2.0146789944414437e-01  2.0825575732749749e-01  2.1525124894158418e-01 
 2.2245863840508734e-01  2.2988205783563073e-01  2.3752548022769715e-01  2.4539269078399453e-01 
 2.5348725684747142e-01  2.6181249661687656e-01  2.7037144686358738e-01  2.7916682989994779e-01 
 2.8820102007787146e-01  2.9747601011897118e-01  3.0699337759198253e-01  3.1675425185743422e-01 
 3.2675928179115310e-01  3.3700860457506576e-01  3.4750181580384459e-01  3.5823794109759044e-01 
 3.6921540933279856e-01  3.8043202750596622e-01  3.9188495712691013e-01  4.0357069190401690e-01 
 4.1548503633444567e-01  4.2762308465364440e-01  4.3997919943718178e-01  4.5254698899247875e-01 
 4.6531928253924493e-01  4.7828810206779659e-01  4.9144462969820446e-01  5.0477916935564704e-01 
 5.1828110164458741e-01  5.3193883096189165e-01  5.4573972415108130e-01  5.5967004037787516e-01 
 5.7371485240799702e-01  5.8785796009265667e-01  6.0208179760783065e-01  6.1636733683336764e-01 
 6.3069399016824512e-01  6.4503951701761919e-01  6.5937993910071258e-01  6.7368947054809114e-01 
 6.8794046940269804e-01  7.0210341752255512e-01  7.1614693591124123e-01  7.3003784208409239e-01 
 7.4374125513268985e-01  7.5722075261658284e-01  7.7043858126006293e-01  7.8335592067666815e-01 
 7.9593319605401858e-01  8.0813043204078028e-01  8.1990763619308271e-01  8.3122519654174254e-01 
 8.4204427448710584e-01  8.5232717172570094e-01  8.6203764870680966e-01  8.7114117265102753e-01 
 8.7960507583288905e-01  8.8739860992717134e-01  8.9449288986616071e-01  9.0086073074030015e-01 
 9.0647639338727837e-01  9.1131526770027282e-01  9.1535353622320592e-01  9.1856787281578234e-01 
 9.2093524030158569e-01  9.2243285512859685e-01  9.2303838425963458e-01  9.2273042811675687e-01 
 9.2148932232727243e-01  9.1929826002823067e-01  9.1614469652578268e-01  9.1202195154500132e-01 
 9.0693087507036163e-01  9.0088139630504749e-01  8.9389373824088658e-01  8.8599906008635332e-01 
 8.7723929355309149e-01  8.6766597272035906e-01  8.5733792436136380e-01  8.4631778594770679e-01 
 8.3466744693100992e-01  8.2244265473414291e-01  8.0968717413973545e-01  7.9642701696968510e-01 
 7.8267387375313913e-01  7.6845641446660751e-01  7.5380976543337985e-01  7.3876915158142520e-01 
 7.2336980324072020e-01  7.0764686509432129e-01  6.9163530758237901e-01  6.7536984103694608e-01 
 6.5888483280129939e-01  6.4221422756094793e-01  6.2539147108481341e-01  6.0844943754440384e-01 
 5.9142036054629310e-01  5.7433576797895058e-01  5.5722642073902628e-01  5.4012225536475533e-01 
 5.2305233056558831e-01  5.0604477759804101e-01  4.8912675439909203e-01  4.7232440335168752e-01 
 4.5566281252399438e-01  4.3916598019750164e-01  4.2285678248190894e-01  4.0675694381022270e-01 
 3.9088701011888993e-01  3.7526632454789910e-01  3.5991300554631417e-01  3.4484392733976382e-01 
 3.3007470280586110e-01  3.1561966890670745e-01  3.0149187493722318e-01  2.8770307395453154e-01 
 2.7426371784605558e-01  2.6118295656124063e-01  2.4846864206406163e-01  2.3612733755349657e-01 
 2.2416433244366879e-01  2.1258366349544744e-01  2.0138814235255631e-01  1.9057938956696857e-01 
 1.8015787501253827e-01  1.7012296439553468e-01  1.6047297138883371e-01  1.5120521475427789e-01 
 1.4231607968401205e-01  1.3380108249244915e-01  1.2565493772900790e-01  1.1787162675831343e-01 
 1.1044446686737422e-01  1.0336618000485519e-01  9.6628960331289107e-02  9.0224539855461722e-02 
 8.4144251545434173e-02  7.8379089426684243e-02  7.2919765308659193e-02  6.7756761908823127e-02 
 6.2880382264605211e-02  5.8280795433653922e-02  5.3948078577406973e-02  4.9872255599158331e-02 
 4.6043332563698490e-02  4.2451330160696084e-02  3.9086313489064592e-02  3.5938419436599783e-02 
 3.2997881911140295e-02  3.0255055150008085e-02  2.7700435297450508e-02  2.5324680399099127e-02 
 2.3118628921605242e-02  2.1073316867536832e-02  1.9179993522542835e-02  1.7430135845147399e-02 
 1.5815461490040188e-02  1.4327940443446676e-02  1.2959805243653822e-02  1.1703559760223530e-02 
 1.0551986510818031e-02  9.4981525037553163e-03  8.5354136062761321e-03  7.6574174519802741e-03 
 6.8581049150429662e-03  6.1317101928677724e-03  5.4727595521445113e-03  4.8760688053885552e-03 
 4.3367395956126443e-03  3.8501545756208346e-03  3.4119715754165492e-03  3.0181168563689440e-03 
 2.6647775541344975e-03  2.3483934139837577e-03  2.0656479222699998e-03  1.8134589364532350e-03 
 1.5889689135272268e-03  1.3895348330618760e-03  1.2127179065398409e-03  1.0562731594007592e-03 
 9.1813896636653203e-04  7.9642661435392963e-04  6.8940996072164079e-04  5.9551524787062400e-04 
 5.1331112842931256e-04  4.4149894850624931e-04  3.7890332986702366e-04  3.2446308546289174e-04 
 2.7722249656674777e-04  2.3632297390886381e-04  2.0099511969072137e-04  1.7055120222147330e-04 
 1.4437805019071456e-04  1.2193036927791451e-04  1.0272447991052624e-04  8.6332471520451779e-05 
 7.2376765607481736e-05  6.0525077288834262e-05  5.0485762781949673e-05  4.2003538415586622e-05 
 3.4855555271343470e-05  2.8847812400945320e-05  2.3811890719144498e-05  1.9601989111772617e-05 
 1.6092243996490948e-05  1.3174313502956854e-05  1.0755207572414687e-05  8.7553455875796206e-06 
 7.1068236063700329e-06  5.7518738629010450e-06  4.6414998928366674e-06  3.7342714158670637e-06 
 2.9952639455239220e-06  2.3951289773041870e-06  1.9092815134703894e-06  1.5171926020893058e-06 
 1.2017754858303756e-06  9.4885486152424212e-07  7.4670963495317432e-07  5.8568040892350640e-07 
 4.5783376001155575e-07  3.5667613556584903e-07  2.7691093398646575e-07  2.1423301556535848e-07 
 1.6515552688946120e-07  1.2686450853095475e-07  9.7097293816957828e-08  7.4041196890982328e-08 
 5.6249432605079728e-08  4.2571611005399918e-08  3.2096507619526354e-08  2.4105129987092904e-08 
 1.8032383619464558e-08  1.3435889638528997e-08  9.9707245601621085e-09  7.3690428555423840e-09 
 5.4237077700736806e-09  3.9751980234603305e-09  2.9011799384186485e-09  2.1082386628006317e-09 
 1.5253508594423432e-09  1.0987523474203687e-09  7.8792492694383869e-10  5.6247000307061915e-10 
 3.9968477265417620e-10  2.8269193585847975e-10  1.9900333074585824e-10  1.3942208052773821e-10 
 9.7207525963538809e-11  6.7443144356972877e-11  4.6560478047473094e-11  3.1982359438014404e-11 
 2.1856891602584976e-11  1.4860114010508866e-11  1.0050377759925222e-11  6.7614439789053065e-12 
 4.5244250530903043e-12  3.0110929070422267e-12  1.9929294497702285e-12  1.3117107604618164e-12 
 8.5849428813039580e-13  5.5869347812117076e-13  3.6153714473837684e-13  2.3266902649791584e-13 
 1.4898336467339846e-13  9.5043834926124718e-14  0.0000000000000000e+00  0.0000000000000000e+00 
 0.0000000000000000e+00  0.0000000000000000e+00  0.0000000000000000e+00  0.0000000000000000e+00 
 0.0000000000000000e+00  0.0000000000000000e+00  0.0000000000000000e+00  0.0000000000000000e+00 
 0.0000000000000000e+00  0.0000000000000000e+00  0.0000000000000000e+00  0.0000000000000000e+00 
 0.0000000000000000e+00  0.0000000000000000e+00  0.0000000000000000e+00  0.0000000000000000e+00 
 0.0000000000000000e+00  0.0000000000000000e+00  0.0000000000000000e+00  0.0000000000000000e+00 
 0.0000000000000000e+00  0.0000000000000000e+00  0.0000000000000000e+00  0.0000000000000000e+00 
 0.0000000000000000e+00  0.0000000000000000e+00  0.0000000000000000e+00  0.0000000000000000e+00 
 0.0000000000000000e+00  0.0000000000000000e+00  0.0000000000000000e+00  0.0000000000000000e+00 
 0.0000000000000000e+00  0.0000000000000000e+00  0.0000000000000000e+00  0.0000000000000000e+00 
 0.0000000000000000e+00  0.0000000000000000e+00  0.0000000000000000e+00  0.0000000000000000e+00 
 0.0000000000000000e+00  0.0000000000000000e+00  0.0000000000000000e+00  0.0000000000000000e+00 
 0.0000000000000000e+00  0.0000000000000000e+00  0.0000000000000000e+00  0.0000000000000000e+00 
 0.0000000000000000e+00  0.0000000000000000e+00  0.0000000000000000e+00  0.0000000000000000e+00 
 0.0000000000000000e+00  0.0000000000000000e+00  0.0000000000000000e+00  0.0000000000000000e+00 
 0.0000000000000000e+00  0.0000000000000000e+00  0.0000000000000000e+00  0.0000000000000000e+00 
 0.0000000000000000e+00  0.0000000000000000e+00  0.0000000000000000e+00  0.0000000000000000e+00 
 0.0000000000000000e+00  0.0000000000000000e+00  0.0000000000000000e+00  0.0000000000000000e+00 
 0.0000000000000000e+00  0.0000000000000000e+00  0.0000000000000000e+00  0.0000000000000000e+00 
 0.0000000000000000e+00  0.0000000000000000e+00  0.0000000000000000e+00  0.0000000000000000e+00 
 0.0000000000000000e+00  0.0000000000000000e+00  0.0000000000000000e+00  0.0000000000000000e+00 
 0.0000000000000000e+00  0.0000000000000000e+00  0.0000000000000000e+00  0.0000000000000000e+00 
 0.0000000000000000e+00  0.0000000000000000e+00  0.0000000000000000e+00  0.0000000000000000e+00 
 0.0000000000000000e+00  0.0000000000000000e+00  0.0000000000000000e+00  0.0000000000000000e+00 
 0.0000000000000000e+00  0.0000000000000000e+00  0.0000000000000000e+00  0.0000000000000000e+00 
 0.0000000000000000e+00  0.0000000000000000e+00  0.0000000000000000e+00  0.0000000000000000e+00 
 0.0000000000000000e+00  0.0000000000000000e+00  0.0000000000000000e+00  0.0000000000000000e+00 
 0.0000000000000000e+00  0.0000000000000000e+00  0.0000000000000000e+00  0.0000000000000000e+00 
 0.0000000000000000e+00  0.0000000000000000e+00  0.0000000000000000e+00  0.0000000000000000e+00 
 0.0000000000000000e+00  0.0000000000000000e+00  0.0000000000000000e+00  0.0000000000000000e+00 
 0.0000000000000000e+00  0.0000000000000000e+00  0.0000000000000000e+00  0.0000000000000000e+00 
 0.0000000000000000e+00  0.0000000000000000e+00  0.0000000000000000e+00  0.0000000000000000e+00 
 0.0000000000000000e+00  0.0000000000000000e+00  0.0000000000000000e+00  0.0000000000000000e+00 
 0.0000000000000000e+00  0.0000000000000000e+00  0.0000000000000000e+00  0.0000000000000000e+00 
 0.0000000000000000e+00  0.0000000000000000e+00  0.0000000000000000e+00 
P    1   6.00          Wavefunction
 7.5338884263800238e-11  7.7323381938796026e-11  7.9360153165144505e-11  8.1450574877787066e-11 
 8.3596060281438498e-11  8.5798059805967011e-11  8.8058062086940660e-11  9.0377594972000961e-11 
 9.2758226553747125e-11  9.5201566229826140e-11  9.7709265790946341e-11  1.0028302053755154e-10 
 1.0292457042590914e-10  1.0563570124438595e-10  1.0841824582071028e-10  1.1127408526103237e-10 
 1.1420515022162539e-10  1.1721342221408109e-10  1.2030093494488826e-10  1.2346977569029581e-10 
 1.2672208670739111e-10  1.3006006668234717e-10  1.3348597221681905e-10  1.3700211935349226e-10 
 1.4061088514181627e-10  1.4431470924498018e-10  1.4811609558921973e-10  1.5201761405656446e-10 
 1.5602190222217812e-10  1.6013166713746031e-10  1.6434968716011439e-10  1.6867881383242619e-10 
 1.7312197380901375e-10  1.7768217083535809e-10  1.8236248777844982e-10  1.8716608871092604e-10 
 1.9209622105010160e-10  1.9715621775335079e-10  2.0234949957131086e-10  2.0767957736044233e-10 
 2.1315005445650177e-10  2.1876462911053245e-10  2.2452709698902667e-10  2.3044135373993909e-10 
 2.3651139762629416e-10  2.4274133222916517e-10  2.4913536922185221e-10  2.5569783121713408e-10 
 2.6243315468951940e-10  2.6934589297447396e-10  2.7644071934664894e-10  2.8372243017919456e-10 
 2.9119594818629022e-10  2.9886632575108929e-10  3.0673874834132320e-10  3.1481853801487444e-10 
 3.2311115701769417e-10  3.3162221147648788e-10  3.4035745518867177e-10  3.4932279351216205e-10 
 3.5852428735762091e-10  3.6796815728586531e-10  3.7766078771320473e-10  3.8760873122755060e-10 
 3.9781871301821928e-10  4.0829763542241269e-10  4.1905258259147102e-10  4.3009082528002195e-10 
 4.4141982576129672e-10  4.5304724287190839e-10  4.6498093718952476e-10  4.7722897634691422e-10 
 4.8979964048597911e-10  5.0270142785544957e-10  5.1594306055602622e-10  5.2953349043685400e-10 
 5.4348190514731815e-10  5.5779773434824498e-10  5.7249065608671936e-10  5.8757060333881399e-10 
 6.0304777072466656e-10  6.1893262140042974e-10  6.3523589413177581e-10  6.5196861055370362e-10 
 6.6914208262160118e-10  6.8676792025855922e-10  7.0485803920411881e-10  7.2342466906978162e-10 
 7.4248036160669241e-10  7.6203799919111390e-10  7.8211080353339520e-10  8.0271234461637991e-10 
 8.2385654986921967e-10  8.4555771358286237e-10  8.6783050657354885e-10  8.9068998610084638e-10 
 9.1415160604693366e-10  9.3823122736403975e-10  9.6294512879704208e-10  9.8831001788854472e-10 
 1.0143430422738117e-09  1.0410618012732418e-09  1.0684843577901876e-09  1.0966292505221796e-09 
 1.1255155064938042e-09  1.1551626539197161e-09  1.1855907354064607e-09  1.2168203215020714e-09 
 1.2488725246025358e-09  1.2817690132246200e-09  1.3155320266546217e-09  1.3501843899829848e-09 
 1.3857495295349676e-09  1.4222514887077362e-09  1.4597149442246548e-09  1.4981652228176981e-09 
 1.5376283183493224e-09  1.5781309093853344e-09  1.6197003772306433e-09  1.6623648244400876e-09 
 1.7061530938168693e-09  1.7510947879114302e-09  1.7972202890339252e-09  1.8445607797938557e-09 
 1.8931482641807457e-09  1.9430155892001099e-09  1.9941964670792867e-09  2.0467254980582765e-09 
 2.1006381937808320e-09  2.1559710013017658e-09  2.2127613277265682e-09  2.2710475655001032e-09 
 2.3308691183614289e-09  2.3922664279822733e-09  2.4552810013072263e-09  2.5199554386140527e-09 
 2.5863334623132211e-09  2.6544599465059344e-09  2.7243809473208786e-09  2.7961437340499335e-09 
 2.8697968211041480e-09  2.9453900008114235e-09  3.0229743770780908e-09  3.1026023999372236e-09 
 3.1843279010069700e-09  3.2682061298828726e-09  3.3542937914888127e-09  3.4426490844118740e-09 
 3.5333317402468920e-09  3.6264030639774225e-09  3.7219259754204346e-09  3.8199650517626227e-09 
 3.9205865712172246e-09  4.0238585578307863e-09  4.1298508274701991e-09  4.2386350350210671e-09 
 4.3502847228293369e-09  4.4648753704189490e-09  4.5824844455190839e-09  4.7031914564355651e-09 
 4.8270780058017001e-09  4.9542278457450614e-09  5.0847269345074021e-09  5.2186634945559734e-09 
 5.3561280722255783e-09  5.4972135989316530e-09  5.6420154539958135e-09  5.7906315291262862e-09 
 5.9431622945967664e-09  6.0997108671684997e-09  6.2603830798016912e-09  6.4252875532029876e-09 
 6.5945357692576098e-09  6.7682421463959816e-09  6.9465241169453348e-09  7.1295022065190585e-09 
 7.3173001154971816e-09  7.5100448026530546e-09  7.7078665709830773e-09  7.9108991557970246e-09 
 8.1192798151290602e-09  8.3331494225299652e-09  8.5526525623039739e-09  8.7779376272540073e-09 
 9.0091569190016954e-09  9.2464667509501059e-09  9.4900275539583907e-09  9.7400039848002811e-09 
 9.9965650374793124e-09  1.0259884157476379e-08  1.0530139359006737e-08  1.0807513345365498e-08 
 1.1092193632443413e-08  1.1384372675496229e-08  1.1684247999253069e-08  1.1992022331452252e-08 
 1.2307903739894722e-08  1.2632105773107319e-08  1.2964847604711649e-08  1.3306354181595717e-08 
 1.3656856375988348e-08  1.4016591141540027e-08  1.4385801673514627e-08  1.4764737573201018e-08 
 1.5153655016655573e-08  1.5552816927889427e-08  1.5962493156617877e-08  1.6382960660691941e-08 
 1.6814503693335681e-08  1.7257413995314819e-08  1.7711990992168556e-08  1.8178541996635912e-08 
 1.8657382416414492e-08  1.9148835967392251e-08  1.9653234892495699e-08  2.0170920186303193e-08 
 2.0702241825574879e-08  2.1247559005855192e-08  2.1807240384307601e-08  2.2381664328946417e-08 
 2.2971219174433708e-08  2.3576303484614137e-08  2.4197326321965548e-08  2.4834707524147323e-08 
 2.5488877987834008e-08  2.6160279960024519e-08  2.6849367337026226e-08  2.7556605971314270e-08 
 2.8282473986473447e-08  2.9027462100437975e-08  2.9792073957244262e-08  3.0576826467523687e-08 
 3.1382250157964752e-08  3.2208889529979716e-08  3.3057303427820615e-08  3.3928065416391400e-08 
 3.4821764169012623e-08  3.5739003865400338e-08  3.6680404600129703e-08  3.7646602801857165e-08 
 3.8638251663586690e-08  3.9656021584269905e-08  4.0700600622038669e-08  4.1772694959377999e-08 
 4.2873029380551530e-08  4.4002347761603951e-08  4.5161413573271481e-08  4.6351010397140363e-08 
 4.7571942455401704e-08  4.8825035154562148e-08  5.0111135643476925e-08  5.1431113386082751e-08 
 5.2785860749218928e-08  5.4176293605932039e-08  5.5603351954675060e-08  5.7068000554815929e-08 
 5.8571229578888957e-08  6.0114055282027950e-08  6.1697520689033582e-08  6.3322696299541674e-08 
 6.4990680811765665e-08  6.6702601865307227e-08  6.8459616803533440e-08  7.0262913456037523e-08 
 7.2113710941712847e-08  7.4013260492982221e-08  7.5962846301740546e-08  7.7963786387582478e-08 
 8.0017433488902312e-08  8.2125175977469141e-08  8.4288438797094605e-08  8.6508684427030008e-08 
 8.8787413870741560e-08  9.1126167670735416e-08  9.3526526950116422e-08  9.5990114481586106e-08 
 9.8518595784603360e-08  1.0111368025144719e-07  1.0377712230294821e-07  1.0651072257466317e-07 
 1.0931632913430298e-07  1.1219583873123054e-07  1.1515119807887781e-07  1.1818440517094775e-07 
 1.2129751063229178e-07  1.2449261910537584e-07  1.2777189067327429e-07  1.3113754232015164e-07 
 1.3459184943022286e-07  1.3813714732620313e-07  1.4177583284829205e-07  1.4551036597475322e-07 
 1.4934327148519314e-07  1.5327714066766060e-07  1.5731463307071899e-07  1.6145847830168431e-07 
 1.6571147787223446e-07  1.7007650709265106e-07  1.7455651701596060e-07  1.7915453643330799e-07 
 1.8387367392188978e-07  1.8871711994685805e-07  1.9368814901859467e-07  1.9879012190682986e-07 
 2.0402648791309394e-07  2.0940078720304831e-07  2.1491665320026490e-07  2.2057781504308266e-07 
 2.2638810010619196e-07  2.3235143658866559e-07  2.3847185617018136e-07  2.4475349673722899e-07 
 2.5120060518115583e-07  2.5781754026994203e-07  2.6460877559563853e-07  2.7157890259947776e-07 
 2.7873263367669439e-07  2.8607480536315974e-07  2.9361038160598855e-07  3.0134445712032542e-07 
 3.0928226083459349e-07  3.1742915942652696e-07  3.2579066095238560e-07  3.3437241857180868e-07 
 3.4318023437082598e-07  3.5222006328561689e-07  3.6149801712967572e-07  3.7102036872709918e-07 
 3.8079355615481660e-07  3.9082418709659542e-07  4.0111904331182518e-07  4.1168508522204975e-07 
 4.2252945661839530e-07  4.3365948949305113e-07  4.4508270899810724e-07  4.5680683853506647e-07 
 4.6883980497852172e-07  4.8118974403749636e-07  4.9386500575810989e-07  5.0687416017127667e-07 
 5.2022600308927156e-07  5.3392956205508294e-07  5.4799410244859752e-07  5.6242913375373250e-07 
 5.7724441599077828e-07  5.9244996631830071e-07  6.0805606580908325e-07  6.2407326640469020e-07 
 6.4051239805338184e-07  6.5738457603619076e-07  6.7470120848615415e-07  6.9247400410578189e-07 
 7.1071498008798920e-07  7.2943647024588340e-07  7.4865113335688347e-07  7.6837196172686783e-07 
 7.8861228998011385e-07  8.0938580408104241e-07  8.3070655059383382e-07  8.5258894618622064e-07 
 8.7504778738391431e-07  8.9809826058225062e-07  9.2175595232186796e-07  9.4603685983539409e-07 
 9.7095740187228433e-07  9.9653442980913644e-07  1.0227852390530955e-06  1.0497275807459880e-06 
 1.0773796737772085e-06  1.1057602171134781e-06  1.1348884024538561e-06  1.1647839272185810e-06 
 1.1954670078805921e-06  1.2269583936487637e-06  1.2592793805121241e-06  1.2924518256546741e-06 
 1.3264981622505071e-06  1.3614414146493440e-06  1.3973052139627928e-06  1.4341138140619057e-06 
 1.4718921079969136e-06  1.5106656448503439e-06  1.5504606470349256e-06  1.5913040280480248e-06 
 1.6332234106948250e-06  1.6762471457924573e-06  1.7204043313679621e-06  1.7657248323630470e-06 
 1.8122393008591187e-06  1.8599791968363276e-06  1.9089768094807487e-06  1.9592652790542257e-06 
 2.0108786193417784e-06  2.0638517406918596e-06  2.1182204736651525e-06  2.1740215933080317e-06 
 2.2312928440672604e-06  2.2900729653628367e-06  2.3504017178365540e-06  2.4123199102940490e-06 
 2.4758694273588053e-06  2.5410932578569361e-06  2.6080355239521888e-06  2.6767415110509855e-06 
 2.7472576984979622e-06  2.8196317910830083e-06  2.8939127513812687e-06  2.9701508329482677e-06 
 3.0483976143928339e-06  3.1287060343511581e-06  3.2111304273858015e-06  3.2957265608344429e-06 
 3.3825516726333363e-06  3.4716645101415565e-06  3.5631253699925713e-06  3.6569961390004620e-06 
 3.7533403361487685e-06  3.8522231556909472e-06  3.9537115113916899e-06  4.0578740819398229e-06 
 4.1647813575636881e-06  4.2745056878812060e-06  4.3871213310173933e-06  4.5027045040231032e-06 
 4.6213334346297369e-06  4.7430884143755177e-06  4.8680518531398161e-06  4.9963083351231545e-06 
 5.1279446763114408e-06  5.2630499834641419e-06  5.4017157146668474e-06  5.5440357414902666e-06 
 5.6901064127983759e-06  5.8400266202500073e-06  5.9938978655388448e-06  6.1518243294187068e-06 
 6.3139129425616002e-06  6.4802734582976182e-06  6.6510185272873571e-06  6.8262637741782838e-06 
 7.0061278762984237e-06  7.1907326444419402e-06  7.3802031058028015e-06  7.5746675891140824e-06 
 7.7742578120521706e-06  7.9791089709668658e-06  8.1893598329995470e-06  8.4051528306541311e-06 
 8.6266341588864057e-06  8.8539538747796324e-06  9.0872659998763033e-06  9.3267286252374851e-06 
 9.5725040193031841e-06  9.8247587386297076e-06  1.0083663741581271e-05  1.0349394505055949e-05 
 1.0622131144328088e-05  1.0902058536091266e-05  1.1189366444788504e-05  1.1484249652319016e-05 
 1.1786908091212852e-05  1.2097546981367512e-05  1.2416376970443382e-05  1.2743614278017500e-05 
 1.3079480843597454e-05  1.3424204478601134e-05  1.3778019022409845e-05  1.4141164502605996e-05 
 1.4513887299509793e-05  1.4896440315131926e-05  1.5289083146663571e-05  1.5692082264627176e-05 
 1.6105711195816478e-05  1.6530250711156191e-05  1.6965989018617472e-05  1.7413221961326981e-05 
 1.7872253221013118e-05  1.8343394526936152e-05  1.8826965870453597e-05  1.9323295725375805e-05 
 1.9832721274272685e-05  2.0355588640895180e-05  2.0892253128881651e-05  2.1443079466923084e-05 
 2.2008442060566487e-05  2.2588725250841141e-05  2.3184323579897635e-05  2.3795642063855071e-05 
 2.4423096473058078e-05  2.5067113619950449e-05  2.5728131654778562e-05  2.6406600369344707e-05 
 2.7102981509036013e-05  2.7817749093361740e-05  2.8551389745239064e-05  2.9304403029273433e-05 
 3.0077301799289353e-05  3.0870612555371472e-05  3.1684875810688150e-05  3.2520646468372927e-05 
 3.3378494208752675e-05  3.4259003887216312e-05  3.5162775943028682e-05  3.6090426819402496e-05 
 3.7042589395152227e-05  3.8019913428262501e-05  3.9023066011714570e-05  4.0052732041924619e-05 
 4.1109614700159638e-05  4.2194435947305622e-05  4.3307937032379366e-05  4.4450879015180742e-05 
 4.5624043303501649e-05  4.6828232205315651e-05  4.8064269496390142e-05  4.9333001003773138e-05 
 5.0635295205623935e-05  5.1972043847872297e-05  5.3344162578202578e-05  5.4752591597881794e-05 
 5.6198296331960685e-05  5.7682268118400787e-05  5.9205524916690782e-05  6.0769112036544457e-05 
 6.2374102887282376e-05  6.4021599748523742e-05  6.5712734562838626e-05  6.7448669751026322e-05 
 6.9230599050715106e-05  7.1059748378995370e-05  7.2937376719828885e-05  7.4864777036996101e-05 
 7.6843277213378483e-05  7.8874241017388262e-05  8.0959069097399753e-05  8.3099200005054224e-05 
 8.5296111248349892e-05  8.7551320375457746e-05  8.9866386090235517e-05  9.2242909400447296e-05 
 9.4682534799739486e-05  9.7186951484450271e-05  9.9757894606375646e-05  1.0239714656266202e-04 
 1.0510653832402116e-04  1.0788795080252618e-04  1.1074331626028361e-04  1.1367461976032819e-04 
 1.1668390066113326e-04  1.1977325415619164e-04  1.2294483286016920e-04  1.2620084844318938e-04 
 1.2954357331488317e-04  1.3297534235987040e-04  1.3649855472644355e-04  1.4011567567026096e-04 
 1.4382923845494182e-04  1.4764184631153813e-04  1.5155617445891374e-04  1.5557497218717458e-04 
 1.5970106500634609e-04  1.6393735686261339e-04  1.6828683242451535e-04  1.7275255944158586e-04 
 1.7733769117805138e-04  1.8204546892427605e-04  1.8687922458878755e-04  1.9184238337382098e-04 
 1.9693846653743441e-04  2.0217109424540723e-04  2.0754398851623602e-04  2.1306097626271761e-04 
 2.1872599243373211e-04  2.2454308326002521e-04  2.3051640960792757e-04  2.3665025044514537e-04 
 2.4294900642292535e-04  2.4941720357910435e-04  2.5605949716673871e-04  2.6288067561323631e-04 
 2.6988566461513320e-04  2.7707953137388620e-04  2.8446748897831633e-04  2.9205490093957070e-04 
 2.9984728588478021e-04  3.0785032241585077e-04  3.1606985414013372e-04  3.2451189488005806e-04 
 3.3318263406912328e-04  3.4208844234201447e-04  3.5123587732697331e-04  3.6063168964895978e-04 
 3.7028282915253688e-04  3.8019645135386841e-04  3.9037992413164582e-04  4.0084083466731282e-04 
 4.1158699664536923e-04  4.2262645772517558e-04  4.3396750729617431e-04  4.4561868452908852e-04 
 4.5758878673627133e-04  4.6988687805504635e-04  4.8252229846860306e-04  4.9550467317972867e-04 
 5.0884392235346588e-04  5.2255027124559878e-04  5.3663426073474719e-04  5.5110675827679616e-04 
 5.6597896930129545e-04  5.8126244907059346e-04  5.9696911502344989e-04  6.1311125962610410e-04 
 6.2970156375493226e-04  6.4675311063610967e-04  6.6427940036910239e-04  6.8229436506213412e-04 
 7.0081238460936832e-04  7.1984830314110156e-04  7.3941744617992094e-04  7.5953563853756276e-04 
 7.8021922298912138e-04  8.0148507976311072e-04  8.2335064688812405e-04  8.4583394143887330e-04 
 8.6895358172682350e-04  8.9272881048299546e-04  9.1717951908319424e-04  9.4232627286847635e-04 
 9.6819033761671319e-04  9.9479370722402359e-04  1.0221591326580175e-03  1.0503101522482336e-03 
 1.0792711233826508e-03  1.1090672556827879e-03  1.1397246457339988e-03  1.1712703134515595e-03 
 1.2037322401675138e-03  1.2371394085278133e-03  1.2715218442941416e-03  1.3069106601497544e-03 
 1.3433381016140240e-03  1.3808375951759962e-03  1.4194437987628690e-03  1.4591926546657491e-03 
 1.5001214450512486e-03  1.5422688501942044e-03  1.5856750095738989e-03  1.6303815859834499e-03 
 1.6764318328099585e-03  1.7238706646505557e-03  1.7727447314383647e-03  1.8231024962609085e-03 
 1.8749943170625354e-03  1.9284725324320907e-03  1.9835915516867213e-03  2.0404079494730316e-03 
 2.0989805651174791e-03  2.1593706069685994e-03  2.2216417619854417e-03  2.2858603108378175e-03 
 2.3520952487965218e-03  2.4204184127038595e-03  2.4909046143276078e-03  2.5636317804147335e-03 
 2.6386810997746620e-03  2.7161371777353811e-03  2.7960881983297055e-03  2.8786260945832813e-03 
 2.9638467272900806e-03  3.0518500726753797e-03  3.1427404193615132e-03  3.2366265750651216e-03 
 3.3336220834699185e-03  3.4338454517329384e-03  3.5374203890964663e-03  3.6444760570916355e-03 
 3.7551473318328892e-03  3.8695750789158470e-03  3.9879064414423257e-03  4.1102951417091695e-03 
 4.2369017971063665e-03  4.3678942507804491e-03  4.5034479176273472e-03  4.6437461461843604e-03 
 4.7889805969977325e-03  4.9393516380442709e-03  5.0950687577872179e-03  5.2563509964458658e-03 
 5.4234273960541302e-03  5.5965374698787257e-03  5.7759316917566621e-03  5.9618720059013914e-03 
 6.1546323577102435e-03  6.3544992460872309e-03  6.5617722977728268e-03  6.7767648641441627e-03 
 6.9998046409192587e-03  7.2312343111632180e-03  7.4714122119539893e-03  7.7207130250214299e-03 
 7.9795284916242444e-03  8.2482681518757078e-03  8.5273601086713890e-03  8.8172518163095355e-03 
 9.1184108938282254e-03  9.4313259630139437e-03  9.7565075109618607e-03  1.0094488776992800e-02 
 1.0445826663653509e-02  1.0811102671447817e-02  1.1190923856866528e-02  1.1585923813206576e-02 
 1.1996763673593952e-02  1.2424133135553064e-02  1.2868751506399660e-02  1.3331368768677630e-02 
 1.3812766664810358e-02  1.4313759800103682e-02  1.4835196763215715e-02  1.5377961263207575e-02 
 1.5942973282305352e-02  1.6531190243546660e-02  1.7143608192552430e-02  1.7781262992763204e-02 
 1.8445231533607456e-02  1.9136632951241805e-02  1.9856629861696191e-02  2.0606429606514026e-02 
 2.1387285511253552e-02  2.2200498157549445e-02  2.3047416669804713e-02  2.3929440017995105e-02 
 2.4848018338518428e-02  2.5804654275509657e-02  2.6800904345552309e-02  2.7838380329258599e-02 
 2.8918750693721143e-02  3.0043742050395054e-02  3.1215140653466238e-02  3.2434793944249085e-02 
 3.3704612147557586e-02  3.5026569926302528e-02  3.6402708100750081e-02  3.7835135438893608e-02 
 3.9326030524191355e-02  4.0877643706473336e-02  4.2492299141069917e-02  4.4172396920089195e-02 
 4.5920415298240612e-02  4.7738913013582532e-02  4.9630531701019012e-02  5.1597998393215404e-02 
 5.3644128099784853e-02  5.5771826451076284e-02  5.7984092387607621e-02  6.0284020870109867e-02 
 6.2674805578268766e-02  6.5159741558545037e-02  6.7742227772965319e-02  7.0425769491553145e-02 
 7.3213980461185310e-02  7.6110584773254733e-02  7.9119418341744518e-02  8.2244429892414386e-02 
 8.5489681353014907e-02  8.8859347524114271e-02  9.2357714900653684e-02  9.5989179506138639e-02 
 9.9758243594986404e-02  1.0366951107448763e-01  1.0772768149672118e-01  1.1193754247320480e-01 
 1.1630396037169852e-01  1.2083186916601910e-01  1.2552625732655734e-01  1.3039215266189289e-01 
 1.3543460505086313e-01  1.4065866703986274e-01  1.4606937232199607e-01  1.5167171216272374e-01 
 1.5747060989014300e-01  1.6347089362607414e-01  1.6967726749515250e-01  1.7609428161126064e-01 
 1.8272630120137845e-01  1.8957747528327129e-01  1.9665170536195531e-01  2.0395261464653774e-01 
 2.1148351830959858e-01  2.1924739531119733e-01  2.2724686228434421e-01  2.3548414992408059e-01 
 2.4396108223443622e-01  2.5267905886370190e-01  2.6163904059726018e-01  2.7084153787911047e-01 
 2.8028660200097211e-01  2.8997381833705171e-01  2.9990230072208729e-01  3.1007068578254232e-01 
 3.2047712575206838e-01  3.3111927805252722e-01  3.4199428972440449e-01  3.5309877467144457e-01 
 3.6442878167178439e-01  3.7597975122959693e-01  3.8774645962347110e-01  3.9972294897199068e-01 
 4.1190244279748572e-01  4.2427724742915113e-01  4.3683864063597699e-01  4.4957675009004833e-01 
 4.6248042558315794e-01  4.7553711028351975e-01  4.8873271763078385e-01  5.0205152161111277e-01 
 5.1547606899636367e-01  5.2898712252781266e-01  5.4256364382927058e-01  5.5618282391272666e-01 
 5.6982016738590335e-01  5.8344963382640502e-01  5.9704383626027335e-01  6.1057429236931937e-01 
 6.2401171915167286e-01  6.3732635658912407e-01  6.5048830086632003e-01  6.6346782338163524e-01 
 6.7623564880971887e-01  6.8876316448060249e-01  7.0102253496204026e-01  7.1298670049375679e-01 
 7.2462924614197022e-01  7.3592414022799535e-01  7.4684535533473206e-01  7.5736640211828532e-01 
 7.6745982382352174e-01  7.7709671587525597e-01  7.8624634780962799e-01  7.9487597148461409e-01 
 8.0295089734288583e-01  8.1043490725426304e-01  8.1729104671518571e-01  8.2348280078404501e-01 
 8.2897560864694231e-01  8.3373861472484656e-01  8.3774649546997726e-01  8.4098114812301439e-01 
 8.4343298976666392e-01  8.4510160148430435e-01  8.4599547183702484e-01  8.4613065212884830e-01 
 8.4552823460088855e-01  8.4421069941011184e-01  8.4219733566368038e-01  8.3949910745549272e-01 
 8.3611348338740832e-01  8.3202860115885735e-01  8.2725412265084441e-01  8.2180757148760342e-01 
 8.1570742484140879e-01  8.0897306097399813e-01  8.0162470556531185e-01  7.9368337704318748e-01 
 7.8517083113036057e-01  7.7610950482412755e-01  7.6652246001939051e-01  7.5643332697772170e-01 
 7.4586624783369526e-01  7.3484582031511203e-01  7.2339704183593367e-01  7.1154525409961966e-01 
 6.9931608832598668e-01  6.8673541118642656e-01  6.7382927150015914e-01  6.6062384770790561e-01 
 6.4714539609913913e-01  6.3342019972517472e-01  6.1947451788376751e-01  6.0533453601320808e-01 
 5.9102631578757603e-01  5.7657574516331722e-01  5.6200848809513670e-01  5.4734993362166129e-01 
 5.3262514402441663e-01  5.1785880179323351e-01  5.0307515519245283e-01  4.8829796231856393e-01 
 4.7355043367176936e-01  4.5885517342835336e-01  4.4423411979019345e-01  4.2970848499068048e-01 
 4.1529869573739436e-01  4.0102433505353735e-01  3.8690408662455966e-01  3.7295568284757458e-01 
 3.5919585780719049e-01  3.4564030635598542e-01  3.3230365036128362e-01  3.1919941299886134e-01 
 3.0634000174087167e-01  2.9373670041568073e-01  2.8139967042942282e-01  2.6933796095091050e-01 
 2.5755952758949746e-01  2.4607125885330072e-01  2.3487900947327084e-01  2.2398763952393885e-01 
 2.1340105816807420e-01  2.0312227080097175e-01  1.9315342836935925e-01  1.8349587768678607e-01 
 1.7415021165708111e-01  1.6511631844393465e-01  1.5639342878056953e-01  1.4798016079048512e-01 
 1.3987456187922342e-01  1.3207414744839960e-01  1.2457593636723194e-01  1.1737648330446039e-01 
 1.1047190816702776e-01  1.0385792300518527e-01  9.7529856822989008e-02  9.1482678777178666e-02 
 8.5711020257346532e-02  8.0209196319486725e-02  7.4971226898566612e-02  6.9990858159904121e-02 
 6.5261584270569092e-02  6.0776669787300577e-02  5.6529172772483101e-02  5.2511968669470652e-02 
 4.8717774896744045e-02  4.5139176059553067e-02  4.1768649629188463e-02  3.8598591904212790e-02 
 3.5621344044414173e-02  3.2829217955910227e-02  3.0214521803322483e-02  2.7769584930669802e-02 
 2.5486781984943269e-02  2.3358556053636747e-02  2.1377440648352942e-02  1.9536080389703121e-02 
 1.7827250272973494e-02  1.6243873418550315e-02  1.4779037235168716e-02  1.3426007947135759e-02 
 1.2178243458383264e-02  1.1029404546258293e-02  9.9733643961909431e-03  9.0042165047010975e-03 
 8.1162809925933443e-03  7.3041093826643122e-03  6.5624879068667975e-03  5.8864394167218587e-03 
 5.2712239779426108e-03  4.7123382358403585e-03  4.2055136422398855e-03  3.7467136374533983e-03 
 3.3321298824683897e-03  2.9581776370088014e-03  2.6214903786432901e-03  2.3189137567471252e-03 
 2.0474989729794661e-03  1.8044956771144914e-03  1.5873444636580187e-03  1.3936690507804687e-03 
 1.2212682187873714e-03  1.0681075807102858e-03  9.3231125270917760e-04  8.1215348690249762e-04 
 7.0605032404886386e-04  6.1255131825505330e-04  5.3033138063464250e-04  4.5818278364087421e-04 
 3.9500736269207441e-04  3.3980894673913819e-04  2.9168604462838013e-04  2.4982480952072058e-04 
 2.1349229926632640e-04  1.8203004652446258e-04  1.5484794857896595e-04  1.3141848324363264e-04 
 1.1127125398809015e-04  9.3987864448611278e-05  7.9197119821467426e-05  6.6570550267051632e-05 
 5.5818249376295987e-05  4.6685018959262428e-05  3.8946809899118917e-05  3.2407447560818596e-05 
 2.6895629238631170e-05  2.2262180354717188e-05  1.8377555565470598e-05  1.5129570575825374e-05 
 1.2421350285988248e-05  1.0169478881708467e-05  8.3023376097929487e-06  6.7586162369077618e-06 
 5.4859845540078496e-06  4.4399107438719257e-06  3.5826139588580264e-06  2.8821390447487738e-06 
 2.3115419800901087e-06  1.8481752655502712e-06  1.4730631825440596e-06  1.1703575339239540e-06 
 9.2686517242417954e-07  7.3163930648533704e-07  5.7562724102411648e-07  4.5136785674998346e-07 
 3.5273275098007941e-07  2.7470555181393170e-07  2.1319447320775886e-07  1.6487370562544451e-07 
 1.2704975296110067e-07  9.7549004725761344e-08  7.4623873660450551e-08  5.6874518287832545e-08 
 4.3183860411911771e-08  3.2663859811684454e-08  2.4611273568010920e-08  1.8471372762684106e-08 
 1.3808306750647924e-08  1.0280996932291651e-08  7.6236100701885438e-09  5.6298078160142329e-09 
 4.1400963022126695e-09  3.0317093965373606e-09  2.2105534055910505e-09  1.6048214223644815e-09 
 1.1599537949999034e-09  8.3467887173593983e-10  5.9791663953279677e-10  4.2636837832559000e-10 
 3.0264912735801416e-10  2.1384760918074904e-10  1.5042116866543215e-10  1.0535203849899813e-10 
 7.3506519745411625e-11  5.1151057842726970e-11  0.0000000000000000e+00  0.0000000000000000e+00 
 0.0000000000000000e+00  0.0000000000000000e+00  0.0000000000000000e+00  0.0000000000000000e+00 
 0.0000000000000000e+00  0.0000000000000000e+00  0.0000000000000000e+00  0.0000000000000000e+00 
 0.0000000000000000e+00  0.0000000000000000e+00  0.0000000000000000e+00  0.0000000000000000e+00 
 0.0000000000000000e+00  0.0000000000000000e+00  0.0000000000000000e+00  0.0000000000000000e+00 
 0.0000000000000000e+00  0.0000000000000000e+00  0.0000000000000000e+00  0.0000000000000000e+00 
 0.0000000000000000e+00  0.0000000000000000e+00  0.0000000000000000e+00  0.0000000000000000e+00 
 0.0000000000000000e+00  0.0000000000000000e+00  0.0000000000000000e+00  0.0000000000000000e+00 
 0.0000000000000000e+00  0.0000000000000000e+00  0.0000000000000000e+00  0.0000000000000000e+00 
 0.0000000000000000e+00  0.0000000000000000e+00  0.0000000000000000e+00  0.0000000000000000e+00 
 0.0000000000000000e+00  0.0000000000000000e+00  0.0000000000000000e+00  0.0000000000000000e+00 
 0.0000000000000000e+00  0.0000000000000000e+00  0.0000000000000000e+00  0.0000000000000000e+00 
 0.0000000000000000e+00  0.0000000000000000e+00  0.0000000000000000e+00  0.0000000000000000e+00 
 0.0000000000000000e+00  0.0000000000000000e+00  0.0000000000000000e+00  0.0000000000000000e+00 
 0.0000000000000000e+00  0.0000000000000000e+00  0.0000000000000000e+00  0.0000000000000000e+00 
 0.0000000000000000e+00  0.0000000000000000e+00  0.0000000000000000e+00  0.0000000000000000e+00 
 0.0000000000000000e+00  0.0000000000000000e+00  0.0000000000000000e+00  0.0000000000000000e+00 
 0.0000000000000000e+00  0.0000000000000000e+00  0.0000000000000000e+00  0.0000000000000000e+00 
 0.0000000000000000e+00  0.0000000000000000e+00  0.0000000000000000e+00  0.0000000000000000e+00 
 0.0000000000000000e+00  0.0000000000000000e+00  0.0000000000000000e+00  0.0000000000000000e+00 
 0.0000000000000000e+00  0.0000000000000000e+00  0.0000000000000000e+00  0.0000000000000000e+00 
 0.0000000000000000e+00  0.0000000000000000e+00  0.0000000000000000e+00  0.0000000000000000e+00 
 0.0000000000000000e+00  0.0000000000000000e+00  0.0000000000000000e+00  0.0000000000000000e+00 
 0.0000000000000000e+00  0.0000000000000000e+00  0.0000000000000000e+00  0.0000000000000000e+00 
 0.0000000000000000e+00  0.0000000000000000e+00  0.0000000000000000e+00  0.0000000000000000e+00 
 0.0000000000000000e+00  0.0000000000000000e+00  0.0000000000000000e+00  0.0000000000000000e+00 
 0.0000000000000000e+00  0.0000000000000000e+00  0.0000000000000000e+00  0.0000000000000000e+00 
 0.0000000000000000e+00  0.0000000000000000e+00  0.0000000000000000e+00  0.0000000000000000e+00 
 0.0000000000000000e+00  0.0000000000000000e+00  0.0000000000000000e+00  0.0000000000000000e+00 
 0.0000000000000000e+00  0.0000000000000000e+00  0.0000000000000000e+00  0.0000000000000000e+00 
 0.0000000000000000e+00  0.0000000000000000e+00  0.0000000000000000e+00  0.0000000000000000e+00 
 0.0000000000000000e+00  0.0000000000000000e+00  0.0000000000000000e+00  0.0000000000000000e+00 
 0.0000000000000000e+00  0.0000000000000000e+00  0.0000000000000000e+00  0.0000000000000000e+00 
 0.0000000000000000e+00  0.0000000000000000e+00  0.0000000000000000e+00  0.0000000000000000e+00 
 0.0000000000000000e+00  0.0000000000000000e+00  0.0000000000000000e+00 
D    2   0.00          Wavefunction
 9.3468142546340846e-15  9.7185415779418265e-15  1.0105052676670914e-14  1.0506935508719196e-14 
 1.0924801415354405e-14  1.1359286051182132e-14  1.1811050351098977e-14  1.2280781535701986e-14 
 1.2769194156683640e-14  1.3277031183802766e-14  1.3805065135084710e-14  1.4354099251970283e-14 
 1.4924968721200734e-14  1.5518541945297880e-14  1.6135721863571727e-14  1.6777447325665212e-14 
 1.7444694519725539e-14  1.8138478457374508e-14  1.8859854517736927e-14  1.9609920052875611e-14 
 2.0389816057075567e-14  2.1200728902516143e-14  2.2043892143971864e-14  2.2920588395287086e-14 
 2.3832151280478837e-14  2.4779967462436125e-14  2.5765478752301459e-14  2.6790184302743542e-14 
 2.7855642888457579e-14  2.8963475277361945e-14  3.0115366696098717e-14  3.1313069393588294e-14 
 3.2558405306537759e-14  3.3853268830957799e-14  3.5199629703904298e-14  3.6599535999828115e-14 
 3.8055117246091129e-14  3.9568587662387725e-14  4.1142249529000146e-14  4.2778496689010194e-14 
 4.4479818189796385e-14  4.6248802069354612e-14  4.8088139293202831e-14  5.0000627847858615e-14 
 5.1989176997115607e-14  5.4056811707594864e-14  5.6206677250302195e-14  5.8442043985191452e-14 
 6.0766312336012675e-14  6.3183017963011942e-14  6.5695837141352210e-14  6.8308592353436560e-14 
 7.1025258103640618e-14  7.3849966964300026e-14  7.6787015862149436e-14  7.9840872614776240e-14 
 8.3016182727032716e-14  8.6317776457744077e-14  8.9750676167463041e-14  9.3320103958448822e-14 
 9.7031489618490926e-14  1.0089047888066295e-13  1.0490294201157111e-13  1.0907498274116097e-13 
 1.1341294754766716e-13  1.1792343531183049e-13  1.2261330735506706e-13  1.2748969787686059e-13 
 1.3256002480725531e-13  1.3783200109095697e-13  1.4331364642020872e-13  1.4901329943428826e-13 
 1.5493963040418577e-13  1.6110165442175701e-13  1.6750874511341566e-13  1.7417064889922584e-13 
 1.8109749981908501e-13  1.8829983494855236e-13  1.9578861042777173e-13  2.0357521812787111e-13 
 2.1167150298019602e-13  2.2008978099473100e-13  2.2884285799512617e-13  2.3794404909882116e-13 
 2.4740719897190654e-13  2.5724670288952848e-13  2.6747752863387498e-13  2.7811523926305975e-13 
 2.8917601678553062e-13  3.0067668677602410e-13  3.1263474397050580e-13  3.2506837887903684e-13 
 3.3799650545704255e-13  3.5143878987708633e-13  3.6541568044490543e-13  3.7994843870522499e-13 
 3.9505917178466516e-13  4.1077086602093963e-13  4.2710742192950447e-13  4.4409369056084831e-13 
 4.6175551130372758e-13  4.8011975119185532e-13  4.9921434577383665e-13  5.1906834160852136e-13 
 5.3971194045041313e-13  5.6117654519236213e-13  5.8349480763540920e-13  6.0670067815847145e-13 
 6.3082945736340352e-13  6.5591784977402083e-13  6.8200401967074363e-13  7.0912764914582453e-13 
 7.3732999846745551e-13  7.6665396884457903e-13  7.9714416768789783e-13  8.2884697646633124e-13 
 8.6181062126217235e-13  8.9608524613223973e-13  9.3172298938665347e-13  9.6877806290124008e-13 
 1.0073068345842435e-12  1.0473679141227670e-12  1.0890222421393925e-12  1.1323331828946100e-12 
 1.1773666206760510e-12  1.2241910600211912e-12  1.2728777299259286e-12  1.3235006921976156e-12 
 1.3761369541173180e-12  1.4308665855827288e-12  1.4877728409098908e-12  1.5469422854790412e-12 
 1.6084649274172271e-12  1.6724343545179885e-12  1.7389478766064201e-12  1.8081066735661318e-12 
 1.8800159492533479e-12  1.9547850915322058e-12  2.0325278386747681e-12  2.1133624523788192e-12 
 2.1974118976666623e-12  2.2848040299386027e-12  2.3756717894655976e-12  2.4701534036170079e-12 
 2.5683925971310149e-12  2.6705388107476132e-12  2.7767474285367153e-12  2.8871800142672393e-12 
 3.0020045571766720e-12  3.1213957275150147e-12  3.2455351422518500e-12  3.3746116413506659e-12 
 3.5088215750307916e-12  3.6483691024538180e-12  3.7934665022889703e-12  3.9443344956297829e-12 
 4.1012025817533014e-12  4.2643093872326624e-12  4.4339030289339503e-12  4.6102414914496735e-12 
 4.7935930195429280e-12  4.9842365261992162e-12  5.1824620169067628e-12  5.3885710308105610e-12 
 5.6028770994113806e-12  5.8257062235074169e-12  6.0573973691041681e-12  6.2983029830468425e-12 
 6.5487895291597258e-12  6.8092380457080690e-12  7.0800447250304382e-12  7.3616215162234190e-12 
 7.6543967517952460e-12  7.9588157992418573e-12  8.2753417385362868e-12  8.6044560665622917e-12 
 8.9466594295635104e-12  9.3024723847224590e-12  9.6724361920279755e-12  1.0057113637635451e-11 
 1.0457089889972633e-11  1.0872973389893014e-11  1.1305396776231113e-11  1.1755017848167426e-11 
 1.2222520565867198e-11  1.2708616090914938e-11  1.3214043868127533e-11  1.3739572750391579e-11 
 1.4286002168235907e-11  1.4854163345918704e-11  1.5444920565878820e-11  1.6059172483474933e-11 
 1.6697853494012420e-11  1.7361935154137664e-11  1.8052427659761629e-11  1.8770381382761279e-11 
 1.9516888468796212e-11  2.0293084498671175e-11  2.1100150215771810e-11  2.1939313322201103e-11 
 2.2811850346349125e-11  2.3719088584736718e-11  2.4662408121087337e-11  2.5643243925698046e-11 
 2.6663088038303578e-11  2.7723491837753756e-11  2.8826068401956910e-11  2.9972494961679656e-11 
 3.1164515451934646e-11  3.2403943164838866e-11  3.3692663507976591e-11  3.5032636872464134e-11 
 3.6425901615078433e-11  3.7874577158986246e-11  3.9380867217790697e-11  4.0947063147799322e-11 
 4.2575547433613588e-11  4.4268797312341418e-11  4.6029388541946336e-11  4.7859999319465143e-11 
 4.9763414355055314e-11  5.1742529108068232e-11  5.3800354191593204e-11  5.5940019952172115e-11 
 5.8164781231650318e-11  6.0478022318409777e-11  6.2883262095512984e-11  6.5384159393592144e-11 
 6.7984518556623565e-11  7.0688295229056233e-11  7.3499602373096049e-11  7.6422716525299778e-11 
 7.9462084301996821e-11  8.2622329163432835e-11  8.5908258446927759e-11  8.9324870679743205e-11 
 9.2877363182787027e-11  9.6571139976718350e-11  1.0041182000248336e-10  1.0440524566878292e-10 
 1.0855749173947718e-10  1.1287487457444523e-10  1.1736396173795618e-10  1.2203158198917067e-10 
 1.2688483566996567e-10  1.3193110550588830e-10  1.3717806783666629e-10  1.4263370429336066e-10 
 1.4830631393992178e-10  1.5420452589761984e-10  1.6033731247155210e-10  1.6671400279919635e-10 
 1.7334429704177199e-10  1.8023828113999484e-10  1.8740644215667463e-10  1.9485968422948920e-10 
 2.0260934515820968e-10  2.1066721365160059e-10  2.1904554726023656e-10  2.2775709102251136e-10 
 2.3681509685220316e-10  2.4623334369709106e-10  2.5602615849928282e-10  2.6620843798914180e-10 
 2.7679567134596183e-10  2.8780396375986680e-10  2.9925006093076899e-10  3.1115137454165843e-10 
 3.2352600874497146e-10  3.3639278770232675e-10  3.4977128421952382e-10  3.6368184952036139e-10 
 3.7814564420456737e-10  3.9318467043692786e-10  4.0882180541659056e-10  4.2508083617744382e-10 
 4.4198649577251332e-10  4.5956450089742065e-10  4.7784159101012921e-10  4.9684556900649230e-10 
 5.1660534351347081e-10  5.3715097286435909e-10  5.5851371082290817e-10  5.8072605412590938e-10 
 6.0382179191654274e-10  6.2783605714370119e-10  6.5280538000546812e-10  6.7876774351804111e-10 
 7.0576264129464542e-10  7.3383113762230991e-10  7.6301592992790075e-10  7.9336141372842853e-10 
 8.2491375016444067e-10  8.5772093621920274e-10  8.9183287773050469e-10  9.2730146530614730e-10 
 9.6418065325857077e-10  1.0025265416787328e-09  1.0423974617740386e-09  1.0838540646001650e-09 
 1.1269594133217349e-09  1.1717790791421977e-09  1.2183812410488208e-09  1.2668367895245299e-09 
 1.3172194343843528e-09  1.3696058169004951e-09  1.4240756263866216e-09  1.4807117214186600e-09 
 1.5396002558765279e-09  1.6008308099985117e-09  1.6644965266476604e-09  1.7306942529974100e-09 
 1.7995246878520616e-09  1.8710925348261049e-09  1.9455066616154464e-09  2.0228802656027895e-09 
 2.1033310460490917e-09  2.1869813831329823e-09  2.2739585241105217e-09  2.3643947768784447e-09 
 2.4584277112352868e-09  2.5562003681466337e-09  2.6578614773326715e-09  2.7635656835091003e-09 
 2.8734737816255157e-09  2.9877529614590727e-09  3.1065770619354748e-09  3.2301268355641545e-09 
 3.3585902233898397e-09  3.4921626408787221e-09  3.6310472751741647e-09  3.7754553941739555e-09 
 3.9256066678993441e-09  4.0817295026446366e-09  4.2440613884156287e-09  4.4128492601853010e-09 
 4.5883498735163471e-09  4.7708301951218089e-09  4.9605678089578376e-09  5.1578513384664523e-09 
 5.3629808856102655e-09  5.5762684873671771e-09  5.7980385903792947e-09  6.0286285444780281e-09 
 6.2683891158360240e-09  6.5176850205264362e-09  6.7768954793011666e-09  7.0464147944316506e-09 
 7.3266529494900004e-09  7.6180362329822147e-09  7.9210078867824689e-09  8.2360287803544366e-09 
 8.5635781117852931e-09  8.9041541366985174e-09  9.2582749261542855e-09  9.6264791546900340e-09 
 1.0009326919699800e-08  1.0407400593398818e-08  1.0821305708668689e-08  1.1251671880130796e-08 
 1.1699153761848766e-08  1.2164432043116496e-08  1.2648214483846245e-08  1.3151236991131664e-08 
 1.3674264738622890e-08  1.4218093330416176e-08  1.4783550011228554e-08  1.5371494924697419e-08 
 1.5982822421719240e-08  1.6618462420816978e-08  1.7279381822605190e-08  1.7966585980503818e-08 
 1.8681120229937670e-08  1.9424071478346946e-08  2.0196569858426801e-08  2.0999790447110893e-08 
 2.1834955052912029e-08  2.2703334074339012e-08  2.3606248432215260e-08  2.4545071578838217e-08 
 2.5521231587034591e-08  2.6536213322288590e-08  2.7591560701246290e-08  2.8688879040030156e-08 
 2.9829837495935919e-08  3.1016171606223488e-08  3.2249685927863438e-08  3.3532256782252861e-08 
 3.4865835109074497e-08  3.6252449433638312e-08  3.7694208952218445e-08  3.9193306740076235e-08 
 4.0752023087047621e-08  4.2372728965767701e-08  4.4057889637804379e-08  4.5810068403185817e-08 
 4.7631930499021881e-08  4.9526247153148075e-08  5.1495899798954984e-08  5.3543884457811543e-08 
 5.5673316295745927e-08  5.7887434361310870e-08  6.0189606511838900e-08  6.2583334535574637e-08 
 6.5072259477473361e-08  6.7660167176762325e-08  7.0350994024683212e-08  7.3148832951169614e-08 
 7.6057939649560433e-08  7.9082739048812471e-08  8.2227832043050237e-08  8.5498002488685636e-08 
 8.8898224479740878e-08  9.2433669912436341e-08  9.6109716350541495e-08  9.9931955203444734e-08 
 1.0390620022937266e-07  1.0803849637668512e-07  1.1233512897668280e-07  1.1680263330190009e-07 
 1.2144780450441391e-07  1.2627770794926806e-07  1.3129968995872372e-07  1.3652138898366070e-07 
 1.4195074721911163e-07  1.4759602268157720e-07  1.5346580176648027e-07  1.5956901230483877e-07 
 1.6591493713899877e-07  1.7251322823806127e-07  1.7937392137444373e-07  1.8650745138388397e-07 
 1.9392466803206959e-07  2.0163685251200181e-07  2.0965573459715769e-07  2.1799351047651293e-07 
 2.2666286129852027e-07  2.3567697245221335e-07  2.4504955361473274e-07  2.5479485959572009e-07 
 2.6492771201024988e-07  2.7546352181321565e-07  2.8641831272940083e-07  2.9780874561482066e-07 
 3.0965214378633326e-07  3.2196651935799164e-07  3.3477060062412615e-07  3.4808386053075572e-07 
 3.6192654627854464e-07  3.7631971010226597e-07  3.9128524127350789e-07  4.0684589937520618e-07 
 4.2302534889853002e-07  4.3984819521463527e-07  4.5734002197590341e-07  4.7552743000342770e-07 
 4.9443807771979455e-07  5.1410072318850788e-07  5.3454526782387455e-07  5.5580280183768629e-07 
 5.7790565149166045e-07  6.0088742822734879e-07  6.2478307974805806e-07  6.4962894313029024e-07 
 6.7546280004527082e-07  7.0232393417436463e-07  7.3025319090543687e-07  7.5929303940074106e-07 
 7.8948763713045659e-07  8.2088289696975039e-07  8.5352655696111531e-07  8.8746825284776680e-07 
 9.2275959348808055e-07  9.5945423926538135e-07  9.9760798361200464e-07  1.0372788377711322e-06 
 1.0785271189249344e-06  1.1214155418225462e-06  1.1660093140467408e-06  1.2123762350636502e-06 
 1.2605867992055918e-06  1.3107143027430287e-06  1.3628349552078131e-06  1.4170279951363797e-06 
 1.4733758104081046e-06  1.5319640633610904e-06  1.5928818208747923e-06  1.6562216896164063e-06 
 1.7220799566557500e-06  1.7905567356614333e-06  1.8617561188995617e-06  1.9357863352649153e-06 
 2.0127599145837642e-06  2.0927938584367374e-06  2.1760098177601591e-06  2.2625342774943886e-06 
 2.3524987485583455e-06  2.4460399674404065e-06  2.5433001037073372e-06  2.6444269757448551e-06 
 2.7495742750557092e-06  2.8589017994542575e-06  2.9725756955095460e-06  3.0907687106031145e-06 
 3.2136604549820701e-06  3.3414376742029042e-06  3.4742945323772786e-06  3.6124329066471299e-06 
 3.7560626933332795e-06  3.9054021262192386e-06  4.0606781074502677e-06  4.2221265515462914e-06 
 4.3899927430472661e-06  4.5645317083298367e-06  4.7460086021553573e-06  4.9346991095313747e-06 
 5.1308898634916057e-06  5.3348788794232798e-06  5.5469760065951440e-06  5.7675033975657568e-06 
 5.9967959961775171e-06  6.2352020448703630e-06  6.4830836120774214e-06  6.7408171404950609e-06 
 7.0087940170506665e-06  7.2874211654240115e-06  7.5771216620114170e-06  7.8783353762567899e-06 
 8.1915196363101741e-06  8.5171499210113268e-06  8.8557205792357191e-06  9.2077455776802865e-06 
 9.5737592782088635e-06  9.9543172459206633e-06  1.0349997089150837e-05  1.0761399332659273e-05 
 1.1189148325312806e-05  1.1633893183617186e-05  1.2096308772507478e-05  1.2577096724861183e-05 
 1.3076986501254732e-05  1.3596736491543824e-05  1.4137135159909041e-05  1.4699002235072317e-05 
 1.5283189947456004e-05  1.5890584315124960e-05  1.6522106480424215e-05  1.7178714099297629e-05 
 1.7861402785350972e-05  1.8571207610802826e-05  1.9309204666548575e-05  2.0076512683650540e-05 
 2.0874294718654213e-05  2.1703759905226447e-05  2.2566165274704482e-05  2.3462817648246849e-05 
 2.4395075603379764e-05  2.5364351517840118e-05  2.6372113693728163e-05  2.7419888565098311e-05 
 2.8509262992236950e-05  2.9641886645999906e-05  3.0819474485712261e-05  3.2043809334266473e-05 
 3.3316744554194920e-05  3.4640206828634162e-05  3.6016199051252249e-05  3.7446803329360349e-05 
 3.8934184104594400e-05  4.0480591395716922e-05  4.2088364168262590e-05  4.3759933835929773e-05 
 4.5497827898805197e-05  4.7304673723703528e-05  4.9183202472098176e-05  5.1136253181330860e-05 
 5.3166777004997973e-05  5.5277841618635053e-05  5.7472635797048779e-05  5.9754474169883815e-05 
 6.2126802162259368e-05  6.4593201127561027e-05  6.7157393679744031e-05  6.9823249232768279e-05 
 7.2594789755075684e-05  7.5476195747309130e-05  7.8471812451774668e-05  8.1586156302464055e-05 
 8.4823921624774812e-05  8.8189987594405146e-05  9.1689425465239872e-05  9.5327506076412172e-05 
 9.9109707649083160e-05  1.0304172388387643e-04  1.0712947237029034e-04  1.1137910331982616e-04 
 1.1579700863498623e-04  1.2038983132673769e-04  1.2516447529348351e-04  1.3012811547504340e-04 
 1.3528820839564228e-04  1.4065250311037149e-04  1.4622905257012618e-04  1.5202622542052904e-04 
 1.5805271825089842e-04  1.6431756830988866e-04  1.7083016670497384e-04  1.7760027210358915e-04 
 1.8463802495430760e-04  1.9195396224708062e-04  1.9955903283222127e-04  2.0746461331846508e-04 
 2.1568252457112135e-04  2.2422504883205631e-04  2.3310494748393897e-04  2.4233547948194990e-04 
 2.5193042047688528e-04  2.6190408265442132e-04  2.7227133531601794e-04  2.8304762622786858e-04 
 2.9424900376505316e-04  3.0589213987894831e-04  3.1799435391685843e-04  3.3057363732366245e-04 
 3.4364867925623942e-04  3.5723889314243795e-04  3.7136444421699268e-04  3.8604627806850672e-04 
 4.0130615023143844e-04  4.1716665685939989e-04  4.3365126651591785e-04  4.5078435312067417e-04 
 4.6859123008981225e-04  4.8709818571029576e-04  5.0633251978900249e-04  5.2632258161895251e-04 
 5.4709780930531230e-04  5.6868877049591243e-04  5.9112720456129064e-04  6.1444606627084921e-04 
 6.3867957101285729e-04  6.6386324160688261e-04  6.9003395675859471e-04  7.1723000120801721e-04 
 7.4549111762311538e-04  7.7485856029214830e-04  8.0537515066893132e-04  8.3708533482631273e-04 
 8.7003524287438349e-04  9.0427275040062252e-04  9.3984754199043176e-04  9.7681117688727865e-04 
 1.0152171568525879e-03  1.0551209962863762e-03  1.0965802946703753e-03  1.1396548113959035e-03 
 1.1844065430400130e-03  1.2308998031528063e-03  1.2792013046203502e-03  1.3293802446677618e-03 
 1.3815083925666849e-03  1.4356601801116485e-03  1.4919127949307167e-03  1.5503462766938579e-03 
 1.6110436162843805e-03  1.6740908579955423e-03  1.7395772048165732e-03  1.8075951268690777e-03 
 1.8782404730548733e-03  1.9516125859752077e-03  2.0278144201780531e-03  2.1069526637904051e-03 
 2.1891378635883040e-03  2.2744845535564444e-03  2.3631113869851911e-03  2.4551412721498839e-03 
 2.5507015116146324e-03  2.6499239451969370e-03  2.7529450966272311e-03  2.8599063239305822e-03 
 2.9709539735540014e-03  3.0862395382559725e-03  3.2059198187686265e-03  3.3301570892363486e-03 
 3.4591192664270754e-03  3.5929800827036065e-03  3.7319192627346507e-03  3.8761227039150652e-03 
 4.0257826604546002e-03  4.1810979310845375e-03  4.3422740503182350e-03  4.5095234831910788e-03 
 4.6830658233910213e-03  4.8631279946766423e-03  5.0499444554659321e-03  5.2437574064618337e-03 
 5.4448170011647153e-03  5.6533815591041656e-03  5.8697177816037513e-03  6.0941009698728173e-03 
 6.3268152451989293e-03  6.5681537709931549e-03  6.8184189764174639e-03  7.0779227812999730e-03 
 7.3469868220196787e-03  7.6259426780155692e-03  7.9151320985491897e-03  8.2149072293216593e-03 
 8.5256308385168820e-03  8.8476765418133117e-03  9.1814290258755340e-03  9.5272842698043824e-03 
 9.8856497639922217e-03  1.0256944725797076e-02  1.0641600311405763e-02  1.1040059823238711e-02 
 1.1452778912188735e-02  1.1880225773965624e-02  1.2322881338774690e-02  1.2781239453509624e-02 
 1.3255807055612660e-02  1.3747104337701054e-02  1.4255664902028052e-02  1.4782035903783870e-02 
 1.5326778182229051e-02  1.5890466378568231e-02  1.6473689039462575e-02  1.7077048705014093e-02 
 1.7701161979999193e-02  1.8346659587110452e-02  1.9014186400889720e-02  1.9704401460996002e-02 
 2.0417977963416746e-02  2.1155603228159826e-02  2.1917978641941314e-02  2.2705819574318570e-02 
 2.3519855265691399e-02  2.4360828685538231e-02  2.5229496359238702e-02  2.6126628161779006e-02 
 2.7053007076620509e-02  2.8009428918014955e-02  2.8996702015008594e-02  3.0015646855403862e-02 
 3.1067095687979926e-02  3.2151892081280657e-02  3.3270890437381885e-02  3.4424955459108016e-02 
 3.5614961569305922e-02  3.6841792280949567e-02  3.8106339517027514e-02  3.9409502879451538e-02 
 4.0752188866506084e-02  4.2135310038752864e-02  4.3559784133740516e-02  4.5026533130417559e-02 
 4.6536482264742156e-02  4.8090558998726850e-02  4.9689691945971302e-02  5.1334809757675556e-02 
 5.3026839974199318e-02  5.4766707848410603e-02  5.6555335148392623e-02  5.8393638948522467e-02 
 6.0282530419499880e-02  6.2222913629604616e-02  6.4215684371245224e-02  6.6261729028743541e-02 
 6.8361923505240840e-02  7.0517132228573406e-02  7.2728207257922520e-02  7.4995987514927434e-02 
 7.7321298164714627e-02  7.9704950173864572e-02  8.2147740073639758e-02  8.4650449957732507e-02 
 8.7213847744283923e-02  8.9838687731862085e-02  9.2525711478376391e-02  9.5275649030442291e-02 
 9.8089220528401813e-02  1.0096713820897757e-01  1.0391010882331085e-01  1.0691883648287503e-01 
 1.0999402593948751e-01  1.1313638629831478e-01  1.1634663515458997e-01  1.1962550313574971e-01 
 1.2297373882113913e-01  1.2639211400157516e-01  1.2988142923122592e-01  1.3344251961489359e-01 
 1.3707626076533777e-01  1.4078357485825557e-01  1.4456543670749872e-01  1.4842287978059532e-01 
 1.5235700207513511e-01  1.5636897178051293e-01  1.6046003265713671e-01  1.6463150907660057e-01 
 1.6888481068123951e-01  1.7322143663942427e-01  1.7764297949294483e-01  1.8215112861345678e-01 
 1.8674767330438877e-01  1.9143450560049813e-01  1.9621362282663851e-01  2.0108712997703340e-01 
 2.0605724196306566e-01  2.1112628574783207e-01  2.1629670233636808e-01  2.2157104851901416e-01 
 2.2695199817042924e-01  2.3244234278839304e-01  2.3804499081687985e-01  2.4376296514161755e-01 
 2.4959939798096217e-01  2.5555752223118300e-01  2.6164065817704257e-01  2.6785219436273222e-01 
 2.7419556135403378e-01  2.8067419713036096e-01  2.8729150294531514e-01  2.9405078870426898e-01 
 3.0095520724019204e-01  3.0800767732970857e-01  3.1521079587493128e-01  3.2256674036432065e-01 
 3.3007716348370786e-01  3.3774308252614293e-01  3.4556476697989730e-01  3.5354162827760527e-01 
 3.6167211607756894e-01  3.6995362553095185e-01  3.7838241968560782e-01  3.8695357042988376e-01 
 3.9566092016455096e-01  4.0449706473356917e-01  4.1345335613037576e-01  4.2251992127847171e-01 
 4.3168569098269249e-01  4.4093843123673859e-01  4.5026476776467150e-01  4.5965019428227871e-01 
 4.6907905575834874e-01  4.7853450011010923e-01  4.8799839530494216e-01  4.9745121358676103e-01 
 5.0687189009490075e-01  5.1623766885782663e-01  5.2552395418846243e-01  5.3470418893265292e-01 
 5.4374978189174583e-01  5.5263010430131687e-01  5.6131256911830274e-01  5.6976279721522938e-01 
 5.7794486224889363e-01  5.8582159252349419e-01  5.9335489578593548e-01  6.0051159705200929e-01 
 6.0728050694424540e-01  6.1365632942771720e-01  6.1963419956332455e-01  6.2520968898636742e-01 
 6.3037881140246754e-01  6.3513802819192045e-01  6.3948425421667465e-01  6.4341486392463476e-01 
 6.4692769784354853e-01  6.5002106955101979e-01  6.5269377319768096e-01  6.5494509164661219e-01 
 6.5677480527293919e-01  6.5818320144216214e-01  6.5917108465311636e-01  6.5973978729031590e-01 
 6.5989118087971632e-01  6.5962768768070312e-01  6.5895229237493236e-01  6.5786855352983253e-01 
 6.5638061442256324e-01  6.5449321271190952e-01  6.5221168834576382e-01  6.4954198899731252e-01 
 6.4649067224270640e-01  6.4306490363753199e-01  6.3927244983057341e-01  6.3512166588287322e-01 
 6.3062147604805274e-01  6.2578134742309133e-01  6.2061125609892187e-01  6.1512164572258388e-01 
 6.0932337871538234e-01  6.0322768075577393e-01  5.9684607950740742e-01  5.9019033892449602e-01 
 5.8327239077107829e-01  5.7610426522318992e-01  5.6869802256467583e-01  5.6106568802700929e-01 
 5.5321919175797030e-01  5.4517031573823471e-01  5.3693064921026623e-01  5.2851155385663218e-01 
 5.1992413958396588e-01  5.1117925135428721e-01  5.0228746707682792e-01  4.9325910614932800e-01 
 4.8410424783464417e-01  4.7483275829163307e-01  4.6545432476207993e-01  4.5597849515997424e-01 
 4.4641472112595959e-01  4.3677240250648269e-01  4.2706093119944449e-01  4.1728973237787215e-01 
 4.0746830125780464e-01  3.9760623380897375e-01  3.8771325010480262e-01  3.7779920935523775e-01 
 3.6787411604211750e-01  3.5794811696056028e-01  3.4803148933968386e-01  3.3813462055220117e-01 
 3.2826798020903108e-01  3.1844208566060928e-01  3.0866746208504703e-01  2.9895459843379735e-01 
 2.8931390053188638e-01  2.7975564259955965e-01  2.7028991838536698e-01  2.6092659298853355e-01 
 2.5167525631234572e-01  2.4254517894091940e-01  2.3354527107841713e-01  2.2468404504015008e-01 
 2.1596958164477034e-01  2.0740950072988820e-01  1.9901093590226196e-01  1.9078051353920744e-01 
 1.8272433597997861e-01  1.7484796878374612e-01  1.6715643188307019e-01  1.5965419442678164e-01 
 1.5234517308214429e-01  1.4523273355129493e-01  1.3831969504954220e-01  1.3160833749160580e-01 
 1.2510041113493950e-01  1.1879714843571601e-01  1.1269927788189903e-01  1.0680703957827332e-01 
 1.0112020236971672e-01  9.5638082300881125e-02  9.0359562222430218e-02  8.5283112365782898e-02 
 8.0406811719748589e-02  7.5728370053387145e-02  7.1245150439809390e-02  6.6954192145425112e-02 
 6.2852233758337386e-02  5.8935736438196475e-02  5.5200907177893520e-02  5.1643721975037533e-02 
 4.8259948818267520e-02  4.5045170400148417e-02  4.1994806474743733e-02  3.9104135783988775e-02 
 3.6368317482755465e-02  3.3782411998044062e-02  3.1341401263095023e-02  2.9040208272419103e-02 
 2.6873715908823877e-02  2.4836784998494957e-02  2.2924271555087812e-02  2.1131043178618181e-02 
 1.9451994579714575e-02  1.7882062204522792e-02  1.6416237940231310e-02  1.5049581885818291e-02 
 1.3777234177198413e-02  1.2594425860465748e-02  1.1496488811374828e-02  1.0478864703562601e-02 
 9.5371130322746776e-03  8.6669182045009032e-03  7.8640957104301606e-03  7.1245973949817000e-03 
 6.4445158518395950e-03  5.8200879658872207e-03  5.2476976331893715e-03  4.7238776906807535e-03 
 4.2453110904719258e-03  3.8088313561607033e-03  3.4114223607222111e-03  3.0502174674317028e-03 
 2.7224980768399418e-03  2.4256916240634340e-03  2.1573690715666889e-03  1.9152419431987338e-03 
 1.6971589455034397e-03  1.5011022222573220e-03  1.3251832878078001e-03  1.1676386841006376e-03 
 1.0268254053118230e-03  9.0121613275383834e-04  7.8939432122875964e-04  6.9004917627331060e-04 
 6.0197055980770015e-04  5.2404385958681142e-04  4.5524485558587027e-04  3.9463461406108951e-04 
 3.4135443753712820e-04  2.9462089641589241e-04  2.5372096530321863e-04  2.1800729324966049e-04 
 1.8689367662532816e-04  1.5985044693885830e-04  1.3640030065296176e-04  1.1611422505350762e-04 
 9.8607602574536153e-05  8.3536511192121776e-05  7.0594224630719877e-05  5.9507914221330398e-05 
 5.0035552495895955e-05  4.1963017004280875e-05  3.5101391403875952e-05  2.9284459599867844e-05 
 2.4366387606792857e-05  2.0219586857394871e-05  1.6732751899448389e-05  1.3809064789942340e-05 
 1.1364558012426574e-05  9.3266274000175065e-06  7.6326863355477405e-06  6.2289524134147396e-06 
 5.0693577768433435e-06  4.1145744822762801e-06  3.3311464835459825e-06  2.6907201685790413e-06 
 2.1693658199429392e-06  1.7469829112227810e-06  0.0000000000000000e+00  0.0000000000000000e+00 
 0.0000000000000000e+00  0.0000000000000000e+00  0.0000000000000000e+00  0.0000000000000000e+00 
 0.0000000000000000e+00  0.0000000000000000e+00  0.0000000000000000e+00  0.0000000000000000e+00 
 0.0000000000000000e+00  0.0000000000000000e+00  0.0000000000000000e+00  0.0000000000000000e+00 
 0.0000000000000000e+00  0.0000000000000000e+00  0.0000000000000000e+00  0.0000000000000000e+00 
 0.0000000000000000e+00  0.0000000000000000e+00  0.0000000000000000e+00  0.0000000000000000e+00 
 0.0000000000000000e+00  0.0000000000000000e+00  0.0000000000000000e+00  0.0000000000000000e+00 
 0.0000000000000000e+00  0.0000000000000000e+00  0.0000000000000000e+00  0.0000000000000000e+00 
 0.0000000000000000e+00  0.0000000000000000e+00  0.0000000000000000e+00  0.0000000000000000e+00 
 0.0000000000000000e+00  0.0000000000000000e+00  0.0000000000000000e+00  0.0000000000000000e+00 
 0.0000000000000000e+00  0.0000000000000000e+00  0.0000000000000000e+00  0.0000000000000000e+00 
 0.0000000000000000e+00  0.0000000000000000e+00  0.0000000000000000e+00  0.0000000000000000e+00 
 0.0000000000000000e+00  0.0000000000000000e+00  0.0000000000000000e+00  0.0000000000000000e+00 
 0.0000000000000000e+00  0.0000000000000000e+00  0.0000000000000000e+00  0.0000000000000000e+00 
 0.0000000000000000e+00  0.0000000000000000e+00  0.0000000000000000e+00  0.0000000000000000e+00 
 0.0000000000000000e+00  0.0000000000000000e+00  0.0000000000000000e+00  0.0000000000000000e+00 
 0.0000000000000000e+00  0.0000000000000000e+00  0.0000000000000000e+00  0.0000000000000000e+00 
 0.0000000000000000e+00  0.0000000000000000e+00  0.0000000000000000e+00  0.0000000000000000e+00 
 0.0000000000000000e+00  0.0000000000000000e+00  0.0000000000000000e+00  0.0000000000000000e+00 
 0.0000000000000000e+00  0.0000000000000000e+00  0.0000000000000000e+00  0.0000000000000000e+00 
 0.0000000000000000e+00  0.0000000000000000e+00  0.0000000000000000e+00  0.0000000000000000e+00 
 0.0000000000000000e+00  0.0000000000000000e+00  0.0000000000000000e+00  0.0000000000000000e+00 
 0.0000000000000000e+00  0.0000000000000000e+00  0.0000000000000000e+00  0.0000000000000000e+00 
 0.0000000000000000e+00  0.0000000000000000e+00  0.0000000000000000e+00  0.0000000000000000e+00 
 0.0000000000000000e+00  0.0000000000000000e+00  0.0000000000000000e+00  0.0000000000000000e+00 
 0.0000000000000000e+00  0.0000000000000000e+00  0.0000000000000000e+00  0.0000000000000000e+00 
 0.0000000000000000e+00  0.0000000000000000e+00  0.0000000000000000e+00  0.0000000000000000e+00 
 0.0000000000000000e+00  0.0000000000000000e+00  0.0000000000000000e+00  0.0000000000000000e+00 
 0.0000000000000000e+00  0.0000000000000000e+00  0.0000000000000000e+00  0.0000000000000000e+00 
 0.0000000000000000e+00  0.0000000000000000e+00  0.0000000000000000e+00  0.0000000000000000e+00 
 0.0000000000000000e+00  0.0000000000000000e+00  0.0000000000000000e+00  0.0000000000000000e+00 
 0.0000000000000000e+00  0.0000000000000000e+00  0.0000000000000000e+00  0.0000000000000000e+00 
 0.0000000000000000e+00  0.0000000000000000e+00  0.0000000000000000e+00  0.0000000000000000e+00 
 0.0000000000000000e+00  0.0000000000000000e+00  0.0000000000000000e+00  0.0000000000000000e+00 
 0.0000000000000000e+00  0.0000000000000000e+00  0.0000000000000000e+00 
</PP_PSWFC>


<PP_RHOATOM>
 8.4306027830369697e-13  8.6526728768574562e-13  8.8805925086609700e-13  9.1145157608839966e-13 
 9.3546007746435096e-13  9.6010098566470057e-13  9.8539095889177501e-13  1.0113470941411424e-12 
 1.0379869387597811e-12  1.0653285023089093e-12  1.0933902687389896e-12  1.1221912088858177e-12 
 1.1517507932954195e-12  1.1820890053869157e-12  1.2132263549622599e-12  1.2451838920715182e-12 
 1.2779832212436523e-12  1.3116465160919783e-12  1.3461965343044610e-12  1.3816566330289204e-12 
 1.4180507846631383e-12  1.4554035930615156e-12  1.4937403101679834e-12  1.5330868530875054e-12 
 1.5734698216070540e-12  1.6149165161780977e-12  1.6574549563729074e-12  1.7011138998268283e-12 
 1.7459228616797567e-12  1.7919121345294206e-12  1.8391128089105154e-12  1.8875567943131978e-12 
 1.9372768407551918e-12  1.9883065609220876e-12  2.0406804528910176e-12  2.0944339234526652e-12 
 2.1496033120479433e-12  2.2062259153346539e-12  2.2643400124018030e-12  2.3239848906479153e-12 
 2.3852008723407033e-12  2.4480293418768538e-12  2.5125127737596141e-12  2.5786947613131106e-12 
 2.6466200461535798e-12  2.7163345484364519e-12  2.7878853979002783e-12  2.8613209657286074e-12 
 2.9366908972508016e-12  3.0140461455046012e-12  3.0934390056823144e-12  3.1749231504848690e-12 
 3.2585536664067888e-12  3.3443870909771001e-12  3.4324814509810131e-12  3.5228963016887374e-12 
 3.6156927671174675e-12  3.7109335813537151e-12  3.8086831309645353e-12  3.9090074985256522e-12 
 4.0119745072960699e-12  4.1176537670699072e-12  4.2261167212353656e-12  4.3374366950742556e-12 
 4.4516889453324377e-12  4.5689507110974626e-12  4.6893012660154382e-12  4.8128219718836282e-12 
 4.9395963336547931e-12  5.0697100558905000e-12  5.2032511007012221e-12  5.3403097472130562e-12 
 5.4809786526003299e-12  5.6253529147265882e-12  5.7735301364350227e-12  5.9256104915324398e-12 
 6.0816967925120933e-12  6.2418945600594137e-12  6.4063120943893470e-12  6.5750605484624974e-12 
 6.7482540031296955e-12  6.9260095442568996e-12  7.1084473418801953e-12  7.2956907314478418e-12 
 7.4878662971999702e-12  7.6851039577467394e-12  7.8875370538997830e-12  8.0953024388171925e-12 
 8.3085405705232872e-12  8.5273956068660087e-12  8.7520155029743193e-12  8.9825521112844617e-12 
 9.2191612841997182e-12  9.4620029794549468e-12  9.7112413682572305e-12  9.9670449462733744e-12 
 1.0229586647543392e-11  1.0499043961392490e-11  1.0775599052424191e-11  1.1059438883673336e-11 
 1.1350755343004283e-11  1.1649745372837487e-11  1.1956611103294085e-11  1.2271559988847120e-11 
 1.2594804948573852e-11  1.2926564510100494e-11  1.3267062957340464e-11  1.3616530482123470e-11 
 1.3975203339819441e-11  1.4343324009061625e-11  1.4721141355676727e-11  1.5108910800933772e-11 
 1.5506894494225488e-11  1.5915361490297533e-11  1.6334587931146823e-11  1.6764857232711860e-11 
 1.7206460276479979e-11  1.7659695606143421e-11  1.8124869629433284e-11  1.8602296825274433e-11 
 1.9092299956392294e-11  1.9595210287524872e-11  2.0111367809380742e-11  2.0641121468495479e-11 
 2.1184829403146363e-11  2.1742859185479849e-11  2.2315588070016479e-11  2.2903403248704103e-11 
 2.3506702112688880e-11  2.4125892520981677e-11  2.4761393076203561e-11  2.5413633407593621e-11 
 2.6083054461472242e-11  2.6770108799357016e-11  2.7475260903932287e-11  2.8198987493077019e-11 
 2.8941777842167165e-11  2.9704134114867644e-11  3.0486571702637489e-11  3.1289619573183428e-11 
 3.2113820628085375e-11  3.2959732069850106e-11  3.3827925778630544e-11  3.4718988698871117e-11 
 3.5633523236137371e-11  3.6572147664400917e-11  3.7535496544053651e-11  3.8524221150934470e-11 
 3.9538989916656434e-11  4.0580488880536981e-11  4.1649422153432254e-11  4.2746512393790482e-11 
 4.3872501296249840e-11  4.5028150093103013e-11  4.6214240068976937e-11  4.7431573089071605e-11 
 4.8680972141313596e-11  4.9963281892792089e-11  5.1279369260857959e-11  5.2630123999263451e-11 
 5.4016459299751044e-11  5.5439312409481030e-11  5.6899645264740002e-11  5.8398445141328526e-11 
 5.9936725322098112e-11  6.1515525782067623e-11  6.3135913891590415e-11  6.4798985138049543e-11 
 6.6505863866567239e-11  6.8257704040224731e-11  7.0055690020320333e-11  7.1901037367175447e-11 
 7.3794993662044503e-11  7.5738839350683166e-11  7.7733888609134803e-11  7.9781490232329213e-11 
 8.1883028546104636e-11  8.4039924343247432e-11  8.6253635844198766e-11  8.8525659683074323e-11 
 9.0857531919666345e-11  9.3250829078111500e-11  9.5707169212915513e-11  9.8228213003082116e-11 
 1.0081566487506546e-10  1.0347127415530503e-10  1.0619683625313761e-10  1.0899419387488036e-10 
 1.1186523826990034e-10  1.1481191050951713e-10  1.1783620279961282e-10  1.2094015982782061e-10 
 1.2412588014622924e-10  1.2739551759050905e-10  1.3075128273643251e-10  1.3419544439479544e-10 
 1.3773033114571509e-10  1.4135833291337390e-10  1.4508190258225264e-10  1.4890355765595960e-10 
 1.5282588195978312e-10  1.5685152738810321e-10  1.6098321569785493e-10  1.6522374034927990e-10 
 1.6957596839514754e-10  1.7404284241982221e-10  1.7862738252938374e-10  1.8333268839423741e-10 
 1.8816194134554214e-10  1.9311840652690542e-10  1.9820543510277940e-10  2.0342646652506993e-10 
 2.0878503085948829e-10  2.1428475117324646e-10  2.1992934598565367e-10  2.2572263178331075e-10 
 2.3166852560166055e-10  2.3777104767451682e-10  2.4403432415349145e-10  2.5046258989908370e-10 
 2.5706019134535680e-10  2.6383158944013470e-10  2.7078136266273139e-10  2.7791421012119629e-10 
 2.8523495473125890e-10  2.9274854647908458e-10  3.0046006577002315e-10  3.0837472686569181e-10 
 3.1649788141165548e-10  3.2483502205813639e-10  3.3339178617621776e-10  3.4217395967200394e-10 
 3.5118748090137799e-10  3.6043844468802113e-10  3.6993310644733918e-10  3.7967788641919172e-10 
 3.8967937401225593e-10  3.9994433226292645e-10  4.1047970241186880e-10  4.2129260860126405e-10 
 4.3239036269592011e-10  4.4378046923164048e-10  4.5547063049401319e-10  4.6746875173129084e-10 
 4.7978294650467654e-10  4.9242154217988280e-10  5.0539308556348240e-10  5.1870634868797702e-10 
 5.3237033474959510e-10  5.4639428420263508e-10  5.6078768101472799e-10  5.7556025908713665e-10 
 5.9072200884447497e-10  6.0628318399832866e-10  6.2225430848949010e-10  6.3864618361322904e-10 
 6.5546989533284730e-10  6.7273682178616552e-10  6.9045864099017599e-10  7.0864733874919535e-10 
 7.2731521677168161e-10  7.4647490100143409e-10  7.6613935016872324e-10  7.8632186456731275e-10 
 8.0703609506318338e-10  8.2829605234122141e-10  8.5011611639608092e-10  8.7251104627381495e-10 
 8.9549599007077686e-10  9.1908649519665079e-10  9.4329851890869262e-10  9.6814843912424640e-10 
 9.9365306551899181e-10  1.0198296509184981e-09  1.0466959029907392e-09  1.0742699962478002e-09 
 1.1025705843645959e-09  1.1316168128236006e-09  1.1614283318933852e-09  1.1920253099507727e-09 
 1.2234284471550212e-09  1.2556589894835734e-09  1.2887387431392394e-09  1.3226900893383522e-09 
 1.3575359994900332e-09  1.3933000507772379e-09  1.4300064421499292e-09  1.4676800107415679e-09 
 1.5063462487200372e-09  1.5460313205845631e-09  1.5867620809207006e-09  1.6285660926251758e-09 
 1.6714716456134587e-09  1.7155077760228542e-09  1.7607042859240007e-09  1.8070917635547471e-09 
 1.8547016040899870e-09  1.9035660309620704e-09  1.9537181177460305e-09  2.0051918106251130e-09 
 2.0580219514518518e-09  2.1122443014204261e-09  2.1678955653674240e-09  2.2250134167164605e-09 
 2.2836365230850780e-09  2.3438045725709824e-09  2.4055583007359070e-09  2.4689395183058074e-09 
 2.5339911396064589e-09  2.6007572117545338e-09  2.6692829446233209e-09  2.7396147416056174e-09 
 2.8118002311930212e-09  2.8858882993953985e-09  2.9619291230218758e-09  3.0399742038470399e-09 
 3.1200764036856686e-09  3.2022899804010519e-09  3.2866706248712584e-09  3.3732754989394969e-09 
 3.4621632743751550e-09  3.5533941728725320e-09  3.6470300071147723e-09  3.7431342229329370e-09 
 3.8417719425884260e-09  3.9430100092093922e-09  4.0469170324134567e-09  4.1535634351463526e-09 
 4.2630215017724066e-09  4.3753654274477231e-09  4.4906713688131698e-09  4.6090174960411292e-09 
 4.7304840462742996e-09  4.8551533784927420e-09  4.9831100298491757e-09  5.1144407735116016e-09 
 5.2492346780547692e-09  5.3875831684420938e-09  5.5295800886419324e-09  5.6753217659218888e-09 
 5.8249070768681715e-09  5.9784375151757933e-09  6.1360172612586892e-09  6.2977532537292258e-09 
 6.4637552627986916e-09  6.6341359656512874e-09  6.8090110238443358e-09  6.9884991627935333e-09 
 7.1727222533964953e-09  7.3618053958568095e-09  7.5558770057673899e-09  7.7550689025152985e-09 
 7.9595164000743779e-09  8.1693584002468112e-09  8.3847374884281893e-09  8.6058000319588693e-09 
 8.8326962811394130e-09  9.0655804729789113e-09  9.3046109377562418e-09  9.5499502084705133e-09 
 9.8017651332611064e-09  1.0060226990881053e-08  1.0325511609308330e-08  1.0597799487583963e-08 
 1.0877275920965348e-08  1.1164131129490996e-08  1.1458560390048555e-08  1.1760764172048280e-08 
 1.2070948276802872e-08  1.2389323980715665e-08  1.2716108182388224e-08  1.3051523553758647e-08 
 1.3395798695380239e-08  1.3749168295963657e-08  1.4111873296303194e-08  1.4484161057707055e-08 
 1.4866285535069234e-08  1.5258507454706324e-08  1.5661094497105807e-08  1.6074321484717160e-08 
 1.6498470574940505e-08  1.6933831458454135e-08  1.7380701563044773e-08  1.7839386263089412e-08 
 1.8310199094863962e-08  1.8793461977839812e-08  1.9289505442147453e-08  1.9798668862386191e-08 
 2.0321300697968513e-08  2.0857758740186163e-08  2.1408410366202254e-08  2.1973632800168054e-08 
 2.2553813381680598e-08  2.3149349841794763e-08  2.3760650586821532e-08  2.4388134990132202e-08 
 2.5032233692224438e-08  2.5693388909284749e-08  2.6372054750511191e-08  2.7068697544455631e-08 
 2.7783796174662122e-08  2.8517842424882725e-08  2.9271341334162320e-08  3.0044811562091386e-08 
 3.0838785764544760e-08  3.1653810980219275e-08  3.2490449028312390e-08  3.3349276917683163e-08 
 3.4230887267845997e-08  3.5135888742177788e-08  3.6064906493705980e-08  3.7018582623886010e-08 
 3.7997576654762647e-08  3.9002566014953006e-08  4.0034246539870993e-08  4.1093332986664068e-08 
 4.2180559564318748e-08  4.3296680479427038e-08  4.4442470498115101e-08  4.5618725524655432e-08 
 4.6826263197302845e-08  4.8065923501917215e-08  4.9338569403946096e-08  5.0645087499380178e-08 
 5.1986388685291938e-08  5.3363408850618858e-08  5.4777109587848826e-08  5.6228478926313086e-08 
 5.7718532087810005e-08  5.9248312265293699e-08  6.0818891425435650e-08  6.2431371135831931e-08 
 6.4086883417717775e-08  6.5786591625059153e-08  6.7531691350915099e-08  6.9323411362017435e-08 
 7.1163014562542080e-08  7.3051798988096775e-08  7.4991098830954182e-08  7.6982285497661803e-08 
 7.9026768700131231e-08  8.1125997581433283e-08  8.3281461877486344e-08  8.5494693115965915e-08 
 8.7767265853723677e-08  9.0100798954161150e-08  9.2496956905940075e-08  9.4957451184588890e-08 
 9.7484041658542233e-08  1.0007853804124962e-07  1.0274280139106426e-07  1.0547874566067609e-07 
 1.0828833929792949e-07  1.1117360689995809e-07  1.1413663092263165e-07  1.1717955344742136e-07 
 1.2030457800784262e-07  1.2351397147777010e-07  1.2681006602396360e-07  1.3019526112532567e-07 
 1.3367202566142819e-07  1.3724290007302214e-07  1.4091049859734274e-07  1.4467751158114829e-07 
 1.4854670787453299e-07  1.5252093730876371e-07  1.5660313326143963e-07  1.6079631531248767e-07 
 1.6510359199464548e-07  1.6952816364224697e-07  1.7407332534230281e-07  1.7874246999203303e-07 
 1.8353909146721803e-07  1.8846678790594743e-07  1.9352926511249714e-07  1.9873034008636303e-07 
 2.0407394468165060e-07  2.0956412940228814e-07  2.1520506733879016e-07  2.2100105825254982e-07 
 2.2695653281392659e-07  2.3307605700070572e-07  2.3936433666379367e-07  2.4582622226734994e-07 
 2.5246671381091443e-07  2.5929096594140978e-07  2.6630429326333731e-07  2.7351217585582443e-07 
 2.8092026500563310e-07  2.8853438916568075e-07  2.9636056014909390e-07  3.0440497956925443e-07 
 3.1267404553688857e-07  3.2117435962574707e-07  3.2991273411897132e-07  3.3889619954889527e-07 
 3.4813201254361545e-07  3.5762766399434908e-07  3.6739088755834749e-07  3.7742966851268085e-07 
 3.8775225297527917e-07  3.9836715751016005e-07  4.0928317913481611e-07  4.2050940574850153e-07 
 4.3205522700126945e-07  4.4393034562443609e-07  4.5614478924437209e-07  4.6870892270259226e-07 
 4.8163346090613616e-07  4.9492948223377466e-07  5.0860844252464407e-07  5.2268218967737793e-07 
 5.3716297888924132e-07  5.5206348856634654e-07  5.6739683693768455e-07  5.8317659940725133e-07 
 5.9941682668055125e-07  6.1613206370355252e-07  6.3333736945424372e-07  6.5104833762898231e-07 
 6.6928111826812627e-07  6.8805244036785665e-07  7.0737963552748990e-07  7.2728066268429521e-07 
 7.4777413399053043e-07  7.6887934189058609e-07  7.9061628745891345e-07  8.1300571006294773e-07 
 8.3606911841871668e-07  8.5982882311020106e-07  8.8430797064794511e-07  9.0953057914589719e-07 
 9.3552157570036697e-07  9.6230683555917198e-07  9.8991322317405494e-07  1.0183686352349158e-06 
 1.0477020457890604e-06  1.0779435535554090e-06  1.1091244315487326e-06  1.1412771791364645e-06 
 1.1744355766564851e-06  1.2086347427320315e-06  1.2439111944278054e-06  1.2803029103987054e-06 
 1.3178493971919447e-06  1.3565917588720645e-06  1.3965727701480787e-06  1.4378369531921919e-06 
 1.4804306583505813e-06  1.5244021489579582e-06  1.5698016904799955e-06  1.6166816442207660e-06 
 1.6650965658457297e-06  1.7151033089859163e-06  1.7667611342033051e-06  1.8201318236162045e-06 
 1.8752798014971473e-06  1.9322722611783159e-06  1.9911792986162725e-06  2.0520740529896776e-06 
 2.1150328547267060e-06  2.1801353813802941e-06  2.2474648217967542e-06  2.3171080490481658e-06 
 2.3891558026287643e-06  2.4637028804434816e-06  2.5408483411514175e-06  2.6206957174593707e-06 
 2.7033532409971899e-06  2.7889340794449915e-06  2.8775565866249075e-06  2.9693445663106766e-06 
 3.0644275505588232e-06  3.1629410934113007e-06  3.2650270808739784e-06  3.3708340581323663e-06 
 3.4805175750236143e-06  3.5942405508503099e-06  3.7121736596883604e-06  3.8344957374137023e-06 
 3.9613942117522290e-06  4.0930655567367465e-06  4.2297157730469975e-06  4.3715608957998413e-06 
 4.5188275314590680e-06  4.6717534256417738e-06  4.8305880637127710e-06  4.9955933061803097e-06 
 5.1670440610406028e-06  5.3452289953542515e-06  5.5304512884918578e-06  5.7230294296435816e-06 
 5.9232980623602893e-06  6.1316088790764223e-06  6.3483315687616071e-06  6.5738548210577145e-06 
 6.8085873904831261e-06  7.0529592245268837e-06  7.3074226597127831e-06  7.5724536899901993e-06 
 7.8485533121061110e-06  8.1362489529245592e-06  8.4360959840091982e-06  8.7486793291400989e-06 
 9.0746151708338947e-06  9.4145527623510841e-06  9.7691763521305923e-06  1.0139207228068969e-05 
 1.0525405889584909e-05  1.0928574355964862e-05  1.1349558620085738e-05  1.1789251257250791e-05 
 1.2248594199570527e-05  1.2728581687054682e-05  1.3230263407391677e-05  1.3754747837235818e-05 
 1.4303205798756900e-05  1.4876874246193349e-05  1.5477060298219998e-05  1.6105145533089973e-05 
 1.6762590564747817e-05  1.7450939919442720e-05  1.8171827233802444e-05  1.8926980796876408e-05 
 1.9718229460316846e-05  2.0547508942660576e-05  2.1416868555602616e-05  2.2328478382241644e-05 
 2.3284636939511621e-05  2.4287779359441640e-05  2.5340486126490541e-05  2.6445492411021173e-05 
 2.7605698042013261e-05  2.8824178165392091e-05  3.0104194637880945e-05  3.1449208210113955e-05 
 3.2862891556850683e-05  3.4349143216591614e-05  3.5912102507701184e-05  3.7556165493318205e-05 
 3.9286002072958697e-05  4.1106574284751077e-05  4.3023155908801085e-05  4.5041353469236883e-05 
 4.7167128740150950e-05  4.9406822868881216e-05  5.1767182239027120e-05  5.4255386205233621e-05 
 5.6879076842218747e-05  5.9646390861801764e-05  6.2565993863882978e-05  6.5647117100542347e-05 
 6.8899596946684513e-05  7.2333917286085549e-05  7.5961255038437065e-05  7.9793529070993084e-05 
 8.3843452758031089e-05  8.8124590472416661e-05  9.2651418316502102e-05  9.7439389424279851e-05 
 1.0250500419352208e-04  1.0786588583558673e-04  1.1354086166192055e-04  1.1955005056016050e-04 
 1.2591495714946846e-04  1.3265857314433301e-04  1.3980548649905234e-04  1.4738199895147599e-04 
 1.5541625263482074e-04  1.6393836648061742e-04  1.7298058319460135e-04  1.8257742765074615e-04 
 1.9276587761730437e-04  2.0358554780283770e-04  2.1507888829032371e-04  2.2729139851404592e-04 
 2.4027185802745962e-04  2.5407257541123292e-04  2.6874965677971182e-04  2.8436329546180827e-04 
 3.0097808455934101e-04  3.1866335422288378e-04  3.3749353563313053e-04  3.5754855383503010e-04 
 3.7891425174386897e-04  4.0168284782751142e-04  4.2595343016841279e-04  4.5183248982358902e-04 
 4.7943449663175465e-04  5.0888252086522270e-04  5.4030890439123918e-04  5.7385598529447921e-04 
 6.0967688022065371e-04  6.4793632903200986e-04  6.8881160672073388e-04  7.3249350790655879e-04 
 7.7918740965308162e-04  8.2911441877396553e-04  8.8251261026769294e-04  9.3963836401959801e-04 
 1.0007678074442474e-03  1.0661983723121281e-03  1.1362504746136792e-03  1.2112693269637016e-03 
 1.2916268937415670e-03  1.3777239999004625e-03  1.4699926051638750e-03  1.5688982561626891e-03 
 1.6749427299536297e-03  1.7886668833026705e-03  1.9106537231174019e-03  2.0415317144741843e-03 
 2.1819783438112436e-03  2.3327239560514985e-03  2.4945558856825124e-03  2.6683229031585348e-03 
 2.8549399994057872e-03  3.0553935327108407e-03  3.2707467638578964e-03  3.5021458070592752e-03 
 3.7508260259997541e-03  4.0181189061960481e-03  4.3054594368644372e-03  4.6143940375997835e-03 
 4.9465890674062155e-03  5.3038399559945694e-03  5.6880809997800312e-03  6.1013958676940615e-03 
 6.5460288647717704e-03  7.0243970045089817e-03  7.5391029442148511e-03  8.0929488410293147e-03 
 8.6889511899505348e-03  9.3303567091380414e-03  1.0020659341940168e-02  1.0763618449560263e-02 
 1.1563278273027324e-02  1.2423988748204811e-02  1.3350427762940702e-02  1.4347624951158322e-02 
 1.5420987124692297e-02  1.6576325449975601e-02  1.7819884483262254e-02  1.9158373184875441e-02 
 2.0598998039944000e-02  2.2149498420144041e-02  2.3818184327985430e-02  2.5613976672013490e-02 
 2.7546450227760123e-02  2.9625879445113329e-02  3.1863287267714160e-02  3.4270497133654640e-02 
 3.6860188328727943e-02  3.9645954863278564e-02  4.2642368040715722e-02  4.5865042879339797e-02 
 4.9330708538523241e-02  5.3057282884632545e-02  5.7063951310447392e-02  6.1371249893208163e-02 
 6.6001152939717200e-02  7.0977164920997038e-02  7.6324416742700490e-02  8.2069766229639199e-02 
 8.8241902622335527e-02  9.4871454789414209e-02  1.0199110275117693e-01  1.0963569198620575e-01 
 1.1784234985423978e-01  1.2665060331503028e-01  1.3610249695529456e-01  1.4624271015577078e-01 
 1.5711867204007024e-01  1.6878067264979546e-01  1.8128196859057760e-01  1.9467888119663795e-01 
 2.0903088507379047e-01  2.2440068471007435e-01  2.4085427669804776e-01  2.5846099500265102e-01 
 2.7729353664315348e-01  2.9742796514696745e-01  3.1894368918594851e-01  3.4192341392988856e-01 
 3.6645306285227264e-01  3.9262166800128051e-01  4.2052122710125883e-01  4.5024652626648043e-01 
 4.8189492757297836e-01  5.1556612121973266e-01  5.5136184248241649e-01  5.8938555407648252e-01 
 6.2974209484755606e-01  6.7253729583407718e-01  7.1787756463264896e-01  7.6586943857210366e-01 
 8.1661910640317936e-01  8.7023189698321268e-01  9.2681173174517439e-01  9.8646053558225388e-01 
 1.0492775981875175e+00  1.1153588749473911e+00  1.1847962133430099e+00  1.2576764876776076e+00 
 1.3340806221085408e+00  1.4140824797782257e+00  1.4977475947362131e+00  1.5851317238023328e+00 
 1.6762791980422755e+00  1.7712210586049419e+00  1.8699729697374829e+00  1.9725329131592948e+00 
 2.0788786827541585e+00  2.1889652165694491e+00  2.3027218238735481e+00  2.4200493875669364e+00 
 2.5408176451316722e+00  2.6648626725952331e+00  2.7919847132618925e+00  2.9219465034428072e+00 
 3.0544722481308915e+00  3.1892473876594449e+00  3.3259192694863420e+00  3.4640987959321512e+00 
 3.6033630589932875e+00  3.7432588991998408e+00  3.8833072411591694e+00  4.0230079707083055e+00 
 4.1618450367196411e+00  4.2992913957958665e+00  4.4348133827235596e+00  4.5678740958614590e+00 
 4.6979354450476460e+00  4.8244586268232368e+00  4.9469029687526049e+00  5.0647233147254722e+00 
 5.1773663906362017e+00  5.2842668692318888e+00  5.3848441092165267e+00  5.4785007342002769e+00 
 5.5646242949211526e+00  5.6425931778187453e+00  5.7117876478780971e+00  5.7716064250678780e+00 
 5.8214885007157626e+00  5.8609390478817023e+00  5.8895573539780086e+00  5.9070638291897257e+00 
 5.9133224736721832e+00  5.9083548814050806e+00  5.8923420607450350e+00  5.8656111517797438e+00 
 5.8286055293508259e+00  5.7818387104245952e+00  5.7258347462905137e+00  5.6610600981342714e+00 
 5.5878540365460152e+00  5.5064533995304785e+00  5.4172829405896907e+00  5.3207980940445765e+00 
 5.2174284029599045e+00  5.1076750021595894e+00  4.9920713363614917e+00  4.8711595366247487e+00 
 4.7454871488286834e+00  4.6156039522257561e+00  4.4820588876742118e+00  4.3453971133400486e+00 
 4.2061572037362849e+00  4.0648685059709502e+00  3.9220486650331310e+00  3.7782013278863564e+00 
 3.6338140340867704e+00  3.4893562986242834e+00  3.3452778907218637e+00  3.2020073104430082e+00 
 3.0599504631740571e+00  2.9194895303877830e+00  2.7809820335819366e+00  2.6447600869450105e+00 
 2.5111298331551670e+00  2.3803710557894719e+00  2.2527369611277934e+00  2.1284541216894874e+00 
 2.0077225736415536e+00  1.8907160602477195e+00  1.7775824137542253e+00  1.6684440684729949e+00 
 1.5633986982490802e+00  1.4625199718933448e+00  1.3658584204209319e+00  1.2734424099636885e+00 
 1.1852792139405668e+00  1.1013561774269325e+00  1.0216419656590261e+00  9.4608788729000959e-01 
 8.7462928147489172e-01  8.0718695623744807e-01  7.4366866402103238e-01  6.8397059900834267e-01 
 6.2797889985765021e-01  5.7557114105599694e-01  5.2661779619944959e-01  4.8098365719293967e-01 
 4.3852919458600270e-01  3.9911184595419114e-01  3.6258722129823079e-01  3.2881021674633815e-01 
 2.9763603028675978e-01  2.6892107570965207e-01  2.4252379329443488e-01  2.1830535795252332e-01 
 1.9613028745751951e-01  1.7586695501758534e-01  1.5738801173979833e-01  1.4057072549420485e-01 
 1.2529724331291398e-01  1.1145478477808841e-01  9.8935773895023865e-02  8.7637916754629175e-02 
 7.7464231911527959e-02  6.8323039890530804e-02  6.0127917635807285e-02  5.2797623080692691e-02 
 4.6255994382574717e-02  4.0431827769567837e-02  3.5258737407394630e-02  3.0675000230391932e-02 
 2.6623388295457313e-02  2.3050990910206674e-02  1.9909028549097041e-02  1.7152660392421387e-02 
 1.4740787189624833e-02  1.2635851046713883e-02  1.0803633654982308e-02  9.2130544040500140e-03 
 7.8359697478320983e-03  6.6469751115491365e-03  5.6232105376811054e-03  4.7441711673978839e-03 
 3.9915235417396456e-03  3.3489285852439763e-03  2.8018720062742940e-03  2.3375027159474237e-03 
 1.9444797344117101e-03  1.6128279223396611e-03  1.3338027496539212e-03  1.0997641950967120e-03 
 9.0405976121596648e-04  7.4091649112382324e-04  6.0534178695281153e-04  4.9303275580959407e-04 
 4.0029374732070383e-04  3.2396169734813361e-04  2.6133885460832254e-04  2.1013244001496159e-04 
 1.6840077167694394e-04  1.3450538059788067e-04  1.0706864215827916e-04  8.4936455307368469e-05 
 6.7145513950971579e-05  5.2894732235658099e-05  4.1520406298684674e-05  3.2474718655042588e-05 
 2.5307216891317213e-05  1.9648924988343582e-05  1.5198772754113553e-05  1.1712055963778376e-05 
 8.9906664160742190e-06  6.8748568537291760e-06  5.2363302691147117e-06  3.9724663090049714e-06 
 3.0015191529366346e-06  2.2586412749376603e-06  1.6926058642024269e-06  1.2631173738282602e-06 
 9.3861471895223542e-07  6.9448511426441497e-07  5.1161850406493714e-07  3.7524308866666204e-07 
 2.7399169170982121e-07  1.9915675209873642e-07  1.4409867205453595e-07  1.0377821858105764e-07 
 7.4388765668036529e-08  5.3068480087532613e-08  3.7676189770605618e-08  2.6617718543163014e-08 
 1.8712004992812913e-08  1.3088419256995999e-08  9.1084147197040024e-09  6.3060596912269120e-09 
 4.3431377614881570e-09  2.9754286959722119e-09  2.0275224419296198e-09  1.3741094779360792e-09 
 9.2615888106693468e-10  6.2076424008445121e-10  4.1372621805261748e-10  2.7416515219667588e-10 
 1.8063071185700050e-10  1.1830903368834575e-10  7.7029592438159433e-11  4.9851317037266347e-11 
 3.2065685951650185e-11  2.0498135557278083e-11  1.3021551210203742e-11  8.2195826578587440e-12 
 5.1551246208354233e-12  3.2121374950268272e-12  1.9882791543507273e-12  1.2225062582276552e-12 
 7.4658119489579855e-13  4.5281044558303175e-13  2.7272813412807298e-13  1.6310892218051304e-13 
 9.6854491755349051e-14  5.7097264451361589e-14  3.3413576771926314e-14  1.9408897727846698e-14 
 1.1189394296287866e-14  6.4017262562454472e-15  3.6343679244881337e-15  2.0471885474612471e-15 
 1.1440349105261421e-15  6.3420248468618342e-16  3.4872091876991307e-16  1.9017046201416012e-16 
 1.0284333979699116e-16  5.5148012836294375e-17  2.9319480174007385e-17  1.5452802220329104e-17 
 8.0729977800521886e-18  4.1801510468952782e-18  2.1450337905167383e-18  1.0907434053861990e-18 
 5.4958043976829044e-19  2.7438542399073927e-19  1.3575942931426037e-19  6.6594420365118096e-20 
 3.2419295062581432e-20  1.5698602377241116e-20  0.0000000000000000e+00  0.0000000000000000e+00 
 0.0000000000000000e+00  0.0000000000000000e+00  0.0000000000000000e+00  0.0000000000000000e+00 
 0.0000000000000000e+00  0.0000000000000000e+00  0.0000000000000000e+00  0.0000000000000000e+00 
 0.0000000000000000e+00  0.0000000000000000e+00  0.0000000000000000e+00  0.0000000000000000e+00 
 0.0000000000000000e+00  0.0000000000000000e+00  0.0000000000000000e+00  0.0000000000000000e+00 
 0.0000000000000000e+00  0.0000000000000000e+00  0.0000000000000000e+00  0.0000000000000000e+00 
 0.0000000000000000e+00  0.0000000000000000e+00  0.0000000000000000e+00  0.0000000000000000e+00 
 0.0000000000000000e+00  0.0000000000000000e+00  0.0000000000000000e+00  0.0000000000000000e+00 
 0.0000000000000000e+00  0.0000000000000000e+00  0.0000000000000000e+00  0.0000000000000000e+00 
 0.0000000000000000e+00  0.0000000000000000e+00  0.0000000000000000e+00  0.0000000000000000e+00 
 0.0000000000000000e+00  0.0000000000000000e+00  0.0000000000000000e+00  0.0000000000000000e+00 
 0.0000000000000000e+00  0.0000000000000000e+00  0.0000000000000000e+00  0.0000000000000000e+00 
 0.0000000000000000e+00  0.0000000000000000e+00  0.0000000000000000e+00  0.0000000000000000e+00 
 0.0000000000000000e+00  0.0000000000000000e+00  0.0000000000000000e+00  0.0000000000000000e+00 
 0.0000000000000000e+00  0.0000000000000000e+00  0.0000000000000000e+00  0.0000000000000000e+00 
 0.0000000000000000e+00  0.0000000000000000e+00  0.0000000000000000e+00  0.0000000000000000e+00 
 0.0000000000000000e+00  0.0000000000000000e+00  0.0000000000000000e+00  0.0000000000000000e+00 
 0.0000000000000000e+00  0.0000000000000000e+00  0.0000000000000000e+00  0.0000000000000000e+00 
 0.0000000000000000e+00  0.0000000000000000e+00  0.0000000000000000e+00  0.0000000000000000e+00 
 0.0000000000000000e+00  0.0000000000000000e+00  0.0000000000000000e+00  0.0000000000000000e+00 
 0.0000000000000000e+00  0.0000000000000000e+00  0.0000000000000000e+00  0.0000000000000000e+00 
 0.0000000000000000e+00  0.0000000000000000e+00  0.0000000000000000e+00  0.0000000000000000e+00 
 0.0000000000000000e+00  0.0000000000000000e+00  0.0000000000000000e+00  0.0000000000000000e+00 
 0.0000000000000000e+00  0.0000000000000000e+00  0.0000000000000000e+00  0.0000000000000000e+00 
 0.0000000000000000e+00  0.0000000000000000e+00  0.0000000000000000e+00  0.0000000000000000e+00 
 0.0000000000000000e+00  0.0000000000000000e+00  0.0000000000000000e+00  0.0000000000000000e+00 
 0.0000000000000000e+00  0.0000000000000000e+00  0.0000000000000000e+00  0.0000000000000000e+00 
 0.0000000000000000e+00  0.0000000000000000e+00  0.0000000000000000e+00  0.0000000000000000e+00 
 0.0000000000000000e+00  0.0000000000000000e+00  0.0000000000000000e+00  0.0000000000000000e+00 
 0.0000000000000000e+00  0.0000000000000000e+00  0.0000000000000000e+00  0.0000000000000000e+00 
 0.0000000000000000e+00  0.0000000000000000e+00  0.0000000000000000e+00  0.0000000000000000e+00 
 0.0000000000000000e+00  0.0000000000000000e+00  0.0000000000000000e+00  0.0000000000000000e+00 
 0.0000000000000000e+00  0.0000000000000000e+00  0.0000000000000000e+00  0.0000000000000000e+00 
 0.0000000000000000e+00  0.0000000000000000e+00  0.0000000000000000e+00  0.0000000000000000e+00 
 0.0000000000000000e+00  0.0000000000000000e+00  0.0000000000000000e+00 
</PP_RHOATOM>
