  <PP_INFO>

############################################################
#    Opium Parameter File                                  #
############################################################
#-----------------------------------------------------------
#Command line   : ./gopium h h.log all ke rpt upf 
 
#Opium version  : 4.1 
#Compile Host   : yang15.local 
#Compile OS     : Darwin 17.5.0 i386 
#Compile Date   : Tue Apr 10 00:25:10 EDT 2018 
#-----------------------------------------------------------
#Execution Host : Mac.lan 
#Execution Date : Wed Sep 24 21:56:07 2025
 
#-----------------------------------------------------------
############################################################
[Atom]
H  
1
100   1.00   -

[Pseudo]
1  0.77
opt

[Optinfo]
7.07  10
conmax

[Configs]
1
#
100  1.00  -

[XC]
pbesol
############################################################
  </PP_INFO>



<PP_HEADER>
   0         Version Number
   H        Element
   NC        Norm - Conserving pseudopotential
    F      Nonlinear Core Correction
SLA  PW   PSX  PSC     PBESOL  Exchange-Correlation functional
 1          Z valence
 0          Total energy
 0.000000   0.000000     Suggested cutoff for wfc and rho
 0           Max angular momentum component
 1076           Number of points in mesh
 1  0     Number of Wavefuncitons, Number of Projectors
 Wavefunctions         nl  l   occ
                       S  0  1.000000
</PP_HEADER>
<PP_MESH>
  <PP_R>
 1.0000000000000010e-04  1.0130848673598100e-04  1.0263409484734427e-04  1.0397704836501585e-04 
 1.0533757425133652e-04  1.0671590243841932e-04  1.0811226586700835e-04  1.0952690052584657e-04 
 1.1096004549155827e-04  1.1241194296905369e-04  1.1388283833246239e-04  1.1537298016660124e-04 
 1.1688262030898709e-04  1.1841201389239710e-04  1.1996141938798698e-04  1.2153109864897321e-04 
 1.2312131695488691e-04  1.2473234305640659e-04  1.2636444922077788e-04  1.2801791127782709e-04 
 1.2969300866657728e-04  1.3139002448247402e-04  1.3310924552522923e-04  1.3485096234729110e-04 
 1.3661546930294802e-04  1.3840306459807515e-04  1.4021405034053206e-04  1.4204873259121976e-04 
 1.4390742141580484e-04  1.4579043093712282e-04  1.4769807938826447e-04  1.4963068916635846e-04 
 1.5158858688705707e-04  1.5357210343973514e-04  1.5558157404341094e-04  1.5761733830339927e-04 
 1.5967974026870541e-04  1.6176912849017017e-04  1.6388585607937593e-04  1.6603028076832337e-04 
 1.6820276496988873e-04  1.7040367583907287e-04  1.7263338533505103e-04  1.7489227028403499e-04 
 1.7718071244295747e-04  1.7949909856399002e-04  1.8184782045990543e-04  1.8422727507029371e-04 
 1.8663786452864753e-04  1.8907999623032291e-04  1.9155408290138983e-04  1.9406054266838440e-04 
 1.9659979912897276e-04  1.9917228142354049e-04  2.0177842430771806e-04  2.0441866822585583e-04 
 2.0709345938545997e-04  2.0980324983260274e-04  2.1254849752831920e-04  2.1532966642600398e-04 
 2.1814722654982019e-04  2.2100165407413480e-04  2.2389343140399322e-04  2.2682304725664737e-04 
 2.2979099674414835e-04  2.3279778145702382e-04  2.3584390954904680e-04  2.3892989582311488e-04 
 2.4205626181825337e-04  2.4522353589775638e-04  2.4843225333848190e-04  2.5168295642131447e-04 
 2.5497619452281194e-04  2.5831252420805182e-04  2.6169250932469164e-04  2.6511672109826083e-04 
 2.6858573822869904e-04  2.7210014698815797e-04  2.7566054132008251e-04  2.7926752293958902e-04 
 2.8292170143515648e-04  2.8662369437164645e-04  2.9037412739467845e-04  2.9417363433635813e-04 
 2.9802285732240231e-04  3.0192244688065725e-04  3.0587306205103967e-04  3.0987537049691617e-04 
 3.1393004861793994e-04  3.1803778166436417e-04  3.2219926385285028e-04  3.2641519848379292e-04 
 3.3068629806017909e-04  3.3501328440800279e-04  3.3939688879825554e-04  3.4383785207051261e-04 
 3.4833692475813723e-04  3.5289486721512119e-04  3.5751244974458851e-04  3.6219045272897684e-04 
 3.6692966676192469e-04  3.7173089278188349e-04  3.7659494220747768e-04  3.8152263707463797e-04 
 3.8651481017552413e-04  3.9157230519927262e-04  3.9669597687457979e-04  4.0188669111415354e-04 
 4.0714532516105474e-04  4.1247276773695348e-04  4.1786991919232487e-04  4.2333769165861051e-04 
 4.2887700920237127e-04  4.3448880798145590e-04  4.4017403640321523e-04  4.4593365528478301e-04 
 4.5176863801545922e-04  4.5767997072121300e-04  4.6366865243134135e-04  4.6973569524730698e-04 
 4.7588212451378558e-04  4.8210897899195312e-04  4.8841731103503583e-04  4.9480818676616374e-04 
 5.0128268625854666e-04  5.0784190371800850e-04  5.1448694766791157e-04  5.2121894113649930e-04 
 5.2803902184669058e-04  5.3494834240835768e-04  5.4194807051312084e-04  5.4903938913168941e-04 
 5.5622349671378859e-04  5.6350160739069785e-04  5.7087495118044438e-04  5.7834477419567789e-04 
 5.8591233885426698e-04  5.9357892409265070e-04  6.0134582558198123e-04  6.0921435594709684e-04 
 6.1718584498835600e-04  6.2526163990638038e-04  6.3344310552973212e-04  6.4173162454557421e-04 
 6.5012859773334788e-04  6.5863544420150725e-04  6.6725360162735289e-04  6.7598452650000172e-04 
 6.8482969436653744e-04  6.9379060008138216e-04  7.0286875805893013e-04  7.1206570252948501e-04 
 7.2138298779855260e-04  7.3082218850951920e-04  7.4038489990977177e-04  7.5007273812029715e-04 
 7.5988734040881008e-04  7.6983036546645744e-04  7.7990349368813939e-04  7.9010842745650051e-04 
 8.0044689142963607e-04  8.1092063283256426e-04  8.2153142175251076e-04  8.3228105143805773e-04 
 8.4317133860220723e-04  8.5420412372940965e-04  8.6538127138661091e-04  8.7670467053836774e-04 
 8.8817623486608748e-04  8.9979790309144541e-04  9.1157163930403139e-04  9.2349943329328823e-04 
 9.3558330088478999e-04  9.4782528428092032e-04  9.6022745240600959e-04  9.7279190125598963e-04 
 9.8552075425262079e-04  9.9841616260235521e-04  1.0114803056598966e-03  1.0247153912965156e-03 
 1.0381236562731853e-03  1.0517073666185999e-03  1.0654688180121385e-03  1.0794103361718398e-03 
 1.0935342772474550e-03  1.1078430282186425e-03  1.1223390072983728e-03  1.1370246643416127e-03 
 1.1519024812593542e-03  1.1669749724380681e-03  1.1822446851646369e-03  1.1977142000568566e-03 
 1.2133861314995603e-03  1.2292631280864637e-03  1.2453478730677793e-03  1.2616430848036914e-03 
 1.2781515172237681e-03  1.2948759602923799e-03  1.3118192404802107e-03  1.3289842212419398e-03 
 1.3463738035001699e-03  1.3639909261356912e-03  1.3818385664841597e-03  1.3999197408392737e-03 
 1.4182375049625337e-03  1.4367949545996766e-03  1.4555952260038561e-03  1.4746414964656881e-03 
 1.4939369848502118e-03  1.5134849521408914e-03  1.5332887019907217e-03  1.5533515812805642e-03 
 1.5736769806847699e-03  1.5942683352442150e-03  1.6151291249468292e-03  1.6362628753157226e-03 
 1.6576731580050087e-03  1.6793635914034205e-03  1.7013378412458265e-03  1.7235996212327520e-03 
 1.7461526936579995e-03  1.7690008700444878e-03  1.7921480117884065e-03  1.8155980308118050e-03 
 1.8393548902237080e-03  1.8634226049899017e-03  1.8878052426114641e-03  1.9125069238121891e-03 
 1.9375318232349881e-03  1.9628841701474272e-03  1.9885682491564746e-03  2.0145884009326151e-03 
 2.0409490229434282e-03  2.0676545701967747e-03  2.0947095559937031e-03  2.1221185526912050e-03 
 2.1498861924749589e-03  2.1780171681421785e-03  2.2065162338947061e-03  2.2353882061424838e-03 
 2.2646379643175398e-03  2.2942704516986248e-03  2.3242906762466304e-03  2.3547037114509586e-03 
 2.3855146971869449e-03  2.4167288405845130e-03  2.4483514169081864e-03  2.4803877704486304e-03 
 2.5128433154258437e-03  2.5457235369041736e-03  2.5790339917193088e-03  2.6127803094173944e-03 
 2.6469681932064421e-03  2.6816034209201814e-03  2.7166918459945329e-03  2.7522393984568462e-03 
 2.7882520859280942e-03  2.8247359946381744e-03  2.8616972904544932e-03  2.8991422199240178e-03 
 2.9370771113289458e-03  2.9755083757562165e-03  3.0144425081809869e-03  3.0538860885643082e-03 
 3.0938457829651385e-03  3.1343283446669417e-03  3.1753406153189989e-03  3.2168895260926626e-03 
 3.2589820988527434e-03  3.3016254473442240e-03  3.3448267783944934e-03  3.3885933931313227e-03 
 3.4329326882167714e-03  3.4778521570972411e-03  3.5233593912698839e-03  3.5694620815655879e-03 
 3.6161680194487411e-03  3.6634850983340152e-03  3.7114213149203532e-03  3.7599847705424541e-03 
 3.8091836725399038e-03  3.8590263356442422e-03  3.9095211833841568e-03  3.9606767495091030e-03 
 4.0125016794315084e-03  4.0650047316878810e-03  4.1181947794190132e-03  4.1720808118695697e-03 
 4.2266719359072879e-03  4.2819773775620608e-03  4.3380064835851634e-03  4.3947687230288671e-03 
 4.4522736888467371e-03  4.5105310995148650e-03  4.5695508006743102e-03  4.6293427667950466e-03 
 4.6899171028616515e-03  4.7512840460810970e-03  4.8134539676128454e-03  4.8764373743216093e-03 
 4.9402449105530235e-03  5.0048873599325815e-03  5.0703756471880846e-03  5.1367208399959469e-03 
 5.2039341508516605e-03  5.2720269389647349e-03  5.3410107121784284e-03  5.4108971289146034e-03 
 5.4816980001440212e-03  5.5534252913824371e-03  5.6260911247127902e-03  5.6997077808338568e-03 
 5.7742877011357401e-03  5.8498434898024768e-03  5.9263879159421849e-03  6.0039339157450635e-03 
 6.0824945946696468e-03  6.1620832296576545e-03  6.2427132713778286e-03  6.3243983464991325e-03 
 6.4071522599936700e-03  6.4909889974697878e-03  6.5759227275356599e-03  6.6619678041938170e-03 
 6.7491387692670112e-03  6.8374503548558159e-03  6.9269174858283830e-03  7.0175552823427906e-03 
 7.1093790624023791e-03  7.2024043444445180e-03  7.2966468499632876e-03  7.3921225061664248e-03 
 7.4888474486670730e-03  7.5868380242107248e-03  7.6861107934378782e-03  7.7866825336828102e-03 
 7.8885702418089922e-03  7.9917911370816063e-03  8.0963626640776169e-03  8.2023024956339816e-03 
 8.3096285358343850e-03  8.4183589230350606e-03  8.5285120329302404e-03  8.6401064816576667e-03 
 8.7531611289447843e-03  8.8676950812960620e-03  8.9837276952220626e-03  9.1012785805106855e-03 
 9.2203676035413403e-03  9.3410148906423567e-03  9.4632408314924161e-03  9.5870660825664224e-03 
 9.7125115706265270e-03  9.8395984962587873e-03  9.9683483374561101e-03  1.0098782853248105e-02 
 1.0230924087378371e-02  1.0364794372029992e-02  1.0500416331599699e-02  1.0637812886521455e-02 
 1.0777007257140056e-02  1.0918022967635433e-02  1.1060883849998291e-02  1.1205614048057774e-02 
 1.1352238021561833e-02  1.1500780550310950e-02  1.1651266738346041e-02  1.1803722018191055e-02 
 1.1958172155151141e-02  1.2114643251667055e-02  1.2273161751726526e-02  1.2433754445333350e-02 
 1.2596448473034970e-02  1.2761271330509315e-02  1.2928250873211563e-02  1.3097415321081872e-02 
 1.3268793263314559e-02  1.3442413663189757e-02  1.3618305862968281e-02  1.3796499588850531e-02 
 1.3977024956000299e-02  1.4159912473634307e-02  1.4345193050178328e-02  1.4532897998490765e-02 
 1.4723059041154653e-02  1.4915708315838801e-02  1.5110878380729151e-02  1.5308602220031197e-02 
 1.5508913249544383e-02  1.5711845322309459e-02  1.5917432734329714e-02  1.6125710230367116e-02 
 1.6336713009814183e-02  1.6550476732642871e-02  1.6767037525431110e-02  1.6986431987468319e-02 
 1.7208697196940754e-02  1.7433870717197843e-02  1.7661990603100437e-02  1.7893095407452202e-02 
 1.8127224187515136e-02  1.8364416511610294e-02  1.8604712465805001e-02  1.8848152660687446e-02 
 1.9094778238229977e-02  1.9344630878742185e-02  1.9597752807914991e-02  1.9854186803956883e-02 
 2.0113976204823528e-02  2.0377164915542024e-02  2.0643797415630844e-02  2.0913918766617141e-02 
 2.1187574619652146e-02  2.1464811223226351e-02  2.1745675430985611e-02  2.2030214709649519e-02 
 2.2318477147033396e-02  2.2610511460175255e-02  2.2906367003569114e-02  2.3206093777505921e-02 
 2.3509742436523880e-02  2.3817364297969070e-02  2.4129011350668243e-02  2.4444736263715065e-02 
 2.4764592395371293e-02  2.5088633802084460e-02  2.5416915247623559e-02  2.5749492212334246e-02 
 2.6086420902515072e-02  2.6427758259916632e-02  2.6773561971364740e-02  2.7123890478509678e-02 
 2.7478802987702965e-02  2.7838359480003381e-02  2.8202620721313913e-02  2.8571648272651299e-02 
 2.8945504500550084e-02  2.9324252587602542e-02  2.9707956543136859e-02  3.0096681214034776e-02 
 3.0490492295690876e-02  3.0889456343115271e-02  3.1293640782181546e-02  3.1703113921021903e-02 
 3.2117944961571394e-02  3.2538204011263228e-02  3.2963962094877015e-02  3.3395291166542260e-02 
 3.3832264121898666e-02  3.4274954810415738e-02  3.4723438047873471e-02  3.5177789629006445e-02 
 3.5638086340313263e-02  3.6104405973033694e-02  3.6576827336295560e-02  3.7055430270433627e-02 
 3.7540295660482906e-02  3.8031505449848339e-02  3.8529142654153463e-02  3.9033291375270222e-02 
 3.9544036815532410e-02  4.0061465292135057e-02  4.0585664251722248e-02  4.1116722285165802e-02 
 4.1654729142537303e-02  4.2199775748276179e-02  4.2751954216556060e-02  4.3311357866852328e-02 
 4.3878081239713318e-02  4.4452220112737889e-02  4.5033871516762095e-02  4.5623133752257614e-02 
 4.6220106405944768e-02  4.6824890367622822e-02  4.7437587847220762e-02  4.8058302392070935e-02 
 4.8687138904408782e-02  4.9324203659101562e-02  4.9969604321609122e-02  5.0623449966179526e-02 
 5.1285851094282908e-02  5.1956919653286561e-02  5.2636769055374080e-02  5.3325514196712540e-02 
 5.4023271476870145e-02  5.4730158818487945e-02  5.5446295687209143e-02  5.6171803111869034e-02 
 5.6906803704949140e-02  5.7651421683299092e-02  5.8405782889129537e-02  5.9170014811279599e-02 
 5.9944246606763139e-02  6.0728609122596311e-02  6.1523234917911174e-02  6.2328258286358421e-02 
 6.3143815278803334e-02  6.3970043726318773e-02  6.4807083263478824e-02  6.5655075351957609e-02 
 6.6514163304436255e-02  6.7384492308823485e-02  6.8266209452792506e-02  6.9159463748639224e-02 
 7.0064406158465695e-02  7.0981189619693019e-02  7.1909969070908145e-02  7.2850901478048957e-02 
 7.3804145860931800e-02  7.4769863320126098e-02  7.5748217064181014e-02  7.6739372437207840e-02 
 7.7743496946823684e-02  7.8760760292460597e-02  7.9791334394045149e-02  8.0835393421053406e-02 
 8.1893113821945890e-02  8.2964674353987855e-02  8.4050256113459551e-02  8.5150042566262130e-02 
 8.6264219578923787e-02  8.7392975450011443e-02  8.8536500941953880e-02  8.9694989313280973e-02 
 9.0868636351284740e-02  9.2057640405108027e-02  9.3262202419265944e-02  9.4482525967605716e-02 
 9.5718817287711533e-02  9.6971285315759034e-02  9.8240141721825949e-02  9.9525600945664885e-02 
 1.0082788023294419e-01  1.0214719967196297e-01  1.0348378223084655e-01  1.0483785379522863e-01 
 1.0620964320642626e-01  1.0759938230011498e-01  1.0900730594550938e-01  1.1043365208505650e-01 
 1.1187866177464875e-01  1.1334257922436299e-01  1.1482565183973242e-01  1.1632813026355893e-01 
 1.1785026841827229e-01  1.1939232354884330e-01  1.2095455626625930e-01  1.2253723059156785e-01 
 1.2414061400049688e-01  1.2576497746865864e-01  1.2741059551734540e-01  1.2907774625992416e-01 
 1.3076671144883834e-01  1.3247777652322495e-01  1.3421123065715376e-01  1.3596736680849936e-01 
 1.3774648176845108e-01  1.3954887621167161e-01  1.4137485474711176e-01  1.4322472596948999e-01 
 1.4509880251144575e-01  1.4699740109637516e-01  1.4892084259195801e-01  1.5086945206438476e-01 
 1.5284355883329431e-01  1.5484349652742915e-01  1.5686960314101961e-01  1.5892222109090573e-01 
 1.6100169727440650e-01  1.6310838312794623e-01  1.6524263468644834e-01  1.6740481264350604e-01 
 1.6959528241234001e-01  1.7181441418755480e-01  1.7406258300770230e-01  1.7634016881866382e-01 
 1.7864755653786235e-01  1.8098513611931424e-01  1.8335330261953253e-01  1.8575245626429202e-01 
 1.8818300251626918e-01  1.9064535214356518e-01  1.9313992128912782e-01  1.9566713154108001e-01 
 1.9822741000396937e-01  2.0082118937094978e-01  2.0344890799690776e-01  2.0611100997254531e-01 
 2.0880794519943230e-01  2.1154016946604137e-01  2.1430814452477603e-01  2.1711233817000955e-01 
 2.1995322431714215e-01  2.2283128308269423e-01  2.2574700086544736e-01  2.2870087042864645e-01 
 2.3169339098327815e-01  2.3472506827243875e-01  2.3779641465680593e-01  2.4090794920122838e-01 
 2.4406019776245008e-01  2.4725369307798051e-01  2.5048897485612887e-01  2.5376658986721584e-01 
 2.5708709203597940e-01  2.6045104253518919e-01  2.6385900988048611e-01  2.6731157002646311e-01 
 2.7080930646400170e-01  2.7435281031888498e-01  2.7794268045169845e-01  2.8157952355903876e-01 
 2.8526395427604695e-01  2.8899659528028371e-01  2.9277807739696260e-01  2.9660903970556179e-01 
 3.0049012964782940e-01  3.0442200313720313e-01  3.0840532466966075e-01  3.1244076743602212e-01 
 3.1652901343571999e-01  3.2067075359205760e-01  3.2486668786897965e-01  3.2911752538936584e-01 
 3.3342398455487421e-01  3.3778679316735377e-01  3.4220668855184389e-01  3.4668441768118424e-01 
 3.5122073730225523e-01  3.5581641406386949e-01  3.6047222464633816e-01  3.6518895589273082e-01 
 3.6996740494185437e-01  3.7480837936297123e-01  3.7971269729228080e-01  3.8468118757118552e-01 
 3.8971468988636832e-01  3.9481405491170057e-01  3.9998014445200930e-01  4.0521383158872110e-01 
 4.1051600082741951e-01  4.1588754824732554e-01  4.2132938165273798e-01  4.2684242072645440e-01 
 4.3242759718519991e-01  4.3808585493708924e-01  4.4381815024114957e-01  4.4962545186893077e-01 
 4.5550874126822999e-01  4.6146901272895835e-01  4.6750727355117883e-01  4.7362454421534195e-01 
 4.7982185855474985e-01  4.8610026393027567e-01  4.9246082140737152e-01  4.9890460593538960e-01 
 5.0543270652925287e-01  5.1204622645349751e-01  5.1874628340873219e-01  5.2553400972052944e-01 
 5.3241055253079117e-01  5.3937707399161927e-01  5.4643475146172138e-01  5.5358477770538816e-01 
 5.6082836109407264e-01  5.6816672581060756e-01  5.7560111205609643e-01  5.8313277625950910e-01 
 5.9076299129002197e-01  5.9849304667213599e-01  6.0632424880360891e-01  6.1425792117624001e-01 
 6.2229540459954302e-01  6.3043805742734682e-01  6.3868725578736052e-01  6.4704439381373857e-01 
 6.5551088388269940e-01  6.6408815685121569e-01  6.7277766229883385e-01  6.8158086877265656e-01 
 6.9049926403553019e-01  6.9953435531748076e-01  7.0868766957043972e-01  7.1796075372630108e-01 
 7.2735517495835822e-01  7.3687252094615918e-01  7.4651440014382764e-01  7.5628244205189721e-01 
 7.6617829749269861e-01  7.7620363888935495e-01  7.8636016054842328e-01  7.9664957894623756e-01 
 8.0707363301899815e-01  8.1763408445665109e-01  8.2833271800062513e-01  8.3917134174545349e-01 
 8.5015178744434594e-01  8.6127591081875965e-01  8.7254559187202163e-01  8.8396273520705326e-01 
 8.9552927034825169e-01  9.0724715206758533e-01  9.1911836071495390e-01  9.3114490255287430e-01 
 9.4332881009554093e-01  9.5567214245232779e-01  9.6817698567578081e-01  9.8084545311416826e-01 
 9.9367968576863885e-01  1.0066818526550583e+00  1.0198541511705783e+00  1.0331988074649963e+00 
 1.0467180768169884e+00  1.0604142440152531e+00  1.0742896237446451e+00  1.0883465609773628e+00 
 1.1025874313692561e+00  1.1170146416613151e+00  1.1316306300864181e+00  1.1464378667813961e+00 
 1.1614388542044931e+00  1.1766361275582875e+00  1.1920322552181473e+00  1.2076298391662907e+00 
 1.2234315154315292e+00  1.2394399545347610e+00  1.2556578619402960e+00  1.2720879785130863e+00 
 1.2887330809819397e+00  1.3055959824087868e+00  1.3226795326641052e+00  1.3399866189085494e+00 
 1.3575201660808864e+00  1.3752831373923209e+00  1.3932785348272816e+00  1.4115093996507657e+00 
 1.4299788129223197e+00  1.4486898960167454e+00  1.4676458111516202e+00  1.4868497619217182e+00 
 1.5063049938404278e+00  1.5260147948882479e+00  1.5459824960684665e+00  1.5662114719701090e+00 
 1.5867051413382494e+00  1.6074669676517874e+00  1.6285004597087882e+00  1.6498091722194659e+00 
 1.6713967064069539e+00  1.6932667106159107e+00  1.7154228809291001e+00  1.7378689617920386e+00 
 1.7606087466458167e+00  1.7836460785681969e+00  1.8069848509231057e+00  1.8306290080186185e+00 
 1.8545825457735610e+00  1.8788495123928250e+00  1.9034340090515272e+00  1.9283401905881157e+00 
 1.9535722662065504e+00  1.9791345001876646e+00  2.0050312126098424e+00  2.0312667800791195e+00 
 2.0578456364688442e+00  2.0847722736690009e+00  2.1120512423453679e+00  2.1396871527085772e+00 
 2.1676846752932559e+00  2.1960485417473588e+00  2.2247835456318250e+00  2.2538945432307034e+00 
 2.2833864543718740e+00  2.3132642632585152e+00  2.3435330193114390e+00  2.3741978380224622e+00 
 2.4052639018189317e+00  2.4367364609395694e+00  2.4686208343217739e+00  2.5009224105005354e+00 
 2.5336466485191091e+00  2.5667990788516062e+00  2.6003853043376637e+00  2.6344110011293194e+00 
 2.6688819196503180e+00  2.7038038855679347e+00  2.7391828007775283e+00  2.7750246443999727e+00 
 2.8113354737921474e+00  2.8481214255706435e+00  2.8853887166488659e+00  2.9231436452877055e+00 
 2.9613925921599642e+00  3.0001420214286978e+00  3.0393984818396822e+00  3.0791686078281590e+00 
 3.1194591206400792e+00  3.1602768294680010e+00  3.2016286326018677e+00  3.2435215185948296e+00 
 3.2859625674443356e+00  3.3289589517886418e+00  3.3725179381190449e+00  3.4166468880079095e+00 
 3.4613532593527978e+00  3.5066446076368720e+00  3.5525285872057895e+00  3.5990129525613077e+00 
 3.6461055596718071e+00  3.6938143672999750e+00  3.7421474383478528e+00  3.7911129412194833e+00 
 3.8407191512013963e+00  3.8909744518611444e+00  3.9418873364641533e+00  3.9934664094090975e+00 
 4.0457203876820689e+00  4.0986581023297637e+00  4.1522884999519620e+00  4.2066206442134950e+00 
 4.2616637173760630e+00  4.3174270218500395e+00  4.3739199817666039e+00  4.4311521445704374e+00 
 4.4891331826332745e+00  4.5478728948885490e+00  4.6073812084874364e+00  4.6676681804765714e+00 
 4.7287439994977074e+00  4.7906189875096290e+00  4.8533036015325752e+00  4.9168084354155122e+00 
 4.9811442216265149e+00  5.0463218330665764e+00  5.1123522849071614e+00  5.1792467364517885e+00 
 5.2470164930219942e+00  5.3156730078679164e+00  5.3852278841039860e+00  5.4556928766698318e+00 
 5.5270798943169117e+00  5.5994010016211160e+00  5.6726684210217106e+00  5.7468945348869562e+00 
 5.8220918876067644e+00  5.8982731877127188e+00  5.9754513100258571e+00  6.0536392978325440e+00 
 6.1328503650888102e+00  6.2130978986535537e+00  6.2943954605509438e+00  6.3767567902624380e+00 
 6.4601958070487822e+00  6.5447266123024104e+00  6.6303634919306118e+00  6.7171209187698446e+00 
 6.8050135550317465e+00  6.8940562547810398e+00  6.9842640664459115e+00  7.0756522353612370e+00 
 7.1682362063450746e+00  7.2620316263088815e+00  7.3570543469018714e+00  7.4533204271899880e+00 
 7.5508461363699260e+00  7.6496479565186535e+00  7.7497425853789332e+00  7.8511469391812794e+00 
 7.9538781555028386e+00  8.0579535961636761e+00  8.1633908501609742e+00  8.2702077366416109e+00 
 8.3784223079136471e+00  8.4880528524971623e+00  8.5991178982151375e+00  8.7116362153246421e+00 
 8.8256268196890719e+00  8.9411089759918774e+00  9.0581022009923284e+00  9.1766262668239094e+00 
 9.2967012043358395e+00  9.4183473064783509e+00  9.5415851317322335e+00  9.6664355075832766e+00 
 9.7929195340421540e+00  9.9210585872103767e+00  1.0050874322892923e+01  1.0182388680258086e+01 
 1.0315623885545284e+01  1.0450602455821322e+01  1.0587347202785857e+01  1.0725881236626556e+01 
 1.0866227969924878e+01  1.1008411121612793e+01  1.1152454720981344e+01  1.1298383111741662e+01 
 1.1446220956139108e+01  1.1595993239121254e+01  1.1747725272560398e+01  1.1901442699531326e+01 
 1.2057171498645063e+01  1.2214937988439308e+01  1.2374768831826323e+01  1.2536691040599072e+01 
 1.2700731979996219e+01  1.2866919373326951e+01  1.3035281306656294e+01  1.3205846233551693e+01 
 1.3378642979891772e+01  1.3553700748737896e+01  1.3731049125269674e+01  1.3910718081784852e+01 
 1.4092737982764707e+01  1.4277139590005723e+01  1.4463954067818428e+01  1.4653212988294200e+01 
 1.4844948336641060e+01  1.5039192516589230e+01  1.5235978355867429e+01  1.5435339111750878e+01 
 1.5637308476681811e+01  1.5841920583963612e+01  1.6049210013529404e+01  1.6259211797786158e+01 
 1.6471961427535231e+01  1.6687494857970417e+01  1.6905848514754485e+01  1.7127059300175073e+01 
 1.7351164599381452e+01  1.7578202286702570e+01  1.7808210732047964e+01  1.8041228807392340e+01 
 1.8277295893345038e+01  1.8516451885805438e+01  1.8758737202705490e+01  1.9004192790840406e+01 
 1.9252860132788797e+01  1.9504781253923291e+01  1.9759998729512965e+01  2.0018555691918639e+01 
 2.0280495837882345e+01  2.0545863435912196e+01  2.0814703333763855e+01  2.1087060966019937e+01 
 2.1362982361768548e+01  2.1642514152382230e+01  2.1925703579398942e+01  2.2212598502505870e+01 
 2.2503247407627850e+01  2.2797699415121627e+01  2.3096004288077292e+01  2.3398212440728365e+01 
 2.3704374946971928e+01  2.4014543549000241e+01  2.4328770666045269e+01  2.4647109403237678e+01 
 2.4969613560581752e+01  2.5296337642047650e+01  2.5627336864782791e+01  2.5962667168443616e+01 
 2.6302385224649573e+01  2.6646548446560711e+01  2.6995214998580728e+01  2.7348443806186687e+01 
 2.7706294565887831e+01  2.8068827755314274e+01  2.8436104643437890e+01  2.8808187300926921e+01 
 2.9185138610636095e+01  2.9567022278233900e+01  2.9953902842969111e+01  3.0345845688577970e+01 
 3.0742917054334253e+01  3.1145184046243823e+01  3.1552714648385763e+01  3.1965577734401798e+01 
 3.2383843079136113e+01  3.2807581370427471e+01  3.3236864221055662e+01  3.3671764180844157e+01 
 3.4112354748921334e+01  3.4558710386141733e+01  3.5010906527670443e+01  3.5469019595731687e+01 
 3.5933127012524302e+01  3.6403307213306348e+01  3.6879639659650849e+01  3.7362204852874925e+01 
 3.7851084347644814e+01  3.8346360765758689e+01  3.8848117810110040e+01  3.9356440278833553e+01 
 3.9871414079636345e+01  4.0393126244316406e+01  4.0921664943471306e+01  4.1457119501399177e+01 
 4.1999580411194742e+01  4.2549139350042857e+01  4.3105889194712276e+01  4.3669924037251704e+01 
 4.4241339200892092e+01  4.4820231256156084e+01  4.5406698037178849e+01  4.6000838658242245e+01 
 4.6602753530525320e+01  4.7212544379074117e+01  4.7830314259993393e+01  4.8456167577863404e+01 
 4.9090210103384415e+01  4.9732548991252365e+01  5.0383292798268108e+01  5.1042551501683867e+01 
 5.1710436517789617e+01  5.2387060720742731e+01  5.3072538461643909e+01  5.3766985587862884e+01 
 5.4470519462616920e+01  5.5183258984805171e+01  5.5905324609103339e+01  5.6636838366320525e+01 
 5.7377923884022778e+01  5.8128706407426428e+01  5.8889312820564896e+01  5.9659871667732290e+01 
 6.0440513175207791e+01  6.1231369273264178e+01  6.2032573618464326e+01  6.2844261616249511e+01 
 6.3666570443823282e+01  6.4499639073334649e+01  6.5343608295364788e+01  6.6198620742720962e+01 
 6.7064820914541770e+01  6.7942355200718026e+01  6.8831371906632455e+01  6.9732021278224423e+01 
 7.0644455527381353e+01  7.1568828857663078e+01  7.2505297490362480e+01  7.3454019690907373e+01 
 7.4415155795607703e+01  7.5388868238752750e+01  7.6375321580062931e+01  7.7374682532500842e+01 
 7.8387119990445939e+01  7.9412805058238376e+01  8.0451911079095794e+01  8.1504613664408907e+01 
 8.2571090723420184e+01  8.3651522493290898e+01  8.4746091569561699e+01  8.5854982937011783e+01 
 8.6978384000921267e+01  8.8116484618743868e+01  8.9269477132192776e+01  9.0437556399747038e+01 
 9.1620919829582959e+01  9.2819767412936756e+01  9.4034301757903364e+01  9.5264728123677784e+01 
 9.6511254455244384e+01  9.7774091418520044e+01  9.9053452435957212e+01  1.0034955372261287e+02 
 1.0166261432268929e+02  1.0299285614655311e+02  1.0434050400823865e+02  1.0570578566344207e+02 
 1.0708893184801262e+02  1.0849017631694768e+02  1.0990975588389725e+02  1.1134791046118704e+02 
 1.1280488310036358e+02  1.1428092003327059e+02  1.1577627071366290e+02  1.1729118785936451e+02 
  </PP_R>
  <PP_RAB>
 1.3000000000000013e-06  1.3170103275677530e-06  1.3342432330154754e-06  1.3517016287452059e-06 
 1.3693884652673746e-06  1.3873067316994510e-06  1.4054594562711086e-06  1.4238497068360053e-06 
 1.4424805913902575e-06  1.4613552585976978e-06  1.4804768983220109e-06  1.4998487421658160e-06 
 1.5194740640168320e-06  1.5393561806011623e-06  1.5594984520438307e-06  1.5799042824366516e-06 
 1.6005771204135297e-06  1.6215204597332856e-06  1.6427378398701124e-06  1.6642328466117520e-06 
 1.6860091126655045e-06  1.7080703182721622e-06  1.7304201918279799e-06  1.7530625105147842e-06 
 1.7760011009383242e-06  1.7992398397749768e-06  1.8227826544269166e-06  1.8466335236858567e-06 
 1.8707964784054629e-06  1.8952756021825965e-06  1.9200750320474382e-06  1.9451989591626601e-06 
 1.9706516295317417e-06  1.9964373447165568e-06  2.0225604625643419e-06  2.0490253979441905e-06 
 2.0758366234931702e-06  2.1029986703722122e-06  2.1305161290318871e-06  2.1583936499882038e-06 
 2.1866359446085533e-06  2.2152477859079473e-06  2.2442340093556633e-06  2.2735995136924549e-06 
 2.3033492617584472e-06  2.3334882813318700e-06  2.3640216659787706e-06  2.3949545759138181e-06 
 2.4262922388724176e-06  2.4580399509941976e-06  2.4902030777180679e-06  2.5227870546889970e-06 
 2.5557973886766459e-06  2.5892396585060262e-06  2.6231195160003346e-06  2.6574426869361258e-06 
 2.6922149720109796e-06  2.7274422478238356e-06  2.7631304678681494e-06  2.7992856635380516e-06 
 2.8359139451476623e-06  2.8730215029637521e-06  2.9106146082519116e-06  2.9486996143364156e-06 
 2.9872829576739283e-06  3.0263711589413095e-06  3.0659708241376081e-06  3.1060886457004933e-06 
 3.1467314036372936e-06  3.1879059666708330e-06  3.2296192934002645e-06  3.2718784334770879e-06 
 3.3146905287965550e-06  3.3580628147046735e-06  3.4020026212209912e-06  3.4465173742773907e-06 
 3.4916145969730873e-06  3.5373019108460533e-06  3.5835870371610724e-06  3.6304777982146571e-06 
 3.6779821186570341e-06  3.7261080268314038e-06  3.7748636561308195e-06  3.8242572463726556e-06 
 3.8742971451912300e-06  3.9249918094485437e-06  3.9763498066635156e-06  4.0283798164599100e-06 
 4.0810906320332186e-06  4.1344911616367337e-06  4.1885904300870532e-06  4.2433975802893075e-06 
 4.2989218747823281e-06  4.3551726973040363e-06  4.4121595543773222e-06  4.4698920769166640e-06 
 4.5283800218557836e-06  4.5876332737965750e-06  4.6476618466796502e-06  4.7084758854766987e-06 
 4.7700856679050209e-06  4.8325016061644853e-06  4.8957342486972099e-06  4.9597942819702934e-06 
 5.0246925322818137e-06  5.0904399675905440e-06  5.1570476993695370e-06  5.2245269844839956e-06 
 5.2928892270937112e-06  5.3621459805803948e-06  5.4323089495002227e-06  5.5033899915619364e-06 
 5.5754011196308265e-06  5.6483545037589261e-06  5.7222624732417974e-06  5.7971375187021792e-06 
 5.8729922942009693e-06  5.9498396193757684e-06  6.0276924816074370e-06  6.1065640382149908e-06 
 6.1864676186792120e-06  6.2674167268953903e-06  6.3494250434554657e-06  6.4325064279601283e-06 
 6.5166749213611060e-06  6.6019447483341100e-06  6.6883303196828504e-06  6.7758462347744907e-06 
 6.8645072840069777e-06  6.9543284513086491e-06  7.0453249166705709e-06  7.1375120587119619e-06 
 7.2309054572792510e-06  7.3255208960790714e-06  7.4213743653457765e-06  7.5184820645438123e-06 
 7.6168604051054701e-06  7.7165260132044585e-06  7.8174957325657556e-06  7.9197866273122585e-06 
 8.0234159848486276e-06  8.1284013187829446e-06  8.2347603718865172e-06  8.3425111190924650e-06 
 8.4516717705335221e-06  8.5622607746195940e-06  8.6742968211555876e-06  8.7877988445000226e-06 
 8.9027860267649864e-06  9.0192778010579680e-06  9.1372938547660910e-06  9.2568541328833049e-06 
 9.3779788413811831e-06  9.5006884506237497e-06  9.6250036988270318e-06  9.7509455955638626e-06 
 9.8785354253145309e-06  1.0007794751063946e-05  1.0138745417945812e-05  1.0271409556934506e-05 
 1.0405809588585268e-05  1.0541968226823335e-05  1.0679908482782640e-05  1.0819653668694750e-05 
 1.0961227401828693e-05  1.1104653608482325e-05  1.1249956528025942e-05  1.1397160716998781e-05 
 1.1546291053259137e-05  1.1697372740188790e-05  1.1850431310952408e-05  1.2005492632812747e-05 
 1.2162582911502270e-05  1.2321728695651964e-05  1.2482956881278124e-05  1.2646294716327864e-05 
 1.2811769805284069e-05  1.2979410113830617e-05  1.3149243973578655e-05  1.3321300086854703e-05 
 1.3495607531551409e-05  1.3672195766041797e-05  1.3851094634157800e-05  1.4032334370233916e-05 
 1.4215945604216915e-05  1.4401959366842353e-05  1.4590407094878846e-05  1.4781320636440965e-05 
 1.4974732256371604e-05  1.5170674641694884e-05  1.5369180907140279e-05  1.5570284600739136e-05 
 1.5774019709494282e-05  1.5980420665124028e-05  1.6189522349881130e-05  1.6401360102447987e-05 
 1.6615969723908983e-05  1.6833387483800938e-05  1.7053650126242738e-05  1.7276794876145216e-05 
 1.7502859445502209e-05  1.7731882039763985e-05  1.7963901364294077e-05  1.8198956630910559e-05 
 1.8437087564512939e-05  1.8678334409795794e-05  1.8922737938050129e-05  1.9170339454053944e-05 
 1.9421180803052752e-05  1.9675304377831588e-05  1.9932753125879380e-05  2.0193570556647333e-05 
 2.0457800748902008e-05  2.0725488358174794e-05  2.0996678624308780e-05  2.1271417379104392e-05 
 2.1549751054065111e-05  2.1831726688244466e-05  2.2117391936195743e-05  2.2406795076025774e-05 
 2.2699985017553991e-05  2.2997011310578339e-05  2.3297924153249285e-05  2.3602774400553464e-05 
 2.3911613572908202e-05  2.4224493864868723e-05  2.4541468153949032e-05  2.4862590009558456e-05 
 2.5187913702054844e-05  2.5517494211916552e-05  2.5851387239034167e-05  2.6189649212123994e-05 
 2.6532337298264564e-05  2.6879509412558070e-05  2.7231224227918138e-05  2.7587541184985662e-05 
 2.7948520502174464e-05  2.8314223185848319e-05  2.8684711040631178e-05  2.9060046679852288e-05 
 2.9440293536128017e-05  2.9825515872082123e-05  3.0215778791206194e-05  3.0611148248862461e-05 
 3.1011691063430281e-05  3.1417474927598666e-05  3.1828568419806423e-05  3.2245041015832190e-05 
 3.2666963100535970e-05  3.3094405979754255e-05  3.3527441892351011e-05  3.3966144022426126e-05 
 3.4410586511683747e-05  3.4860844471962357e-05  3.5316993997928928e-05  3.5779112179939001e-05 
 3.6247277117065223e-05  3.6721567930296266e-05  3.7202064775908413e-05  3.7688848859012231e-05 
 3.8182002447276297e-05  3.8681608884830811e-05  3.9187752606352824e-05  3.9700519151336005e-05 
 4.0219995178546797e-05  4.0746268480670238e-05  4.1279427999146983e-05  4.1819563839204615e-05 
 4.2366767285085661e-05  4.2921130815474912e-05  4.3482748119128409e-05  4.4051714110707195e-05 
 4.4628124946818029e-05  4.5212078042264132e-05  4.5803672086508491e-05  4.6403007060352638e-05 
 4.7010184252833631e-05  4.7625306278342192e-05  4.8248477093964591e-05  4.8879802017051903e-05 
 4.9519387743018748e-05  5.0167342363375147e-05  5.0823775383994036e-05  5.1488797743618335e-05 
 5.2162521832609607e-05  5.2845061511942451e-05  5.3536532132447166e-05  5.4237050554304404e-05 
 5.4946735166794742e-05  5.5665705908306787e-05  5.6394084286607122e-05  5.7131993399375271e-05 
 5.7879557955007581e-05  5.8636904293693243e-05  5.9404160408766032e-05  6.0181455968335604e-05 
 6.0968922337201470e-05  6.1766692599054258e-05  6.2574901578966988e-05  6.3393685866180915e-05 
 6.4223183837189298e-05  6.5063535679123560e-05  6.5914883413445091e-05  6.6777370919947305e-05 
 6.7651143961071586e-05  6.8536350206541550e-05  6.9433139258319568e-05  7.0341662675889839e-05 
 7.1262074001872267e-05  7.2194528787971682e-05  7.3139184621266265e-05  7.4096201150840129e-05 
 7.5065740114764614e-05  7.6047965367432191e-05  7.7043042907248407e-05  7.8051140904685816e-05 
 7.9072429730705411e-05  8.0107081985549504e-05  8.1155272527911769e-05  8.2217178504488713e-05 
 8.3292979379917702e-05  8.4382856967107241e-05  8.5486995457963579e-05  8.6605581454519612e-05 
 8.7738804000471145e-05  8.8886854613125604e-05  9.0049927315768977e-05  9.1228218670456269e-05 
 9.2421927811230922e-05  9.3631256477778724e-05  9.4856409049522730e-05  9.6097592580163512e-05 
 9.7355016832671940e-05  9.8628894314739415e-05  9.9919440314692412e-05  1.0122687293787653e-04 
 1.0255141314351689e-04  1.0389328478206088e-04  1.0525271463300902e-04  1.0662993244324176e-04 
 1.0802517096584700e-04  1.0943866599945578e-04  1.1087065642809312e-04  1.1232138426154966e-04 
 1.1379109467628219e-04  1.1528003605684880e-04  1.1678846003788681e-04  1.1831662154663890e-04 
 1.1986477884603742e-04  1.2143319357835063e-04  1.2302213080940140e-04  1.2463185907336349e-04 
 1.2626265041814486e-04  1.2791478045136423e-04  1.2958852838692943e-04  1.3128417709222536e-04 
 1.3300201313591882e-04  1.3474232683638988e-04  1.3650541231079608e-04  1.3829156752477890e-04 
 1.4010109434282073e-04  1.4193429857926063e-04  1.4379149004997778e-04  1.4567298262475105e-04 
 1.4757909428030381e-04  1.4951014715404234e-04  1.5146646759849853e-04  1.5344838623648373e-04 
 1.5545623801696483e-04  1.5749036227167171e-04  1.5955110277244484e-04  1.6163880778933355e-04 
 1.6375383014945459e-04  1.6589652729662109e-04  1.6806726135175032e-04  1.7026639917406433e-04 
 1.7249431242308925e-04  1.7475137762146682e-04  1.7703797621858764e-04  1.7935449465505688e-04 
 1.8170132442800387e-04  1.8407886215724599e-04  1.8648750965231825e-04  1.8892767398037994e-04 
 1.9139976753501049e-04  1.9390420810590440e-04  1.9644141894947895e-04  1.9901182886040555e-04 
 2.0161587224407697e-04  2.0425398919002297e-04  2.0692662554628628e-04  2.0963423299477250e-04 
 2.1237726912758437e-04  2.1515619752435731e-04  2.1797148783060443e-04  2.2082361583708812e-04 
 2.2371306356022978e-04  2.2664031932357196e-04  2.2960587784030568e-04  2.3261024029687862e-04 
 2.3565391443769676e-04  2.3873741465093380e-04  2.4186126205546501e-04  2.4502598458893681e-04 
 2.4823211709698969e-04  2.5148020142364837e-04  2.5477078650289485e-04  2.5810442845143947e-04 
 2.6148169066270583e-04  2.6490314390204629e-04  2.6836936640320098e-04  2.7188094396602281e-04 
 2.7543847005547791e-04  2.7904254590194254e-04  2.8269378060281295e-04  2.8639279122544373e-04 
 2.9014020291143411e-04  2.9393664898227830e-04  2.9778277104639846e-04  3.0167921910757698e-04 
 3.0562665167481045e-04  3.0962573587359790e-04  3.1367714755868716e-04  3.1778157142829585e-04 
 3.2193970113982679e-04  3.2615223942709796e-04  3.3041989821910623e-04  3.3474339876034520e-04 
 3.3912347173269591e-04  3.4356085737891621e-04  3.4805630562774161e-04  3.5261057622062579e-04 
 3.5722443884013850e-04  3.6189867324004394e-04  3.6663406937708086e-04  3.7143142754446687e-04 
 3.7629155850715107e-04  3.8121528363883303e-04  3.8620343506077913e-04  3.9125685578245205e-04 
 3.9637639984398137e-04  4.0156293246049852e-04  4.0681733016836006e-04  4.1214048097328471e-04 
 4.1753328450042809e-04  4.2299665214642196e-04  4.2853150723340118e-04  4.3413878516504933e-04 
 4.3981943358468263e-04  4.4557441253540456e-04  4.5140469462235511e-04  4.5731126517708375e-04 
 4.6329512242407241e-04  4.6935727764943800e-04  4.7549875537184226e-04  4.8172059351563713e-04 
 4.8802384358627774e-04  4.9440957084802837e-04  5.0087885450399497e-04  5.0743278787851291e-04 
 5.1407247860192130e-04  5.2079904879775572e-04  5.2761363527238918e-04  5.3451738970715541e-04 
 5.4151147885298488e-04  5.4859708472759035e-04  5.5577540481522875e-04  5.6304765226908022e-04 
 5.7041505611627309e-04  5.7787886146559253e-04  5.8544032971790717e-04  5.9310073877934895e-04 
 6.0086138327728193e-04  6.0872357477909664e-04  6.1668864201386991e-04  6.2475793109692209e-04 
 6.3293280575731417e-04  6.4121464756832023e-04  6.4960485618091850e-04  6.5810484956033382e-04 
 6.6671606422567776e-04  6.7543995549272531e-04  6.8427799771986306e-04  6.9323168455726297e-04 
 7.0230252919931189e-04  7.1149206464034330e-04  7.2080184393371878e-04  7.3023344045429744e-04 
 7.3978844816433877e-04  7.4946848188288818e-04  7.5927517755868391e-04  7.6921019254663477e-04 
 7.7927520588792082e-04  7.8947191859375199e-04  7.9980205393284523e-04  8.1026735772265948e-04 
 8.2086959862444331e-04  8.3161056844214404e-04  8.4249208242522466e-04  8.5351597957544886e-04 
 8.6468412295767128e-04  8.7599840001470529e-04  8.8746072288630254e-04  8.9907302873230984e-04 
 9.1083728006005399e-04  9.2275546505600926e-04  9.3482959792180579e-04  9.4706171921463643e-04 
 9.5945389619211334e-04  9.7200822316163924e-04  9.8472682183435318e-04  9.9761184168370193e-04 
 1.0106654603087078e-03  1.0238898838019878e-03  1.0372873471225870e-03  1.0508601144736942e-03 
 1.0646104796852966e-03  1.0785407666018421e-03  1.0926533294749741e-03  1.1069505533614077e-03 
 1.1214348545260091e-03  1.1361086808501487e-03  1.1509745122454003e-03  1.1660348610726527e-03 
 1.1812922725667016e-03  1.1967493252664043e-03  1.2124086314504571e-03  1.2282728375788742e-03 
 1.2443446247402499e-03  1.2606267091048674e-03  1.2771218423837372e-03  1.2938328122936436e-03 
 1.3107624430282743e-03  1.3279135957355184e-03  1.3452891690010050e-03  1.3628920993379722e-03 
 1.3807253616835414e-03  1.3987919699014948e-03  1.4170949772916218e-03  1.4356374771057343e-03 
 1.4544226030704338e-03  1.4734535299167188e-03  1.4927334739165215e-03  1.5122656934262659e-03 
 1.5320534894375396e-03  1.5521002061349629e-03  1.5724092314613708e-03  1.5929839976903820e-03 
 1.6138279820064594e-03  1.6349447070925622e-03  1.6563377417254902e-03  1.6780107013790141e-03 
 1.6999672488348984e-03  1.7222110948019243e-03  1.7447459985429987e-03  1.7675757685104915e-03 
 1.7907042629898640e-03  1.8141353907517308e-03  1.8378731117124527e-03  1.8619214376033697e-03 
 1.8862844326487946e-03  1.9109662142528770e-03  1.9359709536954540e-03  1.9613028768370017e-03 
 1.9869662648328260e-03  2.0129654548565789e-03  2.0393048408332546e-03  2.0659888741817742e-03 
 2.0930220645672842e-03  2.1204089806633008e-03  2.1481542509238284e-03  2.1762625643655786e-03 
 2.2047386713604199e-03  2.2335873844382122e-03  2.2628135791001296e-03  2.2924221946426294e-03 
 2.3224182349922103e-03  2.3528067695510850e-03  2.3835929340539227e-03  2.4147819314357961e-03 
 2.4463790327114991e-03  2.4783895778663473e-03  2.5108189767586615e-03  2.5436727100340401e-03 
 2.5769563300516015e-03  2.6106754618223471e-03  2.6448358039598010e-03  2.6794431296430889e-03 
 2.7145032875926199e-03  2.7500222030585378e-03  2.7860058788220883e-03  2.8224603962101239e-03 
 2.8593919161228479e-03  2.8968066800750250e-03  2.9347110112508154e-03  2.9731113155724038e-03 
 3.0120140827826158e-03  3.0514258875417037e-03  3.0913533905384768e-03  3.1318033396159689e-03 
 3.1727825709118511e-03  3.2142980100137463e-03  3.2563566731296750e-03  3.2989656682738057e-03 
 3.3421321964677321e-03  3.3858635529574591e-03  3.4301671284463191e-03  3.4750504103440204e-03 
 3.5205209840320217e-03  3.5665865341455044e-03  3.6132548458720796e-03  3.6605338062675038e-03 
 3.7084314055886103e-03  3.7569557386436881e-03  3.8061150061605136e-03  3.8559175161723032e-03 
 3.9063716854217823e-03  3.9574860407836409e-03  4.0092692207055894e-03  4.0617299766682871e-03 
 4.1148771746643597e-03  4.1687197966967489e-03  4.2232669422967353e-03  4.2785278300617553e-03 
 4.3345117992133649e-03  4.3912283111755988e-03  4.4486869511739706e-03  4.5068974298553954e-03 
 4.5658695849293178e-03  4.6256133828303028e-03  4.6861389204023961e-03  4.7474564266055006e-03 
 4.8095762642441069e-03  4.8725089317186261e-03  4.9362650647996505e-03  5.0008554384254117e-03 
 5.0662909685227882e-03  5.1325827138521069e-03  5.1997418778761207e-03  5.2677798106533736e-03 
 5.3367080107564538e-03  5.4065381272152321e-03  5.4772819614855930e-03  5.5489514694439072e-03 
 5.6215587634075989e-03  5.6951161141821595e-03  5.7696359531349438e-03  5.8451308742960995e-03 
 5.9216136364869899e-03  5.9990971654764582e-03  6.0775945561653243e-03  6.1571190747994452e-03 
 6.2376841612117474e-03  6.3193034310935836e-03  6.4019906782958299e-03  6.4857598771600649e-03 
 6.5706251848802874e-03  6.6566009438954674e-03  6.7437016843135186e-03  6.8319421263668828e-03 
 6.9213371829002848e-03  7.0119019618910504e-03  7.1036517690023773e-03  7.1966021101700457e-03 
 7.2907686942229443e-03  7.3861674355378982e-03  7.4828144567292533e-03  7.5807260913736182e-03 
 7.6799188867702848e-03  7.7804096067377671e-03  7.8822152344469147e-03  7.9853529752911198e-03 
 8.0898402597940587e-03  8.1956947465555083e-03  8.3029343252356870e-03  8.4115771195786004e-03 
 8.5216414904750910e-03  8.6331460390658039e-03  8.7461096098848390e-03  8.8605512940445347e-03 
 8.9764904324618928e-03  9.0939466191272498e-03  9.2129397044157166e-03  9.3334897984419136e-03 
 9.4556172744586567e-03  9.5793427723000688e-03  9.7046872018697588e-03  9.8316717466746632e-03 
 9.9603178674050816e-03  1.0090647305561614e-02  1.0222682087129502e-02  1.0356444526301087e-02 
 1.0491957229246975e-02  1.0629243097936465e-02  1.0768325334008125e-02  1.0909227442690895e-02 
 1.1051973236776497e-02  1.1196586840643875e-02  1.1343092694336280e-02  1.1491515557691692e-02 
 1.1641880514527272e-02  1.1794212976878609e-02  1.1948538689294401e-02  1.2104883733187365e-02 
 1.2263274531242031e-02  1.2423737851880261e-02  1.2586300813785150e-02  1.2750990890484187e-02 
 1.2917835914992305e-02  1.3086864084515757e-02  1.3258103965217517e-02  1.3431584497044950e-02 
 1.3607334998620848e-02  1.3785385172198289e-02  1.3965765108680386e-02  1.4148505292705716e-02 
 1.4333636607800328e-02  1.4521190341597096e-02  1.4711198191123435e-02  1.4903692268158150e-02 
 1.5098705104658409e-02  1.5296269658257736e-02  1.5496419317835913e-02  1.5699187909161780e-02 
 1.5904609700609879e-02  1.6112719408951891e-02  1.6323552205223846e-02  1.6537143720670121e-02 
 1.6753530052765215e-02  1.6972747771314228e-02  1.7194833924633366e-02  1.7419826045811142e-02 
 1.7647762159051523e-02  1.7878680786100172e-02  1.8112620952754659e-02  1.8349622195459953e-02 
 1.8589724567990153e-02  1.8832968648217690e-02  1.9079395544971060e-02  1.9329046904982335e-02 
 1.9581964919925560e-02  1.9838192333547222e-02  2.0097772448890064e-02  2.0360749135611415e-02 
 2.0627166837397241e-02  2.0897070579473237e-02  2.1170505976214244e-02  2.1447519238853057e-02 
 2.1728157183290402e-02  2.2012467238006837e-02  2.2300497452078301e-02  2.2592296503296503e-02 
 2.2887913706395615e-02  2.3187399021386560e-02  2.3490803062000371e-02  2.3798177104242039e-02 
 2.4109573095056291e-02  2.4425043661106725e-02  2.4744642117669850e-02  2.5068422477645503e-02 
 2.5396439460685153e-02  2.5728748502439638e-02  2.6065405763927949e-02  2.6406468141028552e-02 
 2.6751993274094974e-02  2.7102039557697011e-02  2.7456666150489781e-02  2.7815932985211504e-02 
 2.8179900778812324e-02  2.8548631042715662e-02  2.8922186093213724e-02  2.9300629061999144e-02 
 2.9684023906834361e-02  3.0072435422360697e-02  3.0465929251048705e-02  3.0864571894292009e-02 
 3.1268430723646108e-02  3.1677573992214401e-02  3.2092070846183061e-02  3.2511991336506958e-02 
 3.2937406430748419e-02  3.3368388025070882e-02  3.3805008956389625e-02  3.4247343014681152e-02 
 3.4695464955454135e-02  3.5149450512383149e-02  3.5609376410107869e-02  3.6075320377199641e-02 
 3.6547361159297916e-02  3.7025578532418363e-02  3.7510053316435255e-02  3.8000867388740173e-02 
 3.8498103698079530e-02  3.9001846278573067e-02  3.9512180263915869e-02  4.0029191901766063e-02 
 4.0552968568321031e-02  4.1083598783084013e-02  4.1621172223824277e-02  4.2165779741732780e-02 
 4.2717513376776359e-02  4.3276466373252338e-02  4.3842733195547580e-02  4.4416409544102822e-02 
 4.4997592371586369e-02  4.5586379899279335e-02  4.6182871633675258e-02  4.6787168383296995e-02 
 4.7399372275733487e-02  4.8019586774899675e-02  4.8647916698522087e-02  4.9284468235853279e-02 
 4.9929348965618146e-02  5.0582667874194874e-02  5.1244535374033992e-02  5.1915063322318267e-02 
 5.2594365039866892e-02  5.3282555330286925e-02  5.3979750499375506e-02  5.4686068374775430e-02 
 5.5401628325888817e-02  5.6126551284050509e-02  5.6860959762965846e-02  5.7604977879415681e-02 
 5.8358731374232566e-02  5.9122347633551134e-02  5.9895955710336672e-02  6.0679686346195423e-02 
 6.1473671993470196e-02  6.2278046837625174e-02  6.3092946819923473e-02  6.3918509660401648e-02 
 6.4754874881144689e-02  6.5602183829865490e-02  6.6460579703793099e-02  6.7330207573873244e-02 
 6.8211214409285917e-02  6.9103749102282910e-02  7.0007962493351811e-02  7.0924007396707817e-02 
 7.1852038626119843e-02  7.2792213021074498e-02  7.3744689473282235e-02  7.4709628953530421e-02 
 7.5687194538887934e-02  7.6677551440265335e-02  7.7680867030336137e-02  7.8697310871823065e-02 
 7.9727054746154533e-02  8.0770272682496189e-02  8.1827140987162261e-02  8.2897838273411684e-02 
 8.3982545491634170e-02  8.5081445959931334e-02  8.6194725395097954e-02  8.7322571944007971e-02 
 8.8465176215412694e-02  8.9622731312153509e-02  9.0795432863796849e-02  9.1983479059696074e-02 
 9.3187070682485967e-02  9.4406411142015451e-02  9.5641706509724325e-02  9.6893165553469843e-02 
 9.8160999772809038e-02  9.9445423434742497e-02  1.0074665360992613e-01  1.0206491020935662e-01 
 1.0340041602153689e-01  1.0475339675012778e-01  1.0612408105209266e-01  1.0751270057634094e-01 
 1.0891949000287740e-01  1.1034468708246310e-01  1.1178853267679678e-01  1.1325127079922034e-01 
 1.1473314865595793e-01  1.1623441668789440e-01  1.1775532861290026e-01  1.1929614146871081e-01 
 1.2085711565636591e-01  1.2243851498421855e-01  1.2404060671251903e-01  1.2566366159858258e-01 
 1.2730795394254799e-01  1.2897376163373489e-01  1.3066136619760799e-01  1.3237105284335510e-01 
 1.3410311051208867e-01  1.3585783192567719e-01  1.3763551363621612e-01  1.3943645607614522e-01 
 1.4126096360902340e-01  1.4310934458096630e-01  1.4498191137275748e-01  1.4687898045264161e-01 
 1.4880087242980838e-01  1.5074791210857630e-01  1.5272042854328516e-01  1.5471875509390723e-01 
 1.5674322948238581e-01  1.5879419384971100e-01  1.6087199481374220e-01  1.6297698352778792e-01 
 1.6510951573995084e-01  1.6726995185325036e-01  1.6945865698653181e-01  1.7167600103617200e-01 
 1.7392235873859302e-01  1.7619810973359265e-01  1.7850363862850577e-01  1.8083933506320307e-01 
 1.8320559377594117e-01  1.8560281467007439e-01  1.8803140288163955e-01  1.9049176884782459e-01 
 1.9298432837633378e-01  1.9550950271565998e-01  1.9806771862627656e-01  2.0065940845276140e-01 
 2.0328501019686354e-01  2.0594496759152695e-01  2.0863973017588225e-01  2.1136975337122005e-01 
 2.1413549855795799e-01  2.1693743315361541e-01  2.1977603069180829e-01  2.2265177090227595e-01 
 2.2556513979195886e-01  2.2851662972713341e-01  2.3150673951662354e-01  2.3453597449610042e-01 
 2.3760484661348547e-01  2.4071387451547069e-01  2.4386358363517135e-01  2.4705450628092526e-01 
 2.5028718172625436e-01  2.5356215630100276e-01  2.5687998348366853e-01  2.6024122399494232e-01 
 2.6364644589247049e-01  2.6709622466685856e-01  2.7059114333893008e-01  2.7413179255825915e-01 
 2.7771877070299111e-01  2.8135268398096897e-01  2.8503414653218623e-01  2.8876378053257629e-01 
 2.9254221629916205e-01  2.9637009239658113e-01  3.0024805574500479e-01  3.0417676172946873e-01 
 3.0815687431063504e-01  3.1218906613700309e-01  3.1627401865858851e-01  3.2041242224208982e-01 
 3.2460497628756274e-01  3.2885238934661942e-01  3.3315537924217625e-01  3.3751467318976697e-01 
 3.4193100792044445e-01  3.4640512980528920e-01  3.5093779498154942e-01  3.5552976948042692e-01 
 3.6018182935654180e-01  3.6489476081908556e-01  3.6966936036469256e-01  3.7450643491204993e-01 
 3.7940680193826920e-01  3.8437128961704070e-01  3.8940073695859845e-01  3.9449599395151358e-01 
 3.9965792170634529e-01  4.0488739260116968e-01  4.1018529042901491e-01  4.1555251054722336e-01 
 4.2098996002876943e-01  4.2649855781555712e-01  4.3207923487372357e-01  4.3773293435097405e-01 
 4.4346061173597734e-01  4.4926323501984250e-01  4.5514178485971574e-01  4.6109725474451191e-01 
 4.6713065116281594e-01  4.7324299377298251e-01  4.7943531557546099e-01  4.8570866308737398e-01 
 4.9206409651938254e-01  4.9850268995486291e-01  5.0502553153143048e-01  5.1163372362483617e-01 
 5.1832838303527251e-01  5.2511064117611328e-01  5.3198164426512695e-01  5.3894255351818932e-01 
 5.4599454534553160e-01  5.5313881155055711e-01  5.6037655953125953e-01  5.6770901248427208e-01 
 5.7513740961159721e-01  5.8266300633002910e-01  5.9028707448332496e-01  5.9801090255714917e-01 
 6.0583579589682912e-01  6.1376307692796350e-01  6.2179408537991410e-01  6.2993017851222421e-01 
 6.3817273134399732e-01  6.4652313688628071e-01  6.5498280637748540e-01  6.6355316952189025e-01 
 6.7223567473126500e-01  6.8103178936965547e-01  6.8994300000137077e-01  6.9897081264221750e-01 
 7.0811675301401988e-01  7.1738236680246714e-01  7.2676921991834342e-01  7.3627889876216679e-01 
 7.4591301049229608e-01  7.5567318329654354e-01  7.6556106666734358e-01  7.7557833168051971e-01 
 7.8572667127770124e-01  7.9600780055243425e-01  8.0642345704003615e-01  8.1697540101124366e-01 
 8.2766541576970265e-01  8.3849530795335037e-01  8.4946690783974221e-01  8.6058206965537243e-01 
 8.7184267188904296e-01  8.8325061760933432e-01  8.9480783478622183e-01  9.0651627661691747e-01 
 9.1837792185595757e-01  9.3039477514961999e-01  9.4256886737471224e-01  9.5490225598179579e-01 
 9.6739702534290006e-01  9.8005528710378564e-01  9.9287918054081803e-01  1.0058708729225110e+00 
 1.0190325598757972e+00  1.0323664657570988e+00  1.0458748440282453e+00  1.0595599776373157e+00 
 1.0734241794044623e+00  1.0874697924127816e+00  1.1016991904043021e+00  1.1161147781811531e+00 
 1.1307189920119765e+00  1.1455143000436703e+00  1.1605032027185060e+00  1.1756882331967113e+00 
 1.1910719577845785e+00  1.2066569763681778e+00  1.2224459228527438e+00  1.2384414656078111e+00 
 1.2546463079181769e+00  1.2710631884407606e+00  1.2876948816674436e+00  1.3045441983939672e+00 
 1.3216139861949607e+00  1.3389071299051905e+00  1.3564265521071024e+00  1.3741752136247469e+00 
 1.3921561140241641e+00  1.4103722921203199e+00  1.4288268264906641e+00  1.4475228359954315e+00 
 1.4664634803047265e+00  1.4856519604325176e+00  1.5050915192776175e+00  1.5247854421717386e+00 
  </PP_RAB>
</PP_MESH>


<PP_LOCAL>
-2.5653175274663540e+00 -2.5653179416054908e+00 -2.5653183668277131e+00 -2.5653188035237622e+00 
-2.5653192519311330e+00 -2.5653197123752443e+00 -2.5653201851911431e+00 -2.5653206707240477e+00 
-2.5653211693290427e+00 -2.5653216813743756e+00 -2.5653222072396185e+00 -2.5653227473152480e+00 
-2.5653233020040678e+00 -2.5653238717237210e+00 -2.5653244569067266e+00 -2.5653250579968785e+00 
-2.5653256754549725e+00 -2.5653263097584795e+00 -2.5653269613996392e+00 -2.5653276308904616e+00 
-2.5653283187611891e+00 -2.5653290255594383e+00 -2.5653297518542644e+00 -2.5653304982382688e+00 
-2.5653312653260025e+00 -2.5653320537563573e+00 -2.5653328641933983e+00 -2.5653336973285641e+00 
-2.5653345538853980e+00 -2.5653354346160828e+00 -2.5653363403057021e+00 -2.5653372717774321e+00 
-2.5653382298896736e+00 -2.5653392155434616e+00 -2.5653402296865857e+00 -2.5653412733099041e+00 
-2.5653423474573711e+00 -2.5653434532279578e+00 -2.5653445917789188e+00 -2.5653457643368949e+00 
-2.5653469721975326e+00 -2.5653482167303281e+00 -2.5653494993894221e+00 -2.5653508217209722e+00 
-2.5653521853720584e+00 -2.5653535920993233e+00 -2.5653550437775676e+00 -2.5653565424113158e+00 
-2.5653580901517570e+00 -2.5653596893141599e+00 -2.5653613423855126e+00 -2.5653630520449493e+00 
-2.5653648211903626e+00 -2.5653666529605967e+00 -2.5653685507579573e+00 -2.5653705182738178e+00 
-2.5653725595294512e+00 -2.5653746789166636e+00 -2.5653768812285347e+00 -2.5653791717075221e+00 
-2.5653815561055575e+00 -2.5653840407574400e+00 -2.5653866326149917e+00 -2.5653893393301193e+00 
-2.5653921693889621e+00 -2.5653951321537756e+00 -2.5653982379915572e+00 -2.5654014984203717e+00 
-2.5654049262248617e+00 -2.5654085356447123e+00 -2.5654123425348700e+00 -2.5654163645831964e+00 
-2.5654206215754622e+00 -2.5654251356107260e+00 -2.5654299314566953e+00 -2.5654350369439083e+00 
-2.5654404832179880e+00 -2.5654463052964789e+00 -2.5654525426945698e+00 -2.5654592398038591e+00 
-2.5654664466587427e+00 -2.5654742197750875e+00 -2.5654826229345482e+00 -2.5654917282709424e+00 
-2.5655016174029766e+00 -2.5655123826304194e+00 -2.5655241285634305e+00 -2.5655369739345653e+00 
-2.5655510533086514e+00 -2.5655665194723967e+00 -2.5655835460126224e+00 -2.5656023301921973e+00 
-2.5656230964496385e+00 -2.5656461000666204e+00 -2.5656716315798511e+00 -2.5657000219841666e+00 
-2.5657316484315418e+00 -2.5657669403992172e+00 -2.5658063878615631e+00 -2.5658505498699569e+00 
-2.5659000635214966e+00 -2.5659556558468832e+00 -2.5660181567254474e+00 -2.5660885132131157e+00 
-2.5661678062042541e+00 -2.5662572694213299e+00 -2.5663583110588686e+00 -2.5664725381676115e+00 
-2.5666017848611009e+00 -2.5667481435801855e+00 -2.5669140006806908e+00 -2.5671020784326397e+00 
-2.5673154787924508e+00 -2.5675577351053200e+00 -2.5678328720561443e+00 -2.5681454691694530e+00 
-2.5685007330830074e+00 -2.5689045783493638e+00 -2.5693637191756595e+00 -2.5698857669334014e+00 
-2.5704793401873900e+00 -2.5711541837038996e+00 -2.5719212990896470e+00 -2.5727930867267608e+00 
-2.5737834895752321e+00 -2.5749081581147020e+00 -2.5761846151222456e+00 -2.5776324172060741e+00 
-2.5792733281097275e+00 -2.5811314905240170e+00 -2.5832335650427707e+00 -2.5856088637530794e+00 
-2.5882894588348750e+00 -2.5913102250115556e+00 -2.5947088355681265e+00 -2.5985256526000158e+00 
-2.6028035359898123e+00 -2.6075874931325527e+00 -2.6129241398598606e+00 -2.6188609903582329e+00 
-2.6254454776265259e+00 -2.6327236353582535e+00 -2.6407384631092845e+00 -2.6495279358905641e+00 
-2.6591225148048121e+00 -2.6695422774131381e+00 -2.6807934513164917e+00 -2.6928645176106287e+00 
-2.7057220425532691e+00 -2.7193059389787444e+00 -2.7335245375429045e+00 -2.7482497988632106e+00 
-2.7633126882780683e+00 -2.7784990968891159e+00 -2.7935470192294791e+00 -2.8081452236285211e+00 
-2.8219340445956136e+00 -2.8345093478583481e+00 -2.8454298628751982e+00 -2.8542284283262851e+00 
-2.8604283371806347e+00 -2.8635643502813983e+00 -2.8632084059698055e+00 -2.8589999943263487e+00 
-2.8506794869828842e+00 -2.8381231578063266e+00 -2.8213775506224055e+00 -2.8006899710342208e+00 
-2.7765318351179529e+00 -2.7496109154793933e+00 -2.7208689910480466e+00 -2.6914615640962651e+00 
-2.6627171095277880e+00 -2.6360756944933104e+00 -2.6130080391012309e+00 -2.5949186093102639e+00 
-2.5830392207588466e+00 -2.5783216074206821e+00 -2.5783047043748764e+00 -2.5783468639161233e+00 
-2.5783901153862483e+00 -2.5784345140074265e+00 -2.5784800928113807e+00 -2.5785268625597184e+00 
-2.5785748676465112e+00 -2.5786241400246648e+00 -2.5786746944534560e+00 -2.5787265893749121e+00 
-2.5787798608210188e+00 -2.5788345260690453e+00 -2.5788906306489787e+00 -2.5789482139322488e+00 
-2.5790073120881241e+00 -2.5790679671831906e+00 -2.5791302231145830e+00 -2.5791941152963767e+00 
-2.5792596872832183e+00 -2.5793269927752616e+00 -2.5793960678698751e+00 -2.5794669568468600e+00 
-2.5795397215400282e+00 -2.5796144006462338e+00 -2.5796910345202666e+00 -2.5797696966071650e+00 
-2.5798504343776858e+00 -2.5799332892170828e+00 -2.5800183294071592e+00 -2.5801056087793186e+00 
-2.5801951820929117e+00 -2.5802871202586486e+00 -2.5803814786968489e+00 -2.5804783191960090e+00 
-2.5805777118565016e+00 -2.5806797170393465e+00 -2.5807844094851435e+00 -2.5808918618238335e+00 
-2.5810021416745328e+00 -2.5811153225580683e+00 -2.5812314871514306e+00 -2.5813507099009554e+00 
-2.5814730653300719e+00 -2.5815986486366285e+00 -2.5817275393074279e+00 -2.5818598170345259e+00 
-2.5819955798719709e+00 -2.5821349192603509e+00 -2.5822779251684849e+00 -2.5824246962714175e+00 
-2.5825753294388023e+00 -2.5827299268930601e+00 -2.5828885974036635e+00 -2.5830514430045546e+00 
-2.5832185746154726e+00 -2.5833901078982655e+00 -2.5835661546273587e+00 -2.5837468345609600e+00 
-2.5839322715885618e+00 -2.5841225893474364e+00 -2.5843179153103089e+00 -2.5845183812548287e+00 
-2.5847241259721567e+00 -2.5849352854611389e+00 -2.5851519998047756e+00 -2.5853744192178882e+00 
-2.5856026902446771e+00 -2.5858369697650394e+00 -2.5860774160252289e+00 -2.5863241868569422e+00 
-2.5865774518198963e+00 -2.5868373807119638e+00 -2.5871041496715836e+00 -2.5873779385540288e+00 
-2.5876589304321973e+00 -2.5879473152448282e+00 -2.5882432861311826e+00 -2.5885470447777390e+00 
-2.5888587951379622e+00 -2.5891787452816732e+00 -2.5895071124024445e+00 -2.5898441171954967e+00 
-2.5901899870781526e+00 -2.5905449547420663e+00 -2.5909092576286601e+00 -2.5912831424873271e+00 
-2.5916668614283336e+00 -2.5920606701295918e+00 -2.5924648354503366e+00 -2.5928796306898234e+00 
-2.5933053319570711e+00 -2.5937422261638652e+00 -2.5941906085865925e+00 -2.5946507791455806e+00 
-2.5951230476049276e+00 -2.5956077330008491e+00 -2.5961051588488124e+00 -2.5966156604423696e+00 
-2.5971395805378221e+00 -2.5976772701066451e+00 -2.5982290925099378e+00 -2.5987954165052329e+00 
-2.5993766225188395e+00 -2.5999731021106642e+00 -2.6005852538464280e+00 -2.6012134886047540e+00 
-2.6018582289556575e+00 -2.6025199067610272e+00 -2.6031989658936032e+00 -2.6038958614391006e+00 
-2.6046110600060008e+00 -2.6053450418177051e+00 -2.6060982988067907e+00 -2.6068713342800103e+00 
-2.6076646665903049e+00 -2.6084788278839866e+00 -2.6093143613362551e+00 -2.6101718264274929e+00 
-2.6110517983423756e+00 -2.6119548641254293e+00 -2.6128816272740969e+00 -2.6138327088207576e+00 
-2.6148087432271558e+00 -2.6158103816715319e+00 -2.6168382945932112e+00 -2.6178931680304882e+00 
-2.6189757051085225e+00 -2.6200866281817086e+00 -2.6212266782753435e+00 -2.6223966156834235e+00 
-2.6235972197155522e+00 -2.6248292901280275e+00 -2.6260936475203933e+00 -2.6273911331750073e+00 
-2.6287226106525492e+00 -2.6300889651067880e+00 -2.6314911050963294e+00 -2.6329299626630851e+00 
-2.6344064926985600e+00 -2.6359216755854495e+00 -2.6374765169360614e+00 -2.6390720479057386e+00 
-2.6407093259557124e+00 -2.6423894357318205e+00 -2.6441134900804921e+00 -2.6458826295706972e+00 
-2.6476980242555470e+00 -2.6495608746119172e+00 -2.6514724110045629e+00 -2.6534338956972103e+00 
-2.6554466228035118e+00 -2.6575119190235350e+00 -2.6596311457801520e+00 -2.6618056986920839e+00 
-2.6640370084397587e+00 -2.6663265420999571e+00 -2.6686758040115164e+00 -2.6710863370073388e+00 
-2.6735597224350607e+00 -2.6760975812112142e+00 -2.6787015760924691e+00 -2.6813734112599152e+00 
-2.6841148332579006e+00 -2.6869276333995140e+00 -2.6898136475483256e+00 -2.6927747572864877e+00 
-2.6958128917145605e+00 -2.6989300279284567e+00 -2.7021281926411236e+00 -2.7054094628166832e+00 
-2.7087759668440268e+00 -2.7122298865608867e+00 -2.7157734574291310e+00 -2.7194089703506079e+00 
-2.7231387732594374e+00 -2.7269652713927086e+00 -2.7308909293563572e+00 -2.7349182726800225e+00 
-2.7390498885128047e+00 -2.7432884273156808e+00 -2.7476366044324876e+00 -2.7520972012882399e+00 
-2.7566730670631756e+00 -2.7613671198649037e+00 -2.7661823484829791e+00 -2.7711218141577056e+00 
-2.7761886515127507e+00 -2.7813860705069779e+00 -2.7867173581026949e+00 -2.7921858797994501e+00 
-2.7977950813091743e+00 -2.8035484900193377e+00 -2.8094497168785590e+00 -2.8155024583043184e+00 
-2.8217104975069223e+00 -2.8280777062299745e+00 -2.8346080469988664e+00 -2.8413055746559901e+00 
-2.8481744378369562e+00 -2.8552188810429482e+00 -2.8624432467183181e+00 -2.8698519767809714e+00 
-2.8774496144632624e+00 -2.8852408062858741e+00 -2.8932303038207476e+00 -2.9014229657083566e+00 
-2.9098237595471614e+00 -2.9184377635563052e+00 -2.9272701684934175e+00 -2.9363262797217202e+00 
-2.9456115190068815e+00 -2.9551314262133910e+00 -2.9648916613046996e+00 -2.9748980061574666e+00 
-2.9851563662476015e+00 -2.9956727726290424e+00 -3.0064533835616789e+00 -3.0175044862391633e+00 
-3.0288324984972306e+00 -3.0404439704475323e+00 -3.0523455862333320e+00 -3.0645441653525824e+00 
-3.0770466641786478e+00 -3.0898601775705088e+00 -3.1029919400968367e+00 -3.1164493273150060e+00 
-3.1302398570046601e+00 -3.1443711901545264e+00 -3.1588511321851875e+00 -3.1736876337941937e+00 
-3.1888887914197008e+00 -3.2044628481678235e+00 -3.2204181943724768e+00 -3.2367633677828427e+00 
-3.2535070537939448e+00 -3.2706580854344973e+00 -3.2882254432330975e+00 -3.3062182548994126e+00 
-3.3246457946962273e+00 -3.3435174825780800e+00 -3.3628428831526493e+00 -3.3826317044051413e+00 
-3.4028937961005501e+00 -3.4236391478617842e+00 -3.4448778869607359e+00 -3.4666202757965792e+00 
-3.4888767089894310e+00 -3.5116577101101685e+00 -3.5349739280495855e+00 -3.5588361329142550e+00 
-3.5832552114098317e+00 -3.6082421619361349e+00 -3.6338080890828155e+00 -3.6599641974909884e+00 
-3.6867217853708145e+00 -3.7140922373217085e+00 -3.7420870164824485e+00 -3.7707176561514930e+00 
-3.7999957506562940e+00 -3.8299329455020379e+00 -3.8605409268331607e+00 -3.8918314099945253e+00 
-3.9238161273656469e+00 -3.9565068153156369e+00 -3.9899152001407061e+00 -4.0240529831886791e+00 
-4.0589318249456836e+00 -4.0945633280076335e+00 -4.1309590190550045e+00 -4.1681303296831098e+00 
-4.2060885759956363e+00 -4.2448449370104129e+00 -4.2844104317940168e+00 -4.3247958952283678e+00 
-4.3660119523964802e+00 -4.4080689915664291e+00 -4.4509771356342753e+00 -4.4947462120704058e+00 
-4.5393857212488546e+00 -4.5849048030552737e+00 -4.6313122018959394e+00 -4.6786162299043452e+00 
-4.7268247282853668e+00 -4.7759450268262578e+00 -4.8259839015000221e+00 -4.8769475300727594e+00 
-4.9288414456809697e+00 -4.9816704883628065e+00 -5.0354387544572470e+00 -5.0901495438731610e+00 
-5.1458053051440453e+00 -5.2024075782317407e+00 -5.2599569351190647e+00 -5.3184529181035849e+00 
-5.3778939757943744e+00 -5.4382773967805722e+00 -5.4995992409821053e+00 -5.5618542687216479e+00 
-5.6250358674609009e+00 -5.6891359762835565e+00 -5.7541450081206831e+00 -5.8200517697807941e+00 
-5.8868433798698003e+00 -5.9545051846215706e+00 -6.0230206717761900e+00 -6.0923713826060393e+00 
-6.1625368221919645e+00 -6.2334943681355037e+00 -6.3052191778622388e+00 -6.3776840947034357e+00 
-6.4508595529796855e+00 -6.5247134823493615e+00 -6.5992112117059065e+00 -6.6743153728866949e+00 
-6.7499858045980758e+00 -6.8261794569182115e+00 -6.9028502967503451e+00 -6.9799492147628808e+00 
-7.0574239342698748e+00 -7.1352189225839648e+00 -7.2132753054884118e+00 -7.2915307854248255e+00 
-7.3699195640967252e+00 -7.4483722702524746e+00 -7.5268158934462770e+00 -7.6051737246311832e+00 
-7.6833653044725478e+00 -7.7613063804161317e+00 -7.8389088735265098e+00 -7.9160808561503169e+00 
-7.9927265416444673e+00 -8.0687462873433677e+00 -8.1440366120507992e+00 -8.2184902294340230e+00 
-8.2919960986993626e+00 -8.3644394940213598e+00 -8.4357020942415133e+00 -8.5056620944098285e+00 
-8.5741943407590568e+00 -8.6411704907867453e+00 -8.7064592001161074e+00 -8.7699263378195749e+00 
-8.8314352319647345e+00 -8.8908469470733618e+00 -8.9480205952030047e+00 -9.0028136823597844e+00 
-9.0550824918705413e+00 -9.1046825063112564e+00 -9.1514688694999329e+00 -9.1952968899697041e+00 
-9.2360225872108082e+00 -9.2735032818131558e+00 -9.3075982304795488e+00 -9.3381693066617402e+00 
-9.3650817273226590e+00 -9.3882048260598090e+00 -9.4074128725056330e+00 -9.4225859375580381e+00 
-9.4336108035939450e+00 -9.4403819183671001e+00 -9.4428023908029495e+00 -9.4407850263369024e+00 
-9.4342533988423689e+00 -9.4231429555445523e+00 -9.4074021505803245e+00 -9.3869936020907794e+00 
-9.3618952668921658e+00 -9.3321016258658958e+00 -9.2976248722441124e+00 -9.2584960939407921e+00 
-9.2147664399973763e+00 -9.1665082600741030e+00 -9.1138162047312523e+00 -9.0568082730167419e+00 
-8.9956267926156226e+00 -8.9304393165350167e+00 -8.8614394190097219e+00 -8.7888473720346063e+00 
-8.7129106826834342e+00 -8.6339044701847101e+00 -8.5521316606166025e+00 -8.4679229760942416e+00 
-8.3816366944899308e+00 -8.2936581550848647e+00 -8.2043989851561019e+00 -8.1142960224015876e+00 
-8.0238099083513745e+00 -7.9334233285707976e+00 -7.8436388765934506e+00 -7.7549765201915246e+00 
-7.6679706508736105e+00 -7.5831667004622618e+00 -7.5011173123133137e+00 -7.4223780592693736e+00 
-7.3475027058481412e+00 -7.2770380185118375e+00 -7.2115181351904161e+00 -7.1514585135690281e+00 
-7.0973494870201641e+00 -7.0496494674451720e+00 -7.0087778456649001e+00 -6.9751076522972157e+00 
-6.9489580551753072e+00 -6.9305867831625747e+00 -6.9201825805141164e+00 -6.9178578104932509e+00 
-6.9236413414747799e+00 -6.9374718629184935e+00 -6.9591917919755693e+00 -6.9885419436190572e+00 
-7.0251571475715080e+00 -7.0685636181126643e+00 -7.1181746531133445e+00 -7.1732937329283617e+00 
-7.2331136280749311e+00 -7.2967202047814865e+00 -7.3630977806949822e+00 -7.4311367235756975e+00 
-7.4996434241041587e+00 -7.5673527345168647e+00 -7.6329429347817799e+00 -7.6950532211482896e+00 
-7.7523036812158344e+00 -7.8033176282513201e+00 -7.8467461248472636e+00 -7.8812944260314133e+00 
-7.9057500097406370e+00 -7.9190117629251864e+00 -7.9201198134303077e+00 -7.9082853998174141e+00 
-7.8829200912017425e+00 -7.8436635739650713e+00 -7.7904091514749316e+00 -7.7233260228129570e+00 
-7.6428773563361894e+00 -7.5498331274634003e+00 -7.4452766788579101e+00 -7.3306039678677211e+00 
-7.2075145231464575e+00 -7.0779932191438366e+00 -6.9442821260100125e+00 -6.8088418912894557e+00 
-6.6743023766227667e+00 -6.5434025967237091e+00 -6.4189204114569760e+00 -6.3035928712348737e+00 
-6.2000286367824931e+00 -6.1106144491242160e+00 -6.0374182084874075e+00 -5.9820918085535455e+00 
-5.9457774287186957e+00 -5.9290214773486811e+00 -5.9317007745789585e+00 -5.9529657896717163e+00 
-5.9912057969332011e+00 -6.0440406042779449e+00 -6.1083430312095537e+00 -6.1802955161476891e+00 
-6.2554831225583536e+00 -6.3290237865118959e+00 -6.3957349268754733e+00 -6.4503335907751191e+00 
-6.4876651688673119e+00 -6.5029535000686272e+00 -6.4920629501088722e+00 -6.4517609263263234e+00 
-6.3799673571586126e+00 -6.2759760710587891e+00 -6.1406318879491932e+00 -5.9764467747972327e+00 
-5.7876388348372894e+00 -5.5800794236148024e+00 -5.3611365527375057e+00 -5.1394071374970949e+00 
-4.9243366344581627e+00 -4.7257321672110635e+00 -4.5531840691477754e+00 -4.4154204575276692e+00 
-4.3196293138077930e+00 -4.2707917415522756e+00 -4.2710776040067966e+00 -4.3193594899827437e+00 
-4.4109017915721482e+00 -4.5372775365777853e+00 -4.6865557573706518e+00 -4.8437863360452864e+00 
-4.9917879537265639e+00 -5.1122192919764453e+00 -5.1868859826968396e+00 -5.1992082635189698e+00 
-5.1357489912200620e+00 -4.9876803368214624e+00 -4.7520516640516544e+00 -4.4327127818513041e+00 
-4.0407490632000549e+00 -3.5943021518159424e+00 -3.1176866793203279e+00 -2.6397724191759409e+00 
-2.1916814575799046e+00 -1.8039445572467288e+00 -1.5033576798114596e+00 -1.3098629289881567e+00 
-1.2338323556518895e+00 -1.2741459430321322e+00 -1.4174191110213192e+00 -1.6386463329190131e+00 
-1.9033836521826673e+00 -2.1714090778162629e+00 -2.4014945774587271e+00 -2.5574923127549476e+00 
-2.6078304365239742e+00 -2.5770690712944604e+00 -2.5433169902465806e+00 -2.5105054347155411e+00 
-2.4780764938006170e+00 -2.4460704665972375e+00 -2.4144774219613141e+00 -2.3832924673556168e+00 
-2.3525102882976205e+00 -2.3221256869066154e+00 -2.2921335276912624e+00 -2.2625287419523481e+00 
-2.2333063264125461e+00 -2.2044613424320816e+00 -2.1759889151476717e+00 -2.1478842326514527e+00 
-2.1201425452083127e+00 -2.0927591644156509e+00 -2.0657294624150606e+00 -2.0390488711570014e+00 
-2.0127128815465603e+00 -1.9867170427646450e+00 -1.9610569614585514e+00 -1.9357283010298931e+00 
-1.9107267808827526e+00 -1.8860481757194509e+00 -1.8616883148059897e+00 -1.8376430812825753e+00 
-1.8139084114589654e+00 -1.7904802941349989e+00 -1.7673547699180394e+00 -1.7445279305555230e+00 
-1.7219959182639766e+00 -1.6997549250970190e+00 -1.6778011922938809e+00 -1.6561310096326203e+00 
-1.6347407148105577e+00 -1.6136266928401712e+00 -1.5927853754087449e+00 -1.5722132403047289e+00 
-1.5519068107986076e+00 -1.5318626550759951e+00 -1.5120773856355290e+00 -1.4925476587403257e+00 
-1.4732701738290266e+00 -1.4542416729841181e+00 -1.4354589403520626e+00 -1.4169188016274599e+00 
-1.3986181234909767e+00 -1.3805538131103801e+00 -1.3627228175846027e+00 -1.3451221066564916e+00 
-1.3277487391835487e+00 -1.3105997624905412e+00 -1.2936722783821439e+00 -1.2769634260966880e+00 
-1.2604703818228886e+00 -1.2441903582227338e+00 -1.2281206039605530e+00 -1.2122584032382888e+00 
-1.1966010753371701e+00 -1.1811459741702495e+00 -1.1658904878890493e+00 -1.1508320386687787e+00 
-1.1359680821489191e+00 -1.1212961044603769e+00 -1.1068136265095105e+00 -1.0925182011427488e+00 
-1.0784074125137664e+00 -1.0644788765601734e+00 -1.0507302387912434e+00 -1.0371591743637516e+00 
-1.0237633910965307e+00 -1.0105406258278182e+00 -9.9748864326616049e-01 -9.8460523767451857e-01 
-9.7188823180128026e-01 -9.5933547651771478e-01 -9.4694485045493693e-01 -9.3471425964475707e-01 
-9.2264163716496839e-01 -9.1072494278922733e-01 -8.9896216264142692e-01 -8.8735130885442692e-01 
-8.7589041923321898e-01 -8.6457755692245886e-01 -8.5341081007826303e-01 -8.4238829154435513e-01 
-8.3150813853247274e-01 -8.2076851230696546e-01 -8.1016759787359338e-01 -7.9970360367246363e-01 
-7.8937476127506634e-01 -7.7917932508536147e-01 -7.6911557204484005e-01 -7.5918180134152824e-01 
-7.4937633412286353e-01 -7.3969751321239308e-01 -7.3014370283021002e-01 -7.2071328831710246e-01 
-7.1140467586232059e-01 -7.0221629223492998e-01 -6.9314658451868383e-01 -6.8419401985035877e-01 
-6.7535708516151272e-01 -6.6663428692360471e-01 -6.5802415089643007e-01 -6.4952522187981621e-01 
-6.4113606346855145e-01 -6.3285525781048491e-01 -6.2468140536774197e-01 -6.1661312468101404e-01 
-6.0864905213688791e-01 -6.0078784173815847e-01 -5.9302816487706667e-01 -5.8536871011139913e-01 
-5.7780818294345504e-01 -5.7034530560179053e-01 -5.6297881682567008e-01 -5.5570747165223011e-01 
-5.4853004120629645e-01 -5.4144531249278671e-01 -5.3445208819010959e-01 -5.2754918644541160e-01 
-5.2073544074282585e-01 -5.1400969959647524e-01 -5.0737082625408436e-01 -5.0081769877936644e-01 
-4.9434920980746422e-01 -4.8796426617381716e-01 -4.8166178887697331e-01 -4.7544071291231799e-01 
-4.6929998696686420e-01 -4.6323857327699719e-01 -4.5725544752113367e-01 -4.5134959860532375e-01 
-4.4552002849261857e-01 -4.3976575203565327e-01 -4.3408579683547688e-01 -4.2847920302688602e-01 
-4.2294502307788256e-01 -4.1748232174039335e-01 -4.1209017588288976e-01 -4.0676767426376698e-01 
-4.0151391736508363e-01 -3.9632801732471074e-01 -3.9120909782504054e-01 -3.8615629378225119e-01 
-3.8116875123527383e-01 -3.7624562729262456e-01 -3.7138608994732858e-01 -3.6658931793450711e-01 
-3.6185450059324464e-01 -3.5718083772981524e-01 -3.5256753948269165e-01 -3.4801382618931342e-01 
-3.4351892825460617e-01 -3.3908208602120438e-01 -3.3470254964136636e-01 -3.3037957895054498e-01 
-3.2611244334259731e-01 -3.2190042164659671e-01 -3.1774280200523086e-01 -3.1363888175475568e-01 
-3.0958796730648602e-01 -3.0558937402979630e-01 -3.0164242613661446e-01 -2.9774645656738746e-01 
-2.9390080687849074e-01 -2.9010482713107899e-01 -2.8635787578134875e-01 -2.8265931957219315e-01 
-2.7900853342624704e-01 -2.7540490034028436e-01 -2.7184781128097435e-01 -2.6833666508196519e-01 
-2.6487086834228385e-01 -2.6144983532604033e-01 -2.5807298786341598e-01 -2.5473975525292514e-01 
-2.5144957416493036e-01 -2.4820188854640449e-01 -2.4499614952691118e-01 -2.4183181532580489e-01 
-2.3870835116062078e-01 -2.3562522915665182e-01 -2.3258192825769186e-01 -2.2957793413792957e-01 
-2.2661273911498364e-01 -2.2368584206405878e-01 -2.2079674833321691e-01 -2.1794496965973645e-01 
-2.1513002408756177e-01 -2.1235143588581085e-01 -2.0960873546834793e-01 -2.0690145931438667e-01 
-2.0422914989012608e-01 -2.0159135557139993e-01 -1.9898763056732410e-01 -1.9641753484493329e-01 
-1.9388063405479364e-01 -1.9137649945757501e-01 -1.8890470785157606e-01 -1.8646484150118525e-01 
-1.8405648806626343e-01 -1.8167924053244816e-01 -1.7933269714235056e-01 -1.7701646132764726e-01 
-1.7473014164204956e-01 -1.7247335169513617e-01 -1.7024571008704559e-01 -1.6804684034401005e-01 
-1.6587637085472479e-01 -1.6373393480753673e-01 -1.6161917012844934e-01 -1.5953171941992547e-01 
-1.5747122990048149e-01 -1.5543735323313820e-01 -1.5342974592185019e-01 -1.5144806855897983e-01 
-1.4949198623868207e-01 -1.4756116838065783e-01 -1.4565528867428135e-01 -1.4377402502345418e-01 
-1.4191705949216973e-01 -1.4008407825077970e-01 -1.3827477152295908e-01 -1.3648883353335078e-01 
-1.3472596245589127e-01 -1.3298586036280177e-01 -1.3126823312790595e-01 -1.2957279056596499e-01 
-1.2789924609432690e-01 -1.2624731688133281e-01 -1.2461672374828375e-01 -1.2300719112226201e-01 
-1.2141844698955991e-01 -1.1985022284971095e-01 -1.1830225367011368e-01 -1.1677427781793935e-01 
-1.1526603711122706e-01 -1.1377727662901135e-01 -1.1230774476802127e-01 -1.1085719317462001e-01 
-1.0942537670283096e-01 -1.0801205337291102e-01 -1.0661698433045975e-01 -1.0523993380605186e-01 
-1.0388066907539488e-01 -1.0253896041999960e-01 -1.0121458108836109e-01 -9.9907307257635844e-02 
-9.8616917995820078e-02 -9.7343195224412191e-02 -9.6085923681557314e-02 -9.4844890885672606e-02 
-9.3619887099536989e-02 -9.2410705294846893e-02 -9.1217141117229950e-02 -9.0038992856853850e-02 
-8.8876061475556725e-02 -8.7728150265610025e-02 -8.6595065321859621e-02 -8.5476615150253024e-02 
-8.4372610730049563e-02 -8.3282865481874441e-02 -8.2207195236187178e-02 -8.1145418202155525e-02 
-8.0097354936934359e-02 -7.9062828315336633e-02 -7.8041663499901368e-02 -7.7033687911344739e-02 
-7.6038731199392431e-02 -7.5056625213992520e-02 -7.4087203976895596e-02 -7.3130303653605580e-02 
-7.2185762525690256e-02 -7.1253420963450859e-02 -7.0333121398944320e-02 -6.9424708299353849e-02 
-6.8528028140703454e-02 -6.7642929381912228e-02 -6.6769262439183297e-02 -6.5906879660723824e-02 
-6.5055635301791745e-02 -6.4215385500064406e-02 -6.3385988251325409e-02 -6.2567303385465650e-02 
-6.1759192542794279e-02 -6.0961519150655508e-02 -6.0174148400347488e-02 -5.9396947224339428e-02 
-5.8629784273782654e-02 -5.7872529896312801e-02 -5.7125056114137679e-02 -5.6387236602408977e-02 
-5.5658946667873174e-02 -5.4940063227797924e-02 -5.4230464789170818e-02 -5.3530031428166862e-02 
-5.2838644769880892e-02 -5.2156187968322130e-02 -5.1482545686666770e-02 -5.0817604077765928e-02 
-5.0161250764905012e-02 -4.9513374822811936e-02 -4.8873866758910610e-02 -4.8242618494816071e-02 
-4.7619523348069251e-02 -4.7004476014107337e-02 -4.6397372548466917e-02 -4.5798110349217512e-02 
-4.5206588139621043e-02 -4.4622705951016237e-02 -4.4046365105923510e-02 -4.3477468201368281e-02 
-4.2915919092419673e-02 -4.2361622875941723e-02 -4.1814485874554573e-02 -4.1274415620802730e-02 
-4.0741320841527921e-02 -4.0215111442443600e-02 -3.9695698492908917e-02 -3.9182994210899137e-02 
-3.8676911948170321e-02 -3.8177366175615519e-02 -3.7684272468810238e-02 -3.7197547493744397e-02 
-3.6717108992738695e-02 -3.6242875770543095e-02 -3.5774767680614272e-02 -3.5312705611570884e-02 
-3.4856611473823504e-02 -3.4406408186377316e-02 -3.3962019663805187e-02 -3.3523370803389144e-02 
-3.3090387472427749e-02 -3.2662996495707503e-02 -3.2241125643136130e-02 -3.1824703617535449e-02 
-3.1413660042591995e-02 -3.1007925450963293e-02 -3.0607431272537667e-02 -3.0212109822845744e-02 
-2.9821894291621628e-02 -2.9436718731511734e-02 -2.9056518046929759e-02 -2.8681227983055044e-02 
-2.8310785114973563e-02 -2.7945126836958913e-02 -2.7584191351891815e-02 -2.7227917660816229e-02 
-2.6876245552630403e-02 -2.6529115593911037e-02 -2.6186469118868908e-02 -2.5848248219434183e-02 
-2.5514395735469885e-02 -2.5184855245111604e-02 -2.4859571055232142e-02 -2.4538488192029202e-02 
-2.4221552391734687e-02 -2.3908710091444015e-02 -2.3599908420063837e-02 -2.3295095189376679e-02 
-2.2994218885221140e-02 -2.2697228658785668e-02 -2.2404074318015142e-02 -2.2114706319128215e-02 
-2.1829075758244366e-02 -2.1547134363118971e-02 -2.1268834484985205e-02 -2.0994129090501287e-02 
-2.0722971753801722e-02 -2.0455316648651224e-02 -2.0191118540699989e-02 -1.9930332779838942e-02 
-1.9672915292653807e-02 -1.9418822574976572e-02 -1.9168011684533182e-02 -1.8920440233686206e-02 
-1.8676066382271199e-02 -1.8434848830525607e-02 -1.8196746812109130e-02 -1.7961720087213917e-02 
-1.7729728935764074e-02 -1.7500734150702850e-02 -1.7274697031366529e-02 -1.7051579376943963e-02 
</PP_LOCAL>


<PP_NONLOCAL>
  <PP_DIJ>
 0   Number of nonzero Dij
  </PP_DIJ>
</PP_NONLOCAL>
<PP_PSWFC>
S    0   1.00          Wavefunction
 1.5133962760786656e-04  1.5331988655128617e-04  1.5532605691991638e-04  1.5735847776130314e-04 
 1.5941749255938393e-04  1.6150344929253743e-04  1.6361670049239244e-04  1.6575760330340684e-04 
 1.6792651954322527e-04  1.7012381576382793e-04  1.7234986331347797e-04  1.7460503839948055e-04 
 1.7688972215176260e-04  1.7920430068728467e-04  1.8154916517529586e-04  1.8392471190344158e-04 
 1.8633134234473785e-04  1.8876946322542068e-04  1.9123948659368383e-04  1.9374182988931584e-04 
 1.9627691601424848e-04  1.9884517340402780e-04  2.0144703610022076e-04  2.0408294382376975e-04 
 2.0675334204930555e-04  2.0945868208043411e-04  2.1219942112600778e-04  2.1497602237739429e-04 
 2.1778895508675779e-04  2.2063869464636256e-04  2.2352572266891622e-04  2.2645052706896278e-04 
 2.2941360214534160e-04  2.3241544866472446e-04  2.3545657394624726e-04  2.3853749194724662e-04 
 2.4165872335012102e-04  2.4482079565032642e-04  2.4802424324552464e-04  2.5126960752589763e-04 
 2.5455743696564334e-04  2.5788828721566906e-04  2.6126272119749783e-04  2.6468130919840327e-04 
 2.6814462896778925e-04  2.7165326581483088e-04  2.7520781270739273e-04  2.7880887037224207e-04 
 2.8245704739657230e-04  2.8615296033085647e-04  2.8989723379304450e-04  2.9369050057412538e-04 
 2.9753340174507021e-04  3.0142658676517457e-04  3.0537071359181808e-04  3.0936644879166078e-04 
 3.1341446765329427e-04  3.1751545430136691e-04  3.2167010181220171e-04  3.2587911233092841e-04 
 3.3014319719014673e-04  3.3446307703014351e-04  3.3883948192068198e-04  3.4327315148438439e-04 
 3.4776483502173142e-04  3.5231529163769329e-04  3.5692529037002155e-04  3.6159561031921708e-04 
 3.6632704078019970e-04  3.7112038137570056e-04  3.7597644219140007e-04  3.8089604391283326e-04 
 3.8588001796408780e-04  3.9092920664831563e-04  3.9604446329008416e-04  4.0122665237958956e-04 
 4.0647664971875668e-04  4.1179534256925119e-04  4.1718362980242972e-04  4.2264242205124832e-04 
 4.2817264186416262e-04  4.3377522386103942e-04  4.3945111489110953e-04  4.4520127419298607e-04 
 4.5102667355677837e-04  4.5692829748832494e-04  4.6290714337557674e-04  4.6896422165715866e-04 
 4.7510055599313315e-04  4.8131718343800165e-04  4.8761515461596792e-04  4.9399553389849530e-04 
 5.0045939958418646e-04  5.0700784408101815e-04  5.1364197409095960e-04  5.2036291079700554e-04 
 5.2717179005265936e-04  5.3406976257389203e-04  5.4105799413361631e-04  5.4813766575870291e-04 
 5.5530997392957526e-04  5.6257613078241622e-04  5.6993736431402140e-04  5.7739491858933129e-04 
 5.8495005395167916e-04  5.9260404723579161e-04  6.0035819198357341e-04  6.0821379866271932e-04 
 6.1617219488818232e-04  6.2423472564654360e-04  6.3240275352331472e-04  6.4067765893321754e-04 
 6.4906084035347433e-04  6.5755371456015037e-04  6.6615771686759351e-04  6.7487430137099934e-04 
 6.8370494119215767e-04  6.9265112872840724e-04  7.0171437590485605e-04  7.1089621442989314e-04 
 7.2019819605405127e-04  7.2962189283225167e-04  7.3916889738948207e-04  7.4884082318995161e-04 
 7.5863930480976442e-04  7.6856599821316710e-04  7.7862258103240261e-04  7.8881075285123343e-04 
 7.9913223549216877e-04  8.0958877330745483e-04  8.2018213347386892e-04  8.3091410629137000e-04 
 8.4178650548566349e-04  8.5280116851471524e-04  8.6395995687928563e-04  8.7526475643751847e-04 
 8.8671747772365271e-04  8.9832005627089981e-04  9.1007445293854840e-04  9.2198265424334842e-04 
 9.3404667269522841e-04  9.4626854713741112e-04  9.5865034309097080e-04  9.7119415310391104e-04 
 9.8390209710479495e-04  9.9677632276101756e-04  1.0098190058417530e-03  1.0230323505856570e-03 
 1.0364185900733833e-03  1.0499799866049665e-03  1.0637188320821484e-03  1.0776374483957029e-03 
 1.0917381878178347e-03  1.1060234333997022e-03  1.1204955993741538e-03  1.1351571315637242e-03 
 1.1500105077939696e-03  1.1650582383122188e-03  1.1803028662117961e-03  1.1957469678617934e-03 
 1.2113931533424725e-03  1.2272440668863571e-03  1.2433023873251010e-03  1.2595708285422014e-03 
 1.2760521399316342e-03  1.2927491068624888e-03  1.3096645511496885e-03  1.3268013315308623e-03 
 1.3441623441494592e-03  1.3617505230441864e-03  1.3795688406448394e-03  1.3976203082746413e-03 
 1.4159079766591278e-03  1.4344349364417116e-03  1.4532043187059792e-03  1.4722192955048308e-03 
 1.4914830803965343e-03  1.5109989289877983e-03  1.5307701394839510e-03  1.5508000532463082e-03 
 1.5710920553568461e-03  1.5916495751902575e-03  1.6124760869934860e-03  1.6335751104728468e-03 
 1.6549502113888340e-03  1.6766050021587030e-03  1.6985431424669339e-03  1.7207683398836962e-03 
 1.7432843504913828e-03  1.7660949795193603e-03  1.7892040819870146e-03  1.8126155633552111e-03 
 1.8363333801862732e-03  1.8603615408126063e-03  1.8847041060140557e-03  1.9093651897041358e-03 
 1.9343489596252311e-03  1.9596596380528973e-03  1.9853015025093680e-03  2.0112788864864086e-03 
 2.0375961801776124e-03  2.0642578312202848e-03  2.0912683454470306e-03  2.1186322876471822e-03 
 2.1463542823381672e-03  2.1744390145469901e-03  2.2028912306019215e-03  2.2317157389345559e-03 
 2.2609174108923491e-03  2.2905011815617976e-03  2.3204720506023700e-03  2.3508350830913662e-03 
 2.3815954103798163e-03  2.4127582309595740e-03  2.4443288113417659e-03  2.4763124869467096e-03 
 2.5087146630054964e-03  2.5415408154733517e-03  2.5747964919549484e-03  2.6084873126418187e-03 
 2.6426189712620346e-03  2.6771972360423099e-03  2.7122279506826752e-03  2.7477170353439181e-03 
 2.7836704876479227e-03  2.8200943836911110e-03  2.8569948790711178e-03  2.8943782099269174e-03 
 2.9322506939925305e-03  2.9706187316645336e-03  3.0094888070835201e-03  3.0488674892296987e-03 
 3.0887614330328403e-03  3.1291773804967143e-03  3.1701221618382599e-03  3.2116026966416298e-03 
 3.2536259950273483e-03  3.2961991588367303e-03  3.3393293828318290e-03  3.3830239559110363e-03 
 3.4272902623406066e-03  3.4721357830022758e-03  3.5175680966571775e-03  3.5635948812263352e-03 
 3.6102239150878333e-03  3.6574630783910073e-03  3.7053203543877793e-03  3.7538038307814155e-03 
 3.8029217010929345e-03  3.8526822660453425e-03  3.9030939349660098e-03  3.9541652272073432e-03 
 4.0059047735860644e-03  4.0583213178412882e-03  4.1114237181116642e-03  4.1652209484318295e-03 
 4.2197221002484289e-03  4.2749363839559460e-03  4.3308731304526216e-03  4.3875417927166926e-03 
 4.4449519474032495e-03  4.5031132964619648e-03  4.5620356687759546e-03  4.6217290218220812e-03 
 4.6822034433529258e-03  4.7434691531007718e-03  4.8055365045038424e-03  4.8684159864551034e-03 
 4.9321182250739023e-03  4.9966539855007862e-03  5.0620341737157536e-03  5.1282698383802658e-03 
 5.1953721727033310e-03  5.2633525163319666e-03  5.3322223572663504e-03  5.4019933338000231e-03 
 5.4726772364853933e-03  5.5442860101249502e-03  5.6168317557884788e-03  5.6903267328566052e-03 
 5.7647833610910684e-03  5.8402142227319967e-03  5.9166320646225805e-03  5.9940498003615171e-03 
 6.0724805124835321e-03  6.1519374546683799e-03  6.2324340539786976e-03  6.3139839131270544e-03 
 6.3966008127726267e-03  6.4802987138478313e-03  6.5650917599153393e-03  6.6509942795558233e-03 
 6.7380207887869342e-03  6.8261859935137828e-03  6.9155047920114116e-03  7.0059922774396927e-03 
 7.0976637403909904e-03  7.1905346714710855e-03  7.2846207639137702e-03  7.3799379162295415e-03 
 7.4765022348888118e-03  7.5743300370401650e-03  7.6734378532640158e-03  7.7738424303621829e-03 
 7.8755607341838268e-03  7.9786099524882231e-03  8.0830074978448709e-03  8.1887710105713624e-03 
 8.2959183617095471e-03  8.4044676560404725e-03  8.5144372351386235e-03  8.6258456804658660e-03 
 8.7387118165058036e-03  8.8530547139388446e-03  8.9688936928586527e-03  9.0862483260304612e-03 
 9.2051384421917761e-03  9.3255841293960716e-03  9.4476057383999414e-03  9.5712238860943526e-03 
 9.6964594589804588e-03  9.8233336166907124e-03  9.9518677955556627e-03  1.0082083712217148e-02 
 1.0214003367288433e-02  1.0347649049061923e-02  1.0483043337264982e-02  1.0620209106864580e-02 
 1.0759169531921306e-02  1.0899948089493352e-02  1.1042568563591287e-02  1.1187055049183971e-02 
 1.1333431956256522e-02  1.1481724013920822e-02  1.1631956274579367e-02  1.1784154118142966e-02 
 1.1938343256303160e-02  1.2094549736859849e-02  1.2252799948105002e-02  1.2413120623263066e-02 
 1.2575538844988710e-02  1.2740082049922836e-02  1.2906778033307337e-02  1.3075654953659487e-02 
 1.3246741337506708e-02  1.3420066084182334e-02  1.3595658470683320e-02  1.3773548156590425e-02 
 1.3953765189051892e-02  1.4136340007831245e-02  1.4321303450419966e-02  1.4508686757215970e-02 
 1.4698521576768637e-02  1.4890839971091082e-02  1.5085674421040711e-02  1.5283057831768702e-02 
 1.5483023538239243e-02  1.5685605310819563e-02  1.5890837360941334e-02  1.6098754346834471e-02 
 1.6309391379334130e-02  1.6522784027761764e-02  1.6738968325881114e-02  1.6957980777930086e-02 
 1.7179858364729166e-02  1.7404638549867537e-02  1.7632359285967684e-02  1.7863059021029283e-02 
 1.8096776704853410e-02  1.8333551795547905e-02  1.8573424266114847e-02  1.8816434611121011e-02 
 1.9062623853452230e-02  1.9312033551152595e-02  1.9564705804349370e-02  1.9820683262264712e-02 
 2.0080009130314772e-02  2.0342727177297459e-02  2.0608881742669623e-02  2.0878517743914533e-02 
 2.1151680684000657e-02  2.1428416658932664e-02  2.1708772365395441e-02  2.1992795108492134e-02 
 2.2280532809577196e-02  2.2572034014185054e-02  2.2867347900055533e-02  2.3166524285256833e-02 
 2.3469613636406934e-02  2.3776667076994166e-02  2.4087736395797973e-02  2.4402874055410580e-02 
 2.4722133200860211e-02  2.5045567668337144e-02  2.5373231994022694e-02  2.5705181423022340e-02 
 2.6041471918403586e-02  2.6382160170339130e-02  2.6727303605356214e-02  2.7076960395692462e-02 
 2.7431189468759141e-02  2.7790050516712028e-02  2.8153604006130848e-02  2.8521911187807145e-02 
 2.8895034106641574e-02  2.9273035611650466e-02  2.9655979366082410e-02  3.0043929857644754e-02 
 3.0436952408840201e-02  3.0835113187413957e-02  3.1238479216910878e-02  3.1647118387343139e-02 
 3.2061099465967781e-02  3.2480492108174143e-02  3.2905366868480820e-02  3.3335795211641671e-02 
 3.3771849523860184e-02  3.4213603124111688e-02  3.4661130275572515e-02  3.5114506197154990e-02 
 3.5573807075147623e-02  3.6039110074958573e-02  3.6510493352961436e-02  3.6988036068441595e-02 
 3.7471818395641322e-02  3.7961921535901673e-02  3.8458427729898950e-02  3.8961420269973276e-02 
 3.9470983512546569e-02  3.9987202890627252e-02  4.0510164926398251e-02  4.1039957243884623e-02 
 4.1576668581697826e-02  4.2120388805851554e-02  4.2671208922645552e-02  4.3229221091612084e-02 
 4.3794518638520422e-02  4.4367196068433139e-02  4.4947349078809401e-02  4.5535074572647515e-02 
 4.6130470671661108e-02  4.6733636729480964e-02  4.7344673344874973e-02  4.7963682374977903e-02 
 4.8590766948522074e-02  4.9226031479059434e-02  4.9869581678164965e-02  5.0521524568611156e-02 
 5.1181968497501479e-02  5.1851023149351430e-02  5.2528799559104014e-02  5.3215410125066372e-02 
 5.3910968621753097e-02  5.4615590212621169e-02  5.5329391462680594e-02  5.6052490350963435e-02 
 5.6785006282834512e-02  5.7527060102123433e-02  5.8278774103059747e-02  5.9040272041989535e-02 
 5.9811679148851875e-02  6.0593122138392394e-02  6.1384729221089708e-02  6.2186630113769813e-02 
 6.2998956049881427e-02  6.3821839789406198e-02  6.4655415628372889e-02  6.5499819407947552e-02 
 6.6355188523066919e-02  6.7221661930583224e-02  6.8099380156886130e-02  6.8988485304967095e-02 
 6.9889121060888931e-02  7.0801432699623273e-02  7.1725567090216810e-02  7.2661672700245983e-02 
 7.3609899599517761e-02  7.4570399462975168e-02  7.5543325572761943e-02  7.6528832819402551e-02 
 7.7527077702050542e-02  7.8538218327758938e-02  7.9562414409723767e-02  8.0599827264453680e-02 
 8.1650619807814476e-02  8.2714956549900603e-02  8.3793003588682732e-02  8.4884928602381726e-02 
 8.5990900840519358e-02  8.7111091113595940e-02  8.8245671781346971e-02  8.9394816739529634e-02 
 9.0558701405194814e-02  9.1737502700398196e-02  9.2931399034308457e-02  9.4140570283672884e-02 
 9.5365197771603391e-02  9.6605464244648720e-02  9.7861553848124866e-02  9.9133652099678005e-02 
 1.0042194586106112e-01  1.0172662330811190e-01  1.0304787389892429e-01  1.0438588834021616e-01 
 1.0574085855190196e-01  1.0711297762988942e-01  1.0850243980713054e-01  1.0990944041296458e-01 
 1.1133417583080858e-01  1.1277684345425756e-01  1.1423764164167688e-01  1.1571676966937902e-01 
 1.1721442768349684e-01  1.1873081665068135e-01  1.2026613830776943e-01  1.2182059511058868e-01 
 1.2339439018208274e-01  1.2498772725996637e-01  1.2660081064413650e-01  1.2823384514409258e-01 
 1.2988703602663809e-01  1.3156058896416251e-01  1.3325470998382299e-01  1.3496960541797220e-01 
 1.3670548185619685e-01  1.3846254609935973e-01  1.4024100511605325e-01  1.4204106600189642e-01 
 1.4386293594212363e-01  1.4570682217792655e-01  1.4757293197702503e-01  1.4946147260894940e-01 
 1.5137265132551894e-01  1.5330667534700027e-01  1.5526375185441935e-01  1.5724408798848452e-01 
 1.5924789085555294e-01  1.6127536754103919e-01  1.6332672513061650e-01  1.6540217073950603e-01 
 1.6750191155007463e-01  1.6962615485787880e-01  1.7177510812618493e-01  1.7394897904887793e-01 
 1.7614797562152745e-01  1.7837230622021943e-01  1.8062217968757885e-01  1.8289780542519610e-01 
 1.8519939349144243e-01  1.8752715470339709e-01  1.8988130074132542e-01  1.9226204425383209e-01 
 1.9466959896147620e-01  1.9710417975626496e-01  1.9956600279405079e-01  2.0205528557643998e-01 
 2.0457224701837626e-01  2.0711710749710602e-01  2.0969008887775684e-01  2.1229141451027256e-01 
 2.1492130919195868e-01  2.1757999908940839e-01  2.2026771161310219e-01  2.2298467523752385e-01 
 2.2573111925922415e-01  2.2850727348489200e-01  2.3131336784119780e-01  2.3414963189795390e-01 
 2.3701629429602430e-01  2.3991358207142377e-01  2.4284171986720685e-01  2.4580092902507522e-01 
 2.4879142654915781e-01  2.5181342393517786e-01  2.5486712585921539e-01  2.5795272872157060e-01 
 2.6107041904281658e-01  2.6422037171105750e-01  2.6740274808168052e-01  2.7061769393353785e-01 
 2.7386533728852547e-01  2.7714578610493934e-01  2.8045912585880389e-01  2.8380541703152884e-01 
 2.8718469252678491e-01  2.9059695504430544e-01  2.9404217444338726e-01  2.9752028513410372e-01 
 3.0103118353953151e-01  3.0457472567753879e-01  3.0815072491570195e-01  3.1175894995756737e-01 
 3.1539912312251839e-01  3.1907091898473411e-01  3.2277396343887366e-01  3.2650783326089455e-01 
 3.3027205623152223e-01  3.3406611188701268e-01  3.3788943295666335e-01  3.4174140753869731e-01 
 3.4562138205540277e-01  3.4952866501441437e-01  3.5346253158563024e-01  3.5742222898223380e-01 
 3.6140698260963366e-01  3.6541600291785753e-01  3.6944849286127956e-01  3.7350365583487538e-01 
 3.7758070391909831e-01  3.8167886622675545e-01  3.8579739710601874e-01  3.8993558391530353e-01 
 3.9409275404980826e-01  3.9826828086799160e-01  4.0246158814138000e-01  4.0667215263529743e-01 
 4.1089950442408285e-01  4.1514322455485281e-01  4.1940293970171105e-01  4.2367831350016827e-01 
 4.2796903432182148e-01  4.3227479934396840e-01  4.3659529488904830e-01  4.4093017315478306e-01 
 4.4527902562675664e-01  4.4964135365833818e-01  4.5401653691407423e-01  4.5840380059563363e-01 
 4.6280218259551759e-01  4.6721050194217845e-01  4.7162733009771951e-01  4.7605096683053677e-01 
 4.8047942249292075e-01  4.8491040856921747e-01  4.8934133830469678e-01  4.9376933906046194e-01 
 4.9819127774926203e-01  5.0260380027833518e-01  5.0700338535134726e-01  5.1138641226279002e-01 
 5.1574924146520240e-01  5.2008830572456122e-01  5.2440020863796588e-01  5.2868182622099780e-01 
 5.3293040624581300e-01  5.3714365910577300e-01  5.4131983329146482e-01  5.4545776818841385e-01 
 5.4955691695406139e-01  5.5361733280155401e-01  5.5763961319738220e-01  5.6162479833005874e-01 
 5.6557422275051839e-01  5.6948932229287719e-01  5.7337140216327442e-01  5.7722137626683656e-01 
 5.8103949217909678e-01  5.8482506032748605e-01  5.8857620952554435e-01  5.9228969353512806e-01 
 5.9596077433030514e-01  5.9958320672407017e-01  6.0314934558509725e-01  6.0665039073445548e-01 
 6.1007677568637664e-01  6.1341869486169132e-01  6.1666675025921303e-01  6.1981268368307940e-01 
 6.2285014572744613e-01  6.2577543938535951e-01  6.2858816619744995e-01  6.3129169821340014e-01 
 6.3389340152724194e-01  6.3640454822652470e-01  6.3883987406921117e-01  6.4121676891949164e-01 
 6.4355412456622629e-01  6.4587090725651597e-01  6.4818456592427898e-01  6.5050942625506691e-01 
 6.5285524914620718e-01  6.5522614337979879e-01  6.5762001076559562e-01  6.6002866381581271e-01 
 6.6243869034825142e-01  6.6483304942630805e-01  6.6719327652031191e-01  6.6950206519958422e-01 
 6.7174589447960342e-01  6.7391734576828655e-01  6.7601403783646796e-01  6.7803427722999099e-01 
 6.7997637418958901e-01  6.8183864387163151e-01  6.8361940760009032e-01  6.8531699414814296e-01 
 6.8692974104900872e-01  6.8845599593556250e-01  6.8989411790822608e-01  6.9124247893059398e-01 
 6.9249946525221084e-01  6.9366347885786572e-01  6.9473293894273191e-01  6.9570628341263363e-01 
 6.9658197040867920e-01  6.9735847985545474e-01  6.9803431503193580e-01  6.9860800416422575e-01 
 6.9907810203919463e-01  6.9944319163804891e-01  6.9970188578882486e-01  6.9985282883675548e-01 
 6.9989469833143680e-01  6.9982620672966234e-01  6.9964610311278019e-01  6.9935317491738003e-01 
 6.9894624967809127e-01  6.9842419678123990e-01  6.9778592922808080e-01  6.9703040540629413e-01 
 6.9615663086840884e-01  6.9516366011578501e-01  6.9405059838676075e-01  6.9281660344754858e-01 
 6.9146088738443456e-01  6.8998271839581271e-01  6.8838142258255597e-01  6.8665638573520582e-01 
 6.8480705511642359e-01  6.8283294123712512e-01  6.8073361962468504e-01  6.7850873258155076e-01 
 6.7615799093257523e-01  6.7368117575932052e-01  6.7107814011952915e-01  6.6834881074989760e-01 
 6.6549318975020189e-01  6.6251135624674362e-01  6.5940346803297178e-01  6.5616976318501741e-01 
 6.5281056164973683e-01  6.4932626680268279e-01  6.4571736697324944e-01  6.4198443693399632e-01 
 6.3812813935092139e-01  6.3414922619115532e-01  6.3004854008422995e-01  6.2582701563270138e-01 
 6.2148568066751408e-01  6.1702565744301308e-01  6.1244816376603017e-01  6.0775451405287406e-01 
 6.0294612030739414e-01  5.9802449301289340e-01  5.9299124193095054e-01  5.8784807679626161e-01 
 5.8259680789897439e-01  5.7723934654439180e-01  5.7177770537857331e-01  5.6621399854369503e-01 
 5.6055044177766211e-01  5.5478935218819270e-01  5.4893314794323922e-01  5.4298434773769433e-01 
 5.3694557004545407e-01  5.3081953214224442e-01  5.2460904888430115e-01  5.1831703122814565e-01 
 5.1194648447716773e-01  5.0550050624146681e-01  4.9898228409847384e-01  4.9239509294326539e-01 
 4.8574229201922414e-01  4.7902732162179251e-01  4.7225369947051044e-01  4.6542501674729408e-01 
 4.5854493380200428e-01  4.5161717552970365e-01  4.4464552642758104e-01  4.3763382534327000e-01 
 4.3058595993013038e-01  4.2350586082893604e-01  4.1639749559922268e-01  4.0926486242722415e-01 
 4.0211198364078254e-01  3.9494289906475383e-01  3.8776165925320305e-01  3.8057231863699126e-01 
 3.7337892862715666e-01  3.6618553071573234e-01  3.5899614961628679e-01  3.5181478648649867e-01 
 3.4464541227447515e-01  3.3749196122930114e-01  3.3035832461447923e-01  3.2324834466052310e-01 
 3.1616580879003509e-01  3.0911444414518657e-01  3.0209791244368100e-01  2.9511980518508391e-01 
 2.8818363922491086e-01  2.8129285272915000e-01  2.7445080151704077e-01  2.6766075579497917e-01 
 2.6092589727950066e-01  2.5424931670241446e-01  2.4763401168645657e-01  2.4108288497533376e-01 
 2.3459874299783198e-01  2.2818429474182769e-01  2.2184215091063864e-01  2.1557482333124875e-01 
 2.0938472458159055e-01  2.0327416780229815e-01  1.9724536665741887e-01  1.9130043540818673e-01 
 1.8544138906404589e-01  1.7967014357647876e-01  1.7398851604315971e-01  1.6839822489228906e-01 
 1.6290089002032385e-01  1.5749803286032174e-01  1.5219107636244109e-01  1.4698134487299444e-01 
 1.4187006390375914e-01  1.3685835978864908e-01  1.3194725923033573e-01  1.2713768874480566e-01 
 1.2243047401707798e-01  1.1782633918611010e-01  1.1332590608114478e-01  1.0892969343555620e-01 
 1.0463811610732575e-01  1.0045148433748742e-01  9.6370003079262093e-02  9.2393771431262151e-02 
 8.8522782208075301e-02  8.4756921680426339e-02  8.1095969515367308e-02  7.7539598944661323e-02 
 7.4087377186577708e-02  7.0738766142910553e-02  6.7493123389271228e-02  6.4349703472685996e-02 
 6.1307659526360379e-02  5.8366045207247703e-02  5.5523816957877135e-02  5.2779836589833345e-02 
 5.0132874182412301e-02  4.7581611286357434e-02  4.5124644419263817e-02  4.2760488836250894e-02 
 4.0487582556878544e-02  3.8304290627026588e-02  3.6208909592580517e-02  3.4199672160263199e-02 
 3.2274752019814244e-02  3.0432268800929085e-02  2.8670293137911595e-02  2.6986851814842214e-02 
 2.5379932964195513e-02  2.3847491292229187e-02  2.2387453305085091e-02  2.0997722510364664e-02 
 1.9676184569940570e-02  1.8420712380917036e-02  1.7229171062930603e-02  1.6099422831366245e-02 
 1.5029331737531348e-02  1.4016768258360630e-02  1.3059613719801402e-02  1.2155764539633742e-02 
 1.1303136277098639e-02  1.0499667478325774e-02  9.7433233081589028e-03  9.0320989605595040e-03 
 8.3640228413192855e-03  7.7371595183201077e-03  7.1496124360389563e-03  6.5995263923983695e-03 
 6.0850897774047978e-03  5.6045365742924871e-03  5.1561481250958340e-03  4.7382546637046857e-03 
 4.3492366205124281e-03  3.9875257037438059e-03  3.6516057634467382e-03  3.3400134449491545e-03 
 3.0513386393175184e-03  2.7842247390083711e-03  2.5373687074783792e-03  2.3095209720129799e-03 
 2.0994851494500009e-03  1.9061176148143343e-03  1.7283269231448681e-03  1.5650730949876867e-03 
 1.4153667761527744e-03  1.2782682823878359e-03  1.1528865396156804e-03  1.0383779303140576e-03 
 9.3394505649264058e-04  8.3883542954452388e-04  7.5234009702314331e-04  6.7379221612384635e-04 
 6.0256558333646854e-04  5.3807312938568611e-04  4.7976538819452795e-04  4.2712894818371013e-04 
 3.7968489380867820e-04  3.3698724475375764e-04  2.9862139974234339e-04  2.6420259143513492e-04 
 2.3337435839429485e-04  2.0580703959276184e-04  1.8119629644803783e-04  1.5926166686199155e-04 
 1.3974515525578312e-04  1.2240986210492147e-04  1.0703865600654394e-04  9.3432890851896872e-05 
 8.1411170232439443e-05  7.0808160785757406e-05  6.1473455779138700e-05  5.3270489846316894e-05 
 4.6075505431646550e-05  3.9776571158718987e-05  3.4272652027840066e-05  2.9472731059394233e-05 
 2.5294981738248013e-05  2.1665990377812786e-05  1.8520027312072948e-05  1.5798365637647336e-05 
 1.3448646067142104e-05  1.1424286317873550e-05  9.6839333459695697e-06  8.1909566438875630e-06 
 6.9129807483985957e-06  5.8214550548691641e-06  4.8912590009275312e-06  4.1003406669687180e-06 
 3.4293868410217185e-06  2.8615226098353187e-06  2.3820385651829259e-06  1.9781437528937943e-06 
 1.6387425405572276e-06  1.3542336368193921e-06  1.1163295593451409e-06  9.1789491855063878e-07 
 7.5280204435909922e-07  6.1580297571122031e-07  5.0241344929473573e-07  4.0881260022922668e-07 
 3.3175364194229706e-07  2.6848510965347860e-07  2.1668171148313946e-07  1.7438379418684274e-07 
 1.3994450809547593e-07  1.1198383068843578e-07  8.9348679974812991e-08  7.1078417215592742e-08 
 5.6375103269544211e-08  4.4577933834104093e-08  3.5141335988202761e-08  2.7616261689383355e-08 
 2.1634263244192546e-08  1.6893981312752096e-08  1.3149717816370056e-08  1.0201804312509659e-08 
 7.8885111310951883e-09  6.0792739965883216e-09  4.6690431730923697e-09  3.5735855569763483e-09 
 2.7255928015752538e-09  2.0714686925795642e-09  1.5686868014993229e-09  1.1836251256315585e-09 
 8.8979816837151255e-10  6.6641890825695040e-10  4.9723352478687550e-10  3.6958075986473214e-10 
 2.7363555104593522e-10  2.0180322081573632e-10  1.4823617769436095e-10  1.0844990149039388e-10 
 7.9019056745938229e-11  5.7338004753784034e-11  4.1432854542148958e-11  2.9814586204458616e-11 
 2.1364766058077177e-11  1.5247014071605660e-11  1.0838733827771078e-11  7.6787210625779497e-12 
 5.4271694424134180e-12  0.0000000000000000e+00  0.0000000000000000e+00  0.0000000000000000e+00 
 0.0000000000000000e+00  0.0000000000000000e+00  0.0000000000000000e+00  0.0000000000000000e+00 
 0.0000000000000000e+00  0.0000000000000000e+00  0.0000000000000000e+00  0.0000000000000000e+00 
 0.0000000000000000e+00  0.0000000000000000e+00  0.0000000000000000e+00  0.0000000000000000e+00 
 0.0000000000000000e+00  0.0000000000000000e+00  0.0000000000000000e+00  0.0000000000000000e+00 
 0.0000000000000000e+00  0.0000000000000000e+00  0.0000000000000000e+00  0.0000000000000000e+00 
 0.0000000000000000e+00  0.0000000000000000e+00  0.0000000000000000e+00  0.0000000000000000e+00 
 0.0000000000000000e+00  0.0000000000000000e+00  0.0000000000000000e+00  0.0000000000000000e+00 
 0.0000000000000000e+00  0.0000000000000000e+00  0.0000000000000000e+00  0.0000000000000000e+00 
 0.0000000000000000e+00  0.0000000000000000e+00  0.0000000000000000e+00  0.0000000000000000e+00 
 0.0000000000000000e+00  0.0000000000000000e+00  0.0000000000000000e+00  0.0000000000000000e+00 
 0.0000000000000000e+00  0.0000000000000000e+00  0.0000000000000000e+00  0.0000000000000000e+00 
 0.0000000000000000e+00  0.0000000000000000e+00  0.0000000000000000e+00  0.0000000000000000e+00 
 0.0000000000000000e+00  0.0000000000000000e+00  0.0000000000000000e+00  0.0000000000000000e+00 
 0.0000000000000000e+00  0.0000000000000000e+00  0.0000000000000000e+00  0.0000000000000000e+00 
 0.0000000000000000e+00  0.0000000000000000e+00  0.0000000000000000e+00  0.0000000000000000e+00 
 0.0000000000000000e+00  0.0000000000000000e+00  0.0000000000000000e+00  0.0000000000000000e+00 
 0.0000000000000000e+00  0.0000000000000000e+00  0.0000000000000000e+00  0.0000000000000000e+00 
 0.0000000000000000e+00  0.0000000000000000e+00  0.0000000000000000e+00  0.0000000000000000e+00 
 0.0000000000000000e+00  0.0000000000000000e+00  0.0000000000000000e+00  0.0000000000000000e+00 
 0.0000000000000000e+00  0.0000000000000000e+00  0.0000000000000000e+00  0.0000000000000000e+00 
</PP_PSWFC>


<PP_RHOATOM>
 2.2903682884487727e-08  2.3506987612099263e-08  2.4126183958289103e-08  2.4761690523354534e-08 
 2.5413936933921231e-08  2.6083364133387211e-08  2.6770424680017254e-08  2.7475583052889591e-08 
 2.8199315965901221e-08  2.8942112690044868e-08  2.9704475384174538e-08  3.0486919434484079e-08 
 3.1289973802927775e-08  3.2114181384818735e-08  3.2960099375846863e-08  3.3828299648763984e-08 
 3.4719369139991898e-08  3.5633910246413449e-08  3.6572541232615777e-08  3.7535896648860595e-08 
 3.8524627760064348e-08  3.9539402986077882e-08  4.0580908353563651e-08  4.1649847959775957e-08 
 4.2746944448557137e-08  4.3872939498872372e-08  4.5028594326212798e-08  4.6214690197205927e-08 
 4.7432028957781803e-08  4.8681433575250819e-08  4.9963748694661245e-08  5.1279841209811046e-08 
 5.2630600849301085e-08  5.4016940778025174e-08  5.5439798214504603e-08  5.6900135064482746e-08 
 5.8398938571210326e-08  5.9937221982858886e-08  6.1516025237515176e-08  6.3136415666218624e-08 
 6.4799488714517482e-08  6.6506368683031419e-08  6.8258209487521478e-08  7.0056195438980762e-08 
 7.1901542044273364e-08  7.3795496827863168e-08  7.5739340175187354e-08  7.7734386198245676e-08 
 7.9781983623989489e-08  8.1883516706112723e-08  8.4040406160859108e-08  8.6254110127480339e-08 
 8.8526125153993341e-08  9.0857987208903310e-08  9.3251272719576194e-08  9.5707599637963273e-08 
 9.8228628534397837e-08  1.0081606372020342e-07  1.0347165439987221e-07  1.0619719585359387e-07 
 1.0899453065093211e-07  1.1186554989647172e-07  1.1481219450827617e-07  1.1783645653002111e-07 
 1.2094038047769206e-07  1.2412606472175289e-07  1.2739566290572421e-07  1.3075138540212709e-07 
 1.3419550080677808e-07  1.3773033747244545e-07  1.4135828508290321e-07  1.4508179626844700e-07 
 1.4890338826396471e-07  1.5282564461068145e-07  1.5685121690273081e-07  1.6098282657973199e-07 
 1.6522326676658481e-07  1.6957540416172693e-07  1.7404218097513073e-07  1.7862661691734551e-07 
 1.8333181124093645e-07  1.8816094483569485e-07  1.9311728237903916e-07  1.9820417454305838e-07 
 2.0342506025969272e-07  2.0878346904557917e-07  2.1428302338813677e-07  2.1992744119450465e-07 
 2.2572053830498425e-07  2.3166623107269093e-07  2.3776853901115430e-07  2.4403158751165939e-07 
 2.5045961063216440e-07  2.5705695395968204e-07  2.6382807754805802e-07  2.7077755893313234e-07 
 2.7791009622732518e-07  2.8523051129573342e-07  2.9274375301589237e-07  3.0045490062339953e-07 
 3.0836916714566558e-07  3.1649190292611429e-07  3.2482859924121357e-07  3.3338489201278051e-07 
 3.4216656561807235e-07  3.5117955680024034e-07  3.6042995868178520e-07  3.6992402488373489e-07 
 3.7966817375332013e-07  3.8966899270301555e-07  3.9993324266387035e-07  4.1046786265614822e-07 
 4.2127997448035830e-07  4.3237688753185172e-07  4.4376610374224487e-07  4.5545532265099443e-07 
 4.6745244661057179e-07  4.7976558612873656e-07  4.9240306535154159e-07  5.0537342769075264e-07 
 5.1868544159950962e-07  5.3234810650011778e-07  5.4637065886798266e-07  5.6076257847580433e-07 
 5.7553359480224262e-07  5.9069369360940199e-07  6.0625312369356034e-07  6.2222240381372963e-07 
 6.3861232980271105e-07  6.5543398186546949e-07  6.7269873206974733e-07  6.9041825203398616e-07 
 7.0860452081776496e-07  7.2726983302006373e-07  7.4642680709085710e-07  7.6608839386162848e-07 
 7.8626788530059650e-07  8.0697892349855264e-07  8.2823550989139812e-07  8.5005201472560973e-07 
 8.7244318677302711e-07  8.9542416330154682e-07  9.1901048030843605e-07  9.4321808302322298e-07 
 9.6806333668721337e-07  9.9356303761697622e-07  1.0197344245592263e-06  1.0465951903448146e-06 
 1.0741634938496997e-06  1.1024579722709657e-06  1.1314977537262097e-06  1.1613024701848013e-06 
 1.1918922707397697e-06  1.2232878352292656e-06  1.2555103882168443e-06  1.2885817133399824e-06 
 1.3225241680365438e-06  1.3573606986591706e-06  1.3931148559877811e-06  1.4298108111506730e-06 
 1.4674733719650189e-06  1.5061279997077654e-06  1.5458008263282955e-06  1.5865186721144879e-06 
 1.6283090638241028e-06  1.6712002532937626e-06  1.7152212365381150e-06  1.7604017733520691e-06 
 1.8067724074293692e-06  1.8543644870111152e-06  1.9032101860781464e-06  1.9533425261017036e-06 
 2.0047953983669451e-06  2.0576035868845371e-06  2.1118027919057089e-06  2.1674296540567402e-06 
 2.2245217791091346e-06  2.2831177634022737e-06  2.3432572199357148e-06  2.4049808051487521e-06 
 2.4683302464053993e-06  2.5333483702033272e-06  2.6000791311258243e-06  2.6685676415563736e-06 
 2.7388602021759465e-06  2.8110043332635846e-06  2.8850488068214472e-06  2.9610436795460917e-06 
 3.0390403266681625e-06  3.1190914766834899e-06  3.2012512469989954e-06  3.2855751805175292e-06 
 3.3721202831863437e-06  3.4609450625346548e-06  3.5521095672262407e-06  3.6456754276539103e-06 
 3.7417058976032139e-06  3.8402658970136124e-06  3.9414220558659541e-06  4.0452427592260075e-06 
 4.1517981934743972e-06  4.2611603937542741e-06  4.3734032926687613e-06  4.4886027702611328e-06 
 4.6068367053113889e-06  4.7281850279840853e-06  4.8527297738628475e-06  4.9805551394082108e-06 
 5.1117475388761632e-06  5.2463956627359912e-06  5.3845905376267679e-06  5.5264255878931902e-06 
 5.6719966987422056e-06  5.8214022810631734e-06  5.9747433379554503e-06  6.1321235330081974e-06 
 6.2936492603787819e-06  6.4594297167169500e-06  6.6295769749835092e-06  6.8042060602133375e-06 
 6.9834350272740135e-06  7.1673850406725833e-06  7.3561804564643437e-06  7.5499489063191701e-06 
 7.7488213838020246e-06  7.9529323329261463e-06  8.1624197390385914e-06  8.3774252220997473e-06 
 8.5980941324196762e-06  8.8245756489162016e-06  9.0570228799609889e-06  9.2955929668818067e-06 
 9.5404471901910852e-06  9.7917510786122784e-06  1.0049674520978082e-05  1.0314391881075789e-05 
 1.0586082115517702e-05  1.0864928894715969e-05  1.1151120727044004e-05  1.1444851086267956e-05 
 1.1746318542334744e-05  1.2055726895604827e-05  1.2373285314620398e-05  1.2699208477502537e-05 
 1.3033716717072122e-05  1.3377036169793424e-05  1.3729398928640378e-05  1.4091043199989229e-05 
 1.4462213464643578e-05  1.4843160643100276e-05  1.5234142265168450e-05  1.5635422644055701e-05 
 1.6047273055039619e-05  1.6469971918845048e-05  1.6903804989851142e-05  1.7349065549255347e-05 
 1.7806054603325010e-05  1.8275081086870339e-05  1.8756462072076492e-05  1.9250522982835610e-05 
 1.9757597814723940e-05  2.0278029360772543e-05  2.0812169443184073e-05  2.1360379151152493e-05 
 2.1923029084945996e-05  2.2500499606418554e-05  2.3093181096119008e-05  2.3701474217171616e-05 
 2.4325790186106142e-05  2.4966551050820891e-05  2.5624189975866131e-05  2.6299151535240756e-05 
 2.6991892012900128e-05  2.7702879711178046e-05  2.8432595267331116e-05  2.9181531978419887e-05 
 2.9950196134745401e-05  3.0739107362067240e-05  3.1548798972833887e-05  3.2379818326662526e-05 
 3.3232727200312435e-05  3.4108102167401098e-05  3.5006534988120058e-05  3.5928633009213940e-05 
 3.6875019574492264e-05  3.7846334446151664e-05  3.8843234237193343e-05  3.9866392855227232e-05 
 4.0916501957963428e-05  4.1994271420697859e-05  4.3100429816108287e-05  4.4235724906684287e-05 
 4.5400924150124901e-05  4.6596815218043752e-05  4.7824206528332794e-05  4.9083927791544612e-05 
 5.0376830571661022e-05  5.1703788861627791e-05  5.3065699674043639e-05  5.4463483647402425e-05 
 5.5898085668297399e-05  5.7370475510008865e-05  5.8881648487905066e-05  6.0432626132099409e-05 
 6.2024456877818091e-05  6.3658216773944124e-05  6.5335010210216404e-05  6.7055970663573933e-05 
 6.8822261464149620e-05  7.0635076581430437e-05  7.2495641431115053e-05  7.4405213703211638e-05 
 7.6365084211938168e-05  7.8376577767994793e-05  8.0441054073799716e-05  8.2559908642291352e-05 
 8.4734573739916842e-05  8.6966519354443885e-05  8.9257254188247507e-05  9.1608326677743078e-05 
 9.4021326039651616e-05  9.6497883344805839e-05  9.9039672620217931e-05  1.0164841198015432e-04 
 1.0432586478697945e-04  1.0707384084255213e-04  1.0989419761097573e-04  1.1278884147352936e-04 
 1.1575972901662375e-04  1.1880886835364976e-04  1.2193832048161455e-04  1.2515020067347258e-04 
 1.2844667990709652e-04  1.3182998633184606e-04  1.3530240677372629e-04  1.3886628828014582e-04 
 1.4252403970531913e-04  1.4627813333737663e-04  1.5013110656828194e-04  1.5408556360767885e-04 
 1.5814417724181997e-04  1.6230969063876606e-04  1.6658491920106479e-04  1.7097275246715990e-04 
 1.7547615606280901e-04  1.8009817370382098e-04  1.8484192925146312e-04  1.8971062882191549e-04 
 1.9470756295119639e-04  1.9983610881701028e-04  2.0509973251901082e-04  2.1050199141901406e-04 
 2.1604653654273319e-04  2.2173711504464385e-04  2.2757757273764200e-04  2.3357185668918665e-04 
 2.3972401788567045e-04  2.4603821396681087e-04  2.5251871203188893e-04  2.5916989151972177e-04 
 2.6599624716429842e-04  2.7300239202805927e-04  2.8019306061485117e-04  2.8757311206464631e-04 
 2.9514753343215473e-04  3.0292144305153518e-04  3.1090009398945079e-04  3.1908887758877566e-04 
 3.2749332710532508e-04  3.3611912144003783e-04  3.4497208896910387e-04  3.5405821147459275e-04 
 3.6338362817820596e-04  3.7295463988084351e-04  3.8277771321074193e-04  3.9285948498302050e-04 
 4.0320676667352461e-04  4.1382654900995664e-04  4.2472600668334133e-04  4.3591250318295401e-04 
 4.4739359575792653e-04  4.5917704050882292e-04  4.7127079761255676e-04  4.8368303668411554e-04 
 4.9642214227864584e-04  5.0949671953752702e-04  5.2291559998217418e-04  5.3668784745939464e-04 
 5.5082276424221830e-04  5.6532989729021830e-04  5.8021904467345036e-04  5.9550026216423086e-04 
 6.1118387000107471e-04  6.2728045982925488e-04  6.4380090182249682e-04  6.6075635199049282e-04 
 6.7815825967700255e-04  6.9601837525342834e-04  7.1434875801288723e-04  7.3316178426989813e-04 
 7.5247015567096243e-04  7.7228690772140646e-04  7.9262541853402692e-04  8.1349941780515839e-04 
 8.3492299602397986e-04  8.5691061392095640e-04  8.7947711216150571e-04  9.0263772129107794e-04 
 9.2640807193800328e-04  9.5080420528063014e-04  9.7584258378537289e-04  1.0015401022225121e-03 
 1.0279140989666795e-03  1.0549823675891628e-03  1.0827631687493153e-03  1.1112752423925118e-03 
 1.1405378202622553e-03  1.1705706387342251e-03  1.2013939519802095e-03  1.2330285454700363e-03 
 1.2654957498198231e-03  1.2988174549949806e-03  1.3330161248766412e-03  1.3681148122003364e-03 
 1.4041371738759234e-03  1.4411074866979552e-03  1.4790506634558605e-03  1.5179922694534844e-03 
 1.5579585394477232e-03  1.5989763950161884e-03  1.6410734623639870e-03  1.6842780905798780e-03 
 1.7286193703523391e-03  1.7741271531561049e-03  1.8208320709200655e-03  1.8687655561874790e-03 
 1.9179598627797126e-03  1.9684480869747892e-03  2.0202641892123484e-03  2.0734430163365700e-03 
 2.1280203243889857e-03  2.1840328019630921e-03  2.2415180941329146e-03  2.3005148269677660e-03 
 2.3610626326455854e-03  2.4232021751773502e-03  2.4869751767551667e-03  2.5524244447367806e-03 
 2.6195938992792339e-03  2.6885286016345780e-03  2.7592747831205263e-03  2.8318798747790164e-03 
 2.9063925377356471e-03  2.9828626942729614e-03  3.0613415596305524e-03  3.1418816745448488e-03 
 3.2245369385415549e-03  3.3093626439933215e-03  3.3964155109554675e-03  3.4857537227921311e-03 
 3.5774369626052020e-03  3.6715264504781383e-03  3.7680849815465048e-03  3.8671769649068224e-03 
 3.9688684633748918e-03  4.0732272341046320e-03  4.1803227700776451e-03  4.2902263424737424e-03 
 4.4030110439317515e-03  4.5187518327096214e-03  4.6375255777520961e-03  4.7594111046736611e-03 
 4.8844892426635885e-03  5.0128428723192836e-03  5.1445569744131931e-03  5.2797186795976725e-03 
 5.4184173190510851e-03  5.5607444760676873e-03  5.7067940385923084e-03  5.8566622527000652e-03 
 6.0104477770197822e-03  6.1682517380987302e-03  6.3301777867046201e-03  6.4963321550597711e-03 
 6.6668237150002653e-03  6.8417640370519450e-03  7.0212674504129971e-03  7.2054511038314433e-03 
 7.3944350273640325e-03  7.5883421950012136e-03  7.7872985881412169e-03  7.9914332598940881e-03 
 8.2008784001952328e-03  8.4157694017055664e-03  8.6362449264738676e-03  8.8624469733351533e-03 
 9.0945209460170286e-03  9.3326157219241028e-03  9.5768837215694427e-03  9.8274809786199936e-03 
 1.0084567210521891e-02  1.0348305889670496e-02  1.0618864315088603e-02  1.0896413684576075e-02 
 1.1181129167293339e-02  1.1473189976741191e-02  1.1772779444099985e-02  1.2080085091891011e-02 
 1.2395298707925401e-02  1.2718616419506118e-02  1.3050238767852187e-02  1.3390370782716116e-02 
 1.3739222057169711e-02  1.4097006822537710e-02  1.4463944023463526e-02  1.4840257393097982e-02 
 1.5226175528408079e-02  1.5621931965611742e-02  1.6027765255752505e-02  1.6443919040439119e-02 
 1.6870642127785180e-02  1.7308188568597317e-02  1.7756817732872774e-02  1.8216794386683111e-02 
 1.8688388769534967e-02  1.9171876672317321e-02  1.9667539515960876e-02  2.0175664430955094e-02 
 2.0696544337887566e-02  2.1230478029189908e-02  2.1777770252295658e-02  2.2338731794435733e-02 
 2.2913679569317131e-02  2.3502936705950540e-02  2.4106832639910706e-02  2.4725703207330262e-02 
 2.5359890741942101e-02  2.6009744175497278e-02  2.6675619141891954e-02  2.7357878085340705e-02 
 2.8056890372929025e-02  2.8773032411869078e-02  2.9506687771762526e-02  3.0258247312146973e-02 
 3.1028109315562231e-02  3.1816679626319733e-02  3.2624371795092019e-02  3.3451607229352892e-02 
 3.4298815349598132e-02  3.5166433751151825e-02  3.6054908371217671e-02  3.6964693660662490e-02 
 3.7896252759821974e-02  3.8850057677390006e-02  3.9826589471195085e-02  4.0826338429376711e-02 
 4.1849804250147553e-02  4.2897496217967769e-02  4.3969933373561559e-02  4.5067644674772360e-02 
 4.6191169144785500e-02  4.7341056003746960e-02  4.8517864779272751e-02  4.9722165390783987e-02 
 5.0954538202022073e-02  5.2215574035499222e-02  5.3505874142037280e-02  5.4826050117947313e-02 
 5.6176723761819605e-02  5.7558526862341787e-02  5.8972100908062965e-02  6.0418096709590065e-02 
 6.1897173924364987e-02  6.3410000473957603e-02  6.4957251843737143e-02  6.6539610254904194e-02 
 6.8157763699191853e-02  6.9812404827129401e-02  7.1504229681634696e-02  7.3233936269905972e-02 
 7.5002222968157811e-02  7.6809786755724793e-02  7.8657321277484399e-02  8.0545514736440005e-02 
 8.2475047621703990e-02  8.4446590281022083e-02  8.6460800351395389e-02  8.8518320066278383e-02 
 9.0619773463211109e-02  9.2765763521548014e-02  9.4956869266072608e-02  9.7193642878644987e-02 
 9.9476606866453515e-02  1.0180625134176276e-01  1.0418303147403934e-01  1.0660736518072413e-01 
 1.0907963112739778e-01  1.1160016711130608e-01  1.1416926890377550e-01  1.1678718962652999e-01 
 1.1945413973388669e-01  1.2217028766675871e-01  1.2493576123492266e-01  1.2775064977062836e-01 
 1.3061500707900006e-01  1.3352885518846366e-01  1.3649218887747094e-01  1.3950498092201705e-01 
 1.4256718797204179e-01  1.4567875692414148e-01  1.4883963161377911e-01  1.5204975960336872e-01 
 1.5530909879456267e-01  1.5861762354554546e-01  1.6197532992928179e-01  1.6538223972902666e-01 
 1.6883840273595688e-01  1.7234389689380095e-01  1.7589882583043709e-01  1.7950331333034686e-01 
 1.8315749433835241e-01  1.8686150214786815e-01  1.9061545151925505e-01  1.9441941759830697e-01 
 1.9827341066311380e-01  2.0217734691970274e-01  2.0613101579144893e-01  2.1013404440052144e-01 
 2.1418586021517480e-01  2.1828565312506232e-01  2.2243233849510327e-01  2.2662452302028882e-01 
 2.3086047543913063e-01  2.3513810433876542e-01  2.3945494537383172e-01  2.4380816019620544e-01 
 2.4819454922544235e-01  2.5261058005422465e-01  2.5705243275772671e-01  2.6151606264700822e-01 
 2.6599728007193163e-01  2.7049184575144464e-01  2.7499557881954212e-01  2.7950447337636930e-01 
 2.8401481790132727e-01  2.8852331051753888e-01  2.9302716191469930e-01  2.9752417687708543e-01 
 3.0201280497205313e-01  3.0649215117830658e-01  3.1096193820692603e-01  3.1542241409927912e-01 
 3.1987420143985301e-01  3.2431808820560054e-01  3.2875476481867938e-01  3.3318451721938092e-01 
 3.3760689147174267e-01  3.4202035118704771e-01  3.4642195441945750e-01  3.5080708106793590e-01 
 3.5516924454037690e-01  3.5950002178551904e-01  3.6378913307973110e-01  3.6802469657826753e-01 
 3.7219367223188554e-01  3.7628249520582074e-01  3.8027788087525860e-01  3.8416776285442106e-01 
 3.8794230403270086e-01  3.9159490053793977e-01  3.9512308268347296e-01  3.9852920823315868e-01 
 4.0182084449977717e-01  4.0501074900340700e-01  4.0811638470076556e-01  4.1115894474355275e-01 
 4.1416191124620189e-01  4.1714922884035505e-01  4.2014323150244598e-01  4.2316251364669633e-01 
 4.2621997633775627e-01  4.2932129896836463e-01  4.3246407855934210e-01  4.3563783705848713e-01 
 4.3882501847030653e-01  4.4200298360948376e-01  4.4514686823390937e-01  4.4823301530650833e-01 
 4.5124254675020248e-01  4.5416458892737227e-01  4.5699497935196554e-01  4.5973048109879627e-01 
 4.6236786945601999e-01  4.6490393627670556e-01  4.6733549444749845e-01  4.6965938246824579e-01 
 4.7187246913765818e-01  4.7397165833962723e-01  4.7595389392436932e-01  4.7781616467811266e-01 
 4.7955550937459795e-01  4.8116902190119670e-01  4.8265385645200565e-01  4.8400723277981972e-01 
 4.8522644149843802e-01  4.8630884942631070e-01  4.8725190496210380e-01  4.8805314348232287e-01 
 4.8871019275072264e-01  4.8922077832882044e-01  4.8958272897643773e-01  4.8979398203080898e-01 
 4.8985258875245291e-01  4.8975671962562811e-01  4.8950466960089906e-01  4.8909486326701956e-01 
 4.8852585993906872e-01  4.8779635864952015e-01  4.8690520302869617e-01  4.8585138606086276e-01 
 4.8463405470205406e-01  4.8325251434557465e-01  4.8170623312102068e-01  4.7999484601259779e-01 
 4.7811815878246972e-01  4.7607615168487538e-01  4.7386898295678348e-01  4.7149699207093576e-01 
 4.6896070273722840e-01  4.6626082563854315e-01  4.6339826088732539e-01  4.6037410018942237e-01 
 4.5718962870197649e-01  4.5384632657246049e-01  4.5034587014628641e-01  4.4669013283080244e-01 
 4.4288118560389822e-01  4.3892129715589961e-01  4.3481293365391044e-01  4.3055875811828181e-01 
 4.2616162940144486e-01  4.2162460075990882e-01  4.1695091801086609e-01  4.1214401726546029e-01 
 4.0720752223146894e-01  4.0214524107884109e-01  3.9696116286226951e-01  3.9165945349573345e-01 
 3.8624445127476331e-01  3.8072066194298254e-01  3.7509275330038211e-01  3.6936554935164512e-01 
 3.6354402399373859e-01  3.5763329424332818e-01  3.5163861300681110e-01  3.4556536139306349e-01 
 3.3941904057407446e-01  3.3320526319899646e-01  3.2692974436798661e-01  3.2059829214683949e-01 
 3.1421679777713218e-01  3.0779122530139452e-01  3.0132760091087418e-01  2.9483200188812936e-01 
 2.8831054519143762e-01  2.8176937570371124e-01  2.7521465417129110e-01  2.6865254486115853e-01 
 2.6208920296853094e-01  2.5553076181037920e-01  2.4898331984413005e-01  2.4245292755460696e-01 
 2.3594557425608922e-01  2.2946717486014825e-01  2.2302355666358320e-01  2.1662044621421897e-01 
 2.1026345631548449e-01  2.0395807323342716e-01  1.9770964417206066e-01  1.9152336508458376e-01 
 1.8540426888895184e-01  1.7935721415645814e-01  1.7338687434130468e-01  1.6749772761757470e-01 
 1.6169404738752496e-01  1.5597989352167232e-01  1.5035910438679714e-01  1.4483528971273560e-01 
 1.3941182434276334e-01  1.3409184290556256e-01  1.2887823543931937e-01  1.2377364399054064e-01 
 1.1878046020184295e-01  1.1390082389440011e-01  1.0913662264208564e-01  1.0448949232576833e-01 
 9.9960818647857025e-02  9.5551739579187667e-02  9.1263148702829949e-02  8.7095699412481881e-02 
 8.3049809916913575e-02  7.9125668996503265e-02  7.5323242453346109e-02  7.1642280192739480e-02 
 6.8082323871112529e-02  6.4642715043644647e-02  6.1322603743928110e-02  5.8120957428030008e-02 
 5.5036570216162824e-02  5.2068072366825292e-02  4.9213939920658568e-02  4.6472504454299110e-02 
 4.3841962888108529e-02  4.1320387295716868e-02  3.8905734667819609e-02  3.6595856587361822e-02 
 3.4388508778002841e-02  3.2281360492792489e-02  3.0272003714900842e-02  2.8357962146873965e-02 
 2.6536699969413647e-02  2.4805630354870985e-02  2.3162123724358375e-02  2.1603515740674130e-02 
 2.0127115032056702e-02  1.8730210644039319e-02  1.7410079218397420e-02  1.6163991899371084e-02 
 1.4989220968046404e-02  1.3883046206000265e-02  1.2842760989112446e-02  1.1865678111964255e-02 
 1.0949135342490184e-02  1.0090500705604480e-02  9.2871774934969852e-03  8.5366089992923132e-03 
 7.8362829698583325e-03  7.1837357727419244e-03  6.5765562716373835e-03  6.0123894044989230e-03 
 5.4889394583862352e-03  5.0039730354213881e-03  4.5553217048393910e-03  4.1408843370226165e-03 
 3.7586291166001266e-03  3.4065952331344827e-03  3.0828942495718446e-03  2.7857111504495107e-03 
 2.5133050737895820e-03  2.2640097326060171e-03  2.0362335339649969e-03  1.8284594055151373e-03 
 1.6392443413000557e-03  1.4672186804397169e-03  1.3110851338836694e-03  1.1696175758694816e-03 
 1.0416596179405036e-03  9.2612298437200181e-04  8.2198570861378073e-04  7.2829017087625253e-04 
 6.4414099726705797e-04  5.6870284093294690e-04  5.0119806548736532e-04  4.4090435062227491e-04 
 3.8715223923036738e-04  3.3932264462047020e-04  2.9684433551572528e-04  2.5919141550311675e-04 
 2.2588081247676707e-04  1.9646979240858610e-04  1.7055351051042502e-04  1.4776261154301711e-04 
 1.2776088969866328e-04  1.1024301715541192e-04  9.4932349087312542e-05  8.1578811633340069e-05 
 6.9956878090110734e-05  5.9863637411931443e-05  5.1116957985562896e-05  4.3553748603962641e-05 
 3.7028317599076370e-05  3.1410830212582166e-05  2.6585863487929285e-05  2.2451057258119204e-05 
 1.8915859181206366e-05  1.5900361238017533e-05  1.3334224651637436e-05  1.1155689812441118e-05 
 9.3106674917920846e-06  7.7519073973062319e-06  6.4382399576905009e-06  5.3338871201677792e-06 
 4.4078378927610923e-06  3.6332843615054872e-06  2.9871139532674069e-06  2.4494537926543364e-06 
 2.0032631110370976e-06  1.6339698017587482e-06  1.3291473732270177e-06  1.0782287261633060e-06 
 8.7225336854704165e-07  7.0364487785914592e-07  5.6601562158879270e-07  4.5399595050908405e-07 
 3.6308528222161859e-07  2.8952269256690532e-07  2.3017482770944609e-07  1.8243913837652254e-07 
 1.4416061858650725e-07  1.1356040312672895e-07  8.9174740384076448e-08  6.9803009321040826e-08 
 5.4463591155948780e-08  4.2356537545936638e-08  3.2832097846485208e-08  2.5364278531659976e-08 
 1.9528708417462930e-08  1.4984174340545890e-08  1.1457273879687246e-08  8.7297050929424749e-09 
 6.6277786386152341e-09  5.0137956338616728e-09  3.7789857654297216e-09  2.8377450884665514e-09 
 2.1229522007816909e-09  1.5821756131446351e-09  1.1746146770214098e-09  8.6864187609938155e-10 
 6.3983610113830054e-10  4.6941513905147621e-10  3.4299141163992795e-10  2.4958835682079614e-10 
 1.8086608103925677e-10  1.3051431787275281e-10  9.3778565049181384e-11  6.7091770742045812e-11 
 4.7789302827729610e-11  3.3889338955861744e-11  2.3924414614154591e-11  1.6812793585197472e-11 
 1.1760694105372921e-11  8.1883116465987343e-12  5.6741077260187321e-12  3.9130527071127449e-12 
 2.6854771142319570e-12  1.8339487430930770e-12  1.2461916850677165e-12  8.4253108150108381e-13 
 5.6671091799123914e-13  3.7921330489479381e-13  2.5241927403223401e-13  1.6712774210618152e-13 
 1.1006047894197785e-13  7.2084254105640426e-14  4.6950964091262493e-14  3.0409707674999129e-14 
 1.9584465346084728e-14  1.2540378335656252e-14  7.9831866132415479e-15  5.0521413938738709e-15 
 3.1781522686517746e-15  1.9871921849177623e-15  1.2349134950357545e-15  7.6265790969650276e-16 
 4.6804134611902056e-16  2.8540660459561704e-16  1.7291507865016007e-16  1.0407681123074068e-16 
 6.2228607865412692e-17  3.6957572325594946e-17  2.1799964152200466e-17  1.2770513733029957e-17 
 7.4288561199988405e-18  4.2909825443372891e-18  2.4607782811981760e-18  1.4009684380263226e-18 
 7.9174078043729865e-19  4.4411416128238569e-19  2.4724117817198032e-19  1.3658993806219280e-19 
 7.4876414796212625e-20  4.0724539931604837e-20  2.1973964377434156e-20  1.1761381133276137e-20 
 6.2440113290178059e-21  3.2876467891449603e-21  1.7166814355108737e-21  8.8890955054309403e-22 
 4.5645322871636657e-22  2.3247143809974101e-22  1.1747815098926908e-22  5.8962757156878241e-23 
 2.9454168156665972e-23  0.0000000000000000e+00  0.0000000000000000e+00  0.0000000000000000e+00 
 0.0000000000000000e+00  0.0000000000000000e+00  0.0000000000000000e+00  0.0000000000000000e+00 
 0.0000000000000000e+00  0.0000000000000000e+00  0.0000000000000000e+00  0.0000000000000000e+00 
 0.0000000000000000e+00  0.0000000000000000e+00  0.0000000000000000e+00  0.0000000000000000e+00 
 0.0000000000000000e+00  0.0000000000000000e+00  0.0000000000000000e+00  0.0000000000000000e+00 
 0.0000000000000000e+00  0.0000000000000000e+00  0.0000000000000000e+00  0.0000000000000000e+00 
 0.0000000000000000e+00  0.0000000000000000e+00  0.0000000000000000e+00  0.0000000000000000e+00 
 0.0000000000000000e+00  0.0000000000000000e+00  0.0000000000000000e+00  0.0000000000000000e+00 
 0.0000000000000000e+00  0.0000000000000000e+00  0.0000000000000000e+00  0.0000000000000000e+00 
 0.0000000000000000e+00  0.0000000000000000e+00  0.0000000000000000e+00  0.0000000000000000e+00 
 0.0000000000000000e+00  0.0000000000000000e+00  0.0000000000000000e+00  0.0000000000000000e+00 
 0.0000000000000000e+00  0.0000000000000000e+00  0.0000000000000000e+00  0.0000000000000000e+00 
 0.0000000000000000e+00  0.0000000000000000e+00  0.0000000000000000e+00  0.0000000000000000e+00 
 0.0000000000000000e+00  0.0000000000000000e+00  0.0000000000000000e+00  0.0000000000000000e+00 
 0.0000000000000000e+00  0.0000000000000000e+00  0.0000000000000000e+00  0.0000000000000000e+00 
 0.0000000000000000e+00  0.0000000000000000e+00  0.0000000000000000e+00  0.0000000000000000e+00 
 0.0000000000000000e+00  0.0000000000000000e+00  0.0000000000000000e+00  0.0000000000000000e+00 
 0.0000000000000000e+00  0.0000000000000000e+00  0.0000000000000000e+00  0.0000000000000000e+00 
 0.0000000000000000e+00  0.0000000000000000e+00  0.0000000000000000e+00  0.0000000000000000e+00 
 0.0000000000000000e+00  0.0000000000000000e+00  0.0000000000000000e+00  0.0000000000000000e+00 
 0.0000000000000000e+00  0.0000000000000000e+00  0.0000000000000000e+00  0.0000000000000000e+00 
</PP_RHOATOM>
