Running Quantum Espresso 6.7


     Program PWSCF v.6.7MaX starts on  4Jan2026 at 22:59:31 

     This program is part of the open-source Quantum ESPRESSO suite
     for quantum simulation of materials; please cite
         "P. Giannozzi et al., J. Phys.:Condens. Matter 21 395502 (2009);
         "P. Giannozzi et al., J. Phys.:Condens. Matter 29 465901 (2017);
          URL http://www.quantum-espresso.org", 
     in publications or presentations arising from this work. More details at
     http://www.quantum-espresso.org/quote

     Parallel version (MPI & OpenMP), running on     120 processor cores
     Number of MPI processes:               120
     Threads/MPI process:                     1

     MPI processes distributed on     1 nodes
     K-points division:     npool     =      10
     R & G space division:  proc/nbgrp/npool/nimage =      12
     Waiting for input...
     Reading input from standard input
Warning: card &CELL ignored
Warning: card   CELL_DYNAMICS     = 'BFGS' ignored
Warning: card   PRESS_CONV_THR    = 0.5D0 ignored
Warning: card / ignored

     Current dimensions of program PWSCF are:
     Max number of different atomic species (ntypx) = 10
     Max number of k-points (npk) =  40000
     Max angular momentum in pseudopotentials (lmaxx) =  3
     Presently stress not available with electric field and gates

     Message from routine scan_end:
     No INFO block end statement, possibly corrupted file
     Message from routine scan_end:
     No INFO block end statement, possibly corrupted file

     IMPORTANT: XC functional enforced from input :
     Exchange-correlation= PBESOL
                           (   1   4  10   8   0   0   0)
     Any further DFT definition will be discarded
     Please, verify this is what you really want


     Subspace diagonalization in iterative solution of the eigenvalue problem:
     one sub-group per band group will be used
     scalapack distributed-memory algorithm (size of sub-group:  3*  3 procs)

     Message from routine setup:
     no reason to have ecutrho>4*ecutwfc
 
     Parallelization info
     --------------------
     sticks:   dense  smooth     PW     G-vecs:    dense   smooth      PW
     Min         237     118     34                66773    23594    3572
     Max         238     120     35                66800    23602    3579
     Sum        2851    1431    409               801463   283191   42907
 

     Title: 
     hfo2                                                                       


     bravais-lattice index     =            0
     lattice parameter (alat)  =       9.6571  a.u.
     unit-cell volume          =    5930.7170 (a.u.)^3
     number of atoms/cell      =           33
     number of atomic types    =            2
     number of electrons       =       270.00
     number of Kohn-Sham states=          162
     kinetic-energy cutoff     =      50.0000  Ry
     charge density cutoff     =     400.0000  Ry
     scf convergence threshold =      1.0E-07
     mixing beta               =       0.3000
     number of iterations used =            8  local-TF  mixing
     energy convergence thresh.=      1.0E-06
     force convergence thresh. =      1.0E-05
     Exchange-correlation= PBESOL
                           (   1   4  10   8   0   0   0)
     nstep                     =          300


     celldm(1)=   9.657120  celldm(2)=   0.000000  celldm(3)=   0.000000
     celldm(4)=   0.000000  celldm(5)=   0.000000  celldm(6)=   0.000000

     crystal axes: (cart. coord. in units of alat)
               a(1) = (   1.000000   0.000000   0.000000 )  
               a(2) = (   0.000000   0.961491   0.000000 )  
               a(3) = (   0.000000   0.000000   6.848876 )  

     reciprocal axes: (cart. coord. in units 2 pi/alat)
               b(1) = (  1.000000  0.000000  0.000000 )  
               b(2) = (  0.000000  1.040052  0.000000 )  
               b(3) = (  0.000000  0.000000  0.146009 )  


     PseudoPot. # 1 for Hf read from file:
     ./hf.upf
     MD5 check sum: 6e148b7243e2ebe265e1add78b9e9d1f
     Pseudo is Norm-conserving, Zval = 12.0
     Generated by new atomic code, or converted to UPF format
     Using radial grid of 1186 points,  3 beta functions with: 
                l(1) =   0
                l(2) =   1
                l(3) =   2

     PseudoPot. # 2 for O  read from file:
     ./o.upf
     MD5 check sum: 6afdad5913fe366ac5de9e6b2d735f4a
     Pseudo is Norm-conserving, Zval =  6.0
     Generated by new atomic code, or converted to UPF format
     Using radial grid of 1130 points,  1 beta functions with: 
                l(1) =   1

     atomic species   valence    mass     pseudopotential
        Hf            12.00   178.49000     Hf( 1.00)
        O              6.00    15.99940     O ( 1.00)

     No symmetry found


                                    s                        frac. trans.

      isym =  1     identity                                     

 cryst.   s( 1) = (     1          0          0      )
                  (     0          1          0      )
                  (     0          0          1      )

 cart.    s( 1) = (  1.0000000  0.0000000  0.0000000 )
                  (  0.0000000  1.0000000  0.0000000 )
                  (  0.0000000  0.0000000  1.0000000 )


   Cartesian axes

     site n.     atom                  positions (alat units)
         1           Hf  tau(   1) = (   0.7842235   0.7399451   1.2040302  )
         2           Hf  tau(   2) = (   0.7842235   0.7399451   2.1672450  )
         3           Hf  tau(   3) = (   0.7842235   0.7399451   3.1304597  )
         4           Hf  tau(   4) = (   0.2841847   0.2215480   1.2040279  )
         5           Hf  tau(   5) = (   0.2841847   0.2215480   2.1672426  )
         6           Hf  tau(   6) = (   0.2841847   0.2215480   3.1304574  )
         7           Hf  tau(   7) = (   0.7158050   0.2215535   1.6856126  )
         8           Hf  tau(   8) = (   0.7158050   0.2215535   2.6488274  )
         9           Hf  tau(   9) = (   0.7158050   0.2215535   3.6120421  )
        10           Hf  tau(  10) = (   0.2157889   0.7399347   1.6856271  )
        11           Hf  tau(  11) = (   0.2157889   0.7399347   2.6488417  )
        12           Hf  tau(  12) = (   0.2157889   0.7399347   3.6120564  )
        13           O   tau(  13) = (   0.6204684   0.4082464   1.3320954  )
        14           O   tau(  14) = (   0.6204684   0.4082464   2.2953099  )
        15           O   tau(  15) = (   0.6204684   0.4082464   3.2585247  )
        16           O   tau(  16) = (   0.1203901   0.5531334   1.3322803  )
        17           O   tau(  17) = (   0.1203901   0.5531334   2.2954951  )
        18           O   tau(  18) = (   0.1203901   0.5531334   3.2587098  )
        19           O   tau(  19) = (   0.9887994   0.0405952   1.4441234  )
        20           O   tau(  20) = (   0.9887994   0.0405952   2.4073382  )
        21           O   tau(  21) = (   0.9887994   0.0405952   3.3705529  )
        22           O   tau(  22) = (   0.3796168   0.4083067   1.8139144  )
        23           O   tau(  23) = (   0.3796168   0.4083067   2.7771289  )
        24           O   tau(  24) = (   0.8796408   0.5531426   1.8138361  )
        25           O   tau(  25) = (   0.8796408   0.5531426   2.7770509  )
        26           O   tau(  26) = (   0.8796408   0.5531426   3.7402654  )
        27           O   tau(  27) = (   0.4887886  -0.0406127   1.4441043  )
        28           O   tau(  28) = (   0.5112017  -0.0407244   1.9257246  )
        29           O   tau(  29) = (   0.4887886  -0.0406127   2.4073190  )
        30           O   tau(  30) = (   0.5112017  -0.0407244   2.8889394  )
        31           O   tau(  31) = (   0.4887886  -0.0406127   3.3705337  )
        32           O   tau(  32) = (   1.0111960   0.0406209   1.9257141  )
        33           O   tau(  33) = (   1.0111960   0.0406209   2.8889286  )

   Crystallographic axes

     site n.     atom                  positions (cryst. coord.)
         1           Hf  tau(   1) = (  0.7842235  0.7695812  0.1757997  )
         2           Hf  tau(   2) = (  0.7842235  0.7695812  0.3164381  )
         3           Hf  tau(   3) = (  0.7842235  0.7695812  0.4570764  )
         4           Hf  tau(   4) = (  0.2841847  0.2304214  0.1757993  )
         5           Hf  tau(   5) = (  0.2841847  0.2304214  0.3164377  )
         6           Hf  tau(   6) = (  0.2841847  0.2304214  0.4570761  )
         7           Hf  tau(   7) = (  0.7158050  0.2304271  0.2461152  )
         8           Hf  tau(   8) = (  0.7158050  0.2304271  0.3867536  )
         9           Hf  tau(   9) = (  0.7158050  0.2304271  0.5273920  )
        10           Hf  tau(  10) = (  0.2157889  0.7695704  0.2461173  )
        11           Hf  tau(  11) = (  0.2157889  0.7695704  0.3867557  )
        12           Hf  tau(  12) = (  0.2157889  0.7695704  0.5273941  )
        13           O   tau(  13) = (  0.6204684  0.4245974  0.1944984  )
        14           O   tau(  14) = (  0.6204684  0.4245974  0.3351367  )
        15           O   tau(  15) = (  0.6204684  0.4245974  0.4757751  )
        16           O   tau(  16) = (  0.1203901  0.5752874  0.1945254  )
        17           O   tau(  17) = (  0.1203901  0.5752874  0.3351638  )
        18           O   tau(  18) = (  0.1203901  0.5752874  0.4758021  )
        19           O   tau(  19) = (  0.9887994  0.0422212  0.2108555  )
        20           O   tau(  20) = (  0.9887994  0.0422212  0.3514939  )
        21           O   tau(  21) = (  0.9887994  0.0422212  0.4921323  )
        22           O   tau(  22) = (  0.3796168  0.4246601  0.2648485  )
        23           O   tau(  23) = (  0.3796168  0.4246601  0.4054868  )
        24           O   tau(  24) = (  0.8796408  0.5752969  0.2648371  )
        25           O   tau(  25) = (  0.8796408  0.5752969  0.4054754  )
        26           O   tau(  26) = (  0.8796408  0.5752969  0.5461138  )
        27           O   tau(  27) = (  0.4887886 -0.0422393  0.2108527  )
        28           O   tau(  28) = (  0.5112017 -0.0423555  0.2811738  )
        29           O   tau(  29) = (  0.4887886 -0.0422393  0.3514911  )
        30           O   tau(  30) = (  0.5112017 -0.0423555  0.4218122  )
        31           O   tau(  31) = (  0.4887886 -0.0422393  0.4921295  )
        32           O   tau(  32) = (  1.0111960  0.0422478  0.2811723  )
        33           O   tau(  33) = (  1.0111960  0.0422478  0.4218106  )

     number of k points=    10  Fermi-Dirac smearing, width (Ry)=  0.0100
                       cart. coord. in units 2pi/alat
        k(    1) = (   0.0000000   0.0000000   0.0000000), wk =   0.1250000
        k(    2) = (   0.0000000   0.2600129   0.0000000), wk =   0.2500000
        k(    3) = (   0.0000000  -0.5200259   0.0000000), wk =   0.1250000
        k(    4) = (   0.2500000   0.0000000   0.0000000), wk =   0.2500000
        k(    5) = (   0.2500000   0.2600129   0.0000000), wk =   0.2500000
        k(    6) = (   0.2500000  -0.5200259   0.0000000), wk =   0.2500000
        k(    7) = (   0.2500000  -0.2600129   0.0000000), wk =   0.2500000
        k(    8) = (  -0.5000000   0.0000000   0.0000000), wk =   0.1250000
        k(    9) = (  -0.5000000   0.2600129   0.0000000), wk =   0.2500000
        k(   10) = (  -0.5000000  -0.5200259   0.0000000), wk =   0.1250000

                       cryst. coord.
        k(    1) = (   0.0000000   0.0000000   0.0000000), wk =   0.1250000
        k(    2) = (   0.0000000   0.2500000   0.0000000), wk =   0.2500000
        k(    3) = (   0.0000000  -0.5000000   0.0000000), wk =   0.1250000
        k(    4) = (   0.2500000   0.0000000   0.0000000), wk =   0.2500000
        k(    5) = (   0.2500000   0.2500000   0.0000000), wk =   0.2500000
        k(    6) = (   0.2500000  -0.5000000   0.0000000), wk =   0.2500000
        k(    7) = (   0.2500000  -0.2500000   0.0000000), wk =   0.2500000
        k(    8) = (  -0.5000000   0.0000000   0.0000000), wk =   0.1250000
        k(    9) = (  -0.5000000   0.2500000   0.0000000), wk =   0.2500000
        k(   10) = (  -0.5000000  -0.5000000   0.0000000), wk =   0.1250000

     Dense  grid:   801463 G-vectors     FFT dimensions: (  64,  60, 432)

     Smooth grid:   283191 G-vectors     FFT dimensions: (  45,  45, 300)

     Dynamical RAM for                 wfc:       7.29 MB

     Dynamical RAM for     wfc (w. buffer):       7.29 MB

     Dynamical RAM for           str. fact:       2.04 MB

     Dynamical RAM for           local pot:       0.00 MB

     Dynamical RAM for          nlocal pot:       7.70 MB

     Dynamical RAM for                qrad:       0.92 MB

     Dynamical RAM for          rho,v,vnew:       6.22 MB

     Dynamical RAM for               rhoin:       2.07 MB

     Dynamical RAM for            rho*nmix:      16.31 MB

     Dynamical RAM for           G-vectors:       4.00 MB

     Dynamical RAM for          h,s,v(r/c):       0.53 MB

     Dynamical RAM for          <psi|beta>:       0.42 MB

     Dynamical RAM for                 psi:      14.58 MB

     Dynamical RAM for                hpsi:      14.58 MB

     Dynamical RAM for      wfcinit/wfcrot:      15.19 MB

     Estimated static dynamical RAM per process >      54.88 MB

     Estimated max dynamical RAM per process >      85.01 MB

     Estimated total dynamical RAM >       9.96 GB

     Atomic positions and unit cell read from directory:
     ./hfo2.save/
 

     The initial density is read from file :
     ./hfo2.save/charge-density

 
     Adding external electric field

     Computed dipole along edir(3) : 
        Elec. dipole         -2.7540 Ry au,         -6.9999 Debye
        Ion. dipole          -2.7530 Ry au,         -6.9975 Debye
        Dipole                0.4472 Ry au,          1.1366 Debye
        Dipole field          0.0009 Ry au, 
 
        E field amplitude [Ha a.u.]:  1.0000E-03
        Potential amp.        0.0066 Ry
        Total length         62.8334 bohr
 
     Starting wfcs from file

     total cpu time spent up to now is        9.1 secs

     Self-consistent Calculation

     iteration #  1     ecut=    50.00 Ry     beta= 0.30
     Davidson diagonalization with overlap
     ethr =  1.00E-05,  avg # of iterations =  2.0

     negative rho (up, down):  3.603E-06 0.000E+00
 
     Adding external electric field

     Computed dipole along edir(3) : 
        Elec. dipole         -2.7540 Ry au,         -7.0000 Debye
        Ion. dipole          -2.7530 Ry au,         -6.9975 Debye
        Dipole                0.4494 Ry au,          1.1423 Debye
        Dipole field          0.0010 Ry au, 
 
        E field amplitude [Ha a.u.]:  1.0000E-03
        Potential amp.        0.0060 Ry
        Total length         62.8334 bohr
 

     total cpu time spent up to now is       15.5 secs

     total energy              =   -1853.43462594 Ry
     estimated scf accuracy    <       0.01571929 Ry

     iteration #  2     ecut=    50.00 Ry     beta= 0.30
     Davidson diagonalization with overlap
     ethr =  5.82E-06,  avg # of iterations =  1.0

     negative rho (up, down):  1.011E-05 0.000E+00
 
     Adding external electric field

     Computed dipole along edir(3) : 
        Elec. dipole         -2.7540 Ry au,         -7.0000 Debye
        Ion. dipole          -2.7530 Ry au,         -6.9975 Debye
        Dipole                0.4515 Ry au,          1.1476 Debye
        Dipole field          0.0010 Ry au, 
 
        E field amplitude [Ha a.u.]:  1.0000E-03
        Potential amp.        0.0054 Ry
        Total length         62.8334 bohr
 

     total cpu time spent up to now is       25.6 secs

     total energy              =   -1853.43465047 Ry
     estimated scf accuracy    <       0.00165741 Ry

     iteration #  3     ecut=    50.00 Ry     beta= 0.30
     Davidson diagonalization with overlap
     ethr =  6.14E-07,  avg # of iterations =  1.0

     negative rho (up, down):  1.406E-05 0.000E+00
 
     Adding external electric field

     Computed dipole along edir(3) : 
        Elec. dipole         -2.7540 Ry au,         -7.0000 Debye
        Ion. dipole          -2.7530 Ry au,         -6.9975 Debye
        Dipole                0.4554 Ry au,          1.1574 Debye
        Dipole field          0.0010 Ry au, 
 
        E field amplitude [Ha a.u.]:  1.0000E-03
        Potential amp.        0.0044 Ry
        Total length         62.8334 bohr
 

     total cpu time spent up to now is       46.2 secs

     total energy              =   -1853.43465503 Ry
     estimated scf accuracy    <       0.00001645 Ry

     iteration #  4     ecut=    50.00 Ry     beta= 0.30
     Davidson diagonalization with overlap
     ethr =  6.09E-09,  avg # of iterations =  2.0

     negative rho (up, down):  8.066E-06 0.000E+00
 
     Adding external electric field

     Computed dipole along edir(3) : 
        Elec. dipole         -2.7540 Ry au,         -7.0000 Debye
        Ion. dipole          -2.7530 Ry au,         -6.9975 Debye
        Dipole                0.4572 Ry au,          1.1620 Debye
        Dipole field          0.0010 Ry au, 
 
        E field amplitude [Ha a.u.]:  1.0000E-03
        Potential amp.        0.0039 Ry
        Total length         62.8334 bohr
 

     total cpu time spent up to now is       57.5 secs

     total energy              =   -1853.43465598 Ry
     estimated scf accuracy    <       0.00000438 Ry

     iteration #  5     ecut=    50.00 Ry     beta= 0.30
     Davidson diagonalization with overlap
     ethr =  1.62E-09,  avg # of iterations =  2.0

     negative rho (up, down):  2.430E-06 0.000E+00
 
     Adding external electric field

     Computed dipole along edir(3) : 
        Elec. dipole         -2.7540 Ry au,         -7.0000 Debye
        Ion. dipole          -2.7530 Ry au,         -6.9975 Debye
        Dipole                0.4585 Ry au,          1.1654 Debye
        Dipole field          0.0010 Ry au, 
 
        E field amplitude [Ha a.u.]:  1.0000E-03
        Potential amp.        0.0036 Ry
        Total length         62.8334 bohr
 

     total cpu time spent up to now is       70.8 secs

     total energy              =   -1853.43465590 Ry
     estimated scf accuracy    <       0.00001833 Ry

     iteration #  6     ecut=    50.00 Ry     beta= 0.30
     Davidson diagonalization with overlap
     ethr =  1.62E-09,  avg # of iterations =  1.9
 
     Adding external electric field

     Computed dipole along edir(3) : 
        Elec. dipole         -2.7540 Ry au,         -7.0000 Debye
        Ion. dipole          -2.7530 Ry au,         -6.9975 Debye
        Dipole                0.4591 Ry au,          1.1670 Debye
        Dipole field          0.0010 Ry au, 
 
        E field amplitude [Ha a.u.]:  1.0000E-03
        Potential amp.        0.0034 Ry
        Total length         62.8334 bohr
 

     total cpu time spent up to now is       74.2 secs

     total energy              =   -1853.43465584 Ry
     estimated scf accuracy    <       0.00000424 Ry

     iteration #  7     ecut=    50.00 Ry     beta= 0.30
     Davidson diagonalization with overlap
     ethr =  1.57E-09,  avg # of iterations =  2.0
 
     Adding external electric field

     Computed dipole along edir(3) : 
        Elec. dipole         -2.7540 Ry au,         -7.0000 Debye
        Ion. dipole          -2.7530 Ry au,         -6.9975 Debye
        Dipole                0.4595 Ry au,          1.1679 Debye
        Dipole field          0.0010 Ry au, 
 
        E field amplitude [Ha a.u.]:  1.0000E-03
        Potential amp.        0.0033 Ry
        Total length         62.8334 bohr
 

     total cpu time spent up to now is       77.5 secs

     total energy              =   -1853.43465589 Ry
     estimated scf accuracy    <       0.00000044 Ry

     iteration #  8     ecut=    50.00 Ry     beta= 0.30
     Davidson diagonalization with overlap
     ethr =  1.62E-10,  avg # of iterations =  4.6
 
     Adding external electric field

     Computed dipole along edir(3) : 
        Elec. dipole         -2.7540 Ry au,         -7.0000 Debye
        Ion. dipole          -2.7530 Ry au,         -6.9975 Debye
        Dipole                0.4592 Ry au,          1.1673 Debye
        Dipole field          0.0010 Ry au, 
 
        E field amplitude [Ha a.u.]:  1.0000E-03
        Potential amp.        0.0034 Ry
        Total length         62.8334 bohr
 

     total cpu time spent up to now is       95.0 secs

     total energy              =   -1853.43465585 Ry
     estimated scf accuracy    <       0.00000084 Ry

     iteration #  9     ecut=    50.00 Ry     beta= 0.30
     Davidson diagonalization with overlap
     ethr =  1.62E-10,  avg # of iterations =  2.0
 
     Adding external electric field

     Computed dipole along edir(3) : 
        Elec. dipole         -2.7540 Ry au,         -7.0000 Debye
        Ion. dipole          -2.7530 Ry au,         -6.9975 Debye
        Dipole                0.4593 Ry au,          1.1673 Debye
        Dipole field          0.0010 Ry au, 
 
        E field amplitude [Ha a.u.]:  1.0000E-03
        Potential amp.        0.0034 Ry
        Total length         62.8334 bohr
 

     total cpu time spent up to now is      115.9 secs

     total energy              =   -1853.43465588 Ry
     estimated scf accuracy    <       0.00000072 Ry

     iteration # 10     ecut=    50.00 Ry     beta= 0.30
     Davidson diagonalization with overlap
     ethr =  1.62E-10,  avg # of iterations =  1.0
 
     Adding external electric field

     Computed dipole along edir(3) : 
        Elec. dipole         -2.7540 Ry au,         -7.0000 Debye
        Ion. dipole          -2.7530 Ry au,         -6.9975 Debye
        Dipole                0.4589 Ry au,          1.1665 Debye
        Dipole field          0.0010 Ry au, 
 
        E field amplitude [Ha a.u.]:  1.0000E-03
        Potential amp.        0.0035 Ry
        Total length         62.8334 bohr
 

     total cpu time spent up to now is      119.2 secs

     total energy              =   -1853.43465588 Ry
     estimated scf accuracy    <       0.00000087 Ry

     iteration # 11     ecut=    50.00 Ry     beta= 0.30
     Davidson diagonalization with overlap
     ethr =  1.62E-10,  avg # of iterations =  2.0
 
     Adding external electric field

     Computed dipole along edir(3) : 
        Elec. dipole         -2.7540 Ry au,         -7.0000 Debye
        Ion. dipole          -2.7530 Ry au,         -6.9975 Debye
        Dipole                0.4604 Ry au,          1.1703 Debye
        Dipole field          0.0010 Ry au, 
 
        E field amplitude [Ha a.u.]:  1.0000E-03
        Potential amp.        0.0031 Ry
        Total length         62.8334 bohr
 

     total cpu time spent up to now is      121.1 secs

     End of self-consistent calculation

          k = 0.0000 0.0000 0.0000 ( 35385 PWs)   bands (ev):

   -59.2670 -59.2536 -59.0219 -59.0064 -58.9753 -58.8731 -58.8577 -58.8076
   -58.7634 -58.7480 -58.6439 -58.6265 -29.1163 -29.0577 -28.9769 -28.8981
   -28.8551 -28.7966 -28.7863 -28.7711 -28.7321 -28.7201 -28.6809 -28.6655
   -28.6542 -28.6300 -28.5953 -28.5678 -28.5581 -28.5511 -28.4934 -28.4665
   -28.4597 -28.4392 -28.4151 -28.4031 -28.3622 -28.3548 -28.3434 -28.3180
   -28.2868 -28.2687 -28.2422 -28.2079 -28.1799 -28.1614 -28.1362 -28.1111
   -17.8660 -17.4714 -16.9587 -16.6721 -16.4255 -16.3875 -16.2593 -16.1743
   -16.0880 -16.0789 -15.9200 -15.7429 -15.5754 -15.4322 -15.4214 -15.3077
   -15.2875 -15.1813 -15.1448 -15.0855 -14.4221  -5.4823  -5.4540  -5.2985
    -5.2503  -5.1047  -5.0265  -4.6960  -4.6591  -4.4812  -4.4255  -4.3046
    -4.2604  -4.1699  -3.9446  -3.8467  -3.6726  -3.6499  -3.4753  -3.4273
    -3.3672  -3.1707  -3.1120  -2.8721  -2.8470  -2.8105  -2.6948  -2.6268
    -2.5366  -2.4736  -2.3174  -2.1577  -2.1236  -2.0102  -2.0057  -1.9648
    -1.8918  -1.7854  -1.7594  -1.7484  -1.6975  -1.6528  -1.6114  -1.2898
    -1.2472  -1.2184  -1.0579  -0.9134  -0.9110  -0.8439  -0.7380  -0.6635
    -0.6250  -0.4951  -0.3582  -0.2182  -0.1951  -0.1320   0.0322   0.0830
     0.1943   0.2186   0.3161   0.4156   2.6898   2.9228   4.1117   4.3556
     4.4156   4.8003   4.9954   5.0313   5.2734   5.4501   5.5340   5.8116
     5.9033   5.9746   6.0091   6.1606   6.2219   6.2674   6.3760   6.4469
     6.4564   6.5876   6.6306   6.6818   6.8186   6.8594   6.9539   6.9721
     7.0232   7.1530

     occupation numbers 
     1.0000   1.0000   1.0000   1.0000   1.0000   1.0000   1.0000   1.0000
     1.0000   1.0000   1.0000   1.0000   1.0000   1.0000   1.0000   1.0000
     1.0000   1.0000   1.0000   1.0000   1.0000   1.0000   1.0000   1.0000
     1.0000   1.0000   1.0000   1.0000   1.0000   1.0000   1.0000   1.0000
     1.0000   1.0000   1.0000   1.0000   1.0000   1.0000   1.0000   1.0000
     1.0000   1.0000   1.0000   1.0000   1.0000   1.0000   1.0000   1.0000
     1.0000   1.0000   1.0000   1.0000   1.0000   1.0000   1.0000   1.0000
     1.0000   1.0000   1.0000   1.0000   1.0000   1.0000   1.0000   1.0000
     1.0000   1.0000   1.0000   1.0000   1.0000   1.0000   1.0000   1.0000
     1.0000   1.0000   1.0000   1.0000   1.0000   1.0000   1.0000   1.0000
     1.0000   1.0000   1.0000   1.0000   1.0000   1.0000   1.0000   1.0000
     1.0000   1.0000   1.0000   1.0000   1.0000   1.0000   1.0000   1.0000
     1.0000   1.0000   1.0000   1.0000   1.0000   1.0000   1.0000   1.0000
     1.0000   1.0000   1.0000   1.0000   1.0000   1.0000   1.0000   1.0000
     1.0000   1.0000   1.0000   1.0000   1.0000   1.0000   1.0000   1.0000
     1.0000   1.0000   1.0000   1.0000   1.0000   1.0000   1.0000   1.0000
     1.0000   1.0000   1.0000   1.0000   1.0000   0.9998   0.4918   0.1389
     0.0940   0.0061   0.0015   0.0011   0.0002   0.0001   0.0000   0.0000
     0.0000   0.0000   0.0000   0.0000   0.0000   0.0000   0.0000   0.0000
     0.0000   0.0000   0.0000   0.0000   0.0000   0.0000   0.0000   0.0000
     0.0000   0.0000

          k = 0.0000 0.2600 0.0000 ( 35369 PWs)   bands (ev):

   -59.2653 -59.2552 -59.0202 -59.0081 -58.9752 -58.8713 -58.8594 -58.8076
   -58.7617 -58.7496 -58.6428 -58.6279 -29.0995 -29.0060 -28.9508 -28.8898
   -28.8265 -28.8085 -28.7690 -28.7468 -28.7291 -28.7066 -28.6912 -28.6827
   -28.6603 -28.6263 -28.5928 -28.5818 -28.5514 -28.5416 -28.5342 -28.4876
   -28.4617 -28.4430 -28.4358 -28.4122 -28.3954 -28.3555 -28.3330 -28.3072
   -28.3041 -28.2924 -28.2584 -28.2099 -28.1917 -28.1691 -28.1443 -28.1348
   -17.6024 -17.2610 -16.8451 -16.6108 -16.4038 -16.3161 -16.1883 -16.1317
   -16.0758 -16.0387 -15.9712 -15.7740 -15.6353 -15.5879 -15.5007 -15.4581
   -15.3894 -15.2759 -15.2051 -15.1692 -14.4645  -5.4250  -5.2988  -5.1204
    -4.9952  -4.9671  -4.7478  -4.6293  -4.5887  -4.5442  -4.4085  -4.3384
    -4.2262  -3.9778  -3.9096  -3.7368  -3.6820  -3.6002  -3.5215  -3.4169
    -3.3577  -3.3019  -3.2625  -3.0619  -2.9686  -2.8541  -2.7459  -2.6745
    -2.5676  -2.4514  -2.3779  -2.3166  -2.2289  -2.2002  -2.0824  -2.0104
    -1.9266  -1.8121  -1.6931  -1.5893  -1.5166  -1.4728  -1.3750  -1.2474
    -1.2300  -1.1468  -0.9962  -0.9141  -0.8882  -0.8376  -0.7831  -0.7569
    -0.6923  -0.6081  -0.4630  -0.4277  -0.3013  -0.2855  -0.2345  -0.2083
     0.0550   0.1789   0.2636   0.3726   3.0508   3.2864   4.2064   4.2255
     4.3659   4.8400   4.8974   5.1212   5.1735   5.2240   5.3212   5.4175
     5.6382   5.6951   5.8266   5.8509   5.9433   6.0921   6.1250   6.3354
     6.5196   6.5391   6.6583   6.7193   6.8927   6.9657   7.0331   7.1386
     7.1959   7.2414

     occupation numbers 
     1.0000   1.0000   1.0000   1.0000   1.0000   1.0000   1.0000   1.0000
     1.0000   1.0000   1.0000   1.0000   1.0000   1.0000   1.0000   1.0000
     1.0000   1.0000   1.0000   1.0000   1.0000   1.0000   1.0000   1.0000
     1.0000   1.0000   1.0000   1.0000   1.0000   1.0000   1.0000   1.0000
     1.0000   1.0000   1.0000   1.0000   1.0000   1.0000   1.0000   1.0000
     1.0000   1.0000   1.0000   1.0000   1.0000   1.0000   1.0000   1.0000
     1.0000   1.0000   1.0000   1.0000   1.0000   1.0000   1.0000   1.0000
     1.0000   1.0000   1.0000   1.0000   1.0000   1.0000   1.0000   1.0000
     1.0000   1.0000   1.0000   1.0000   1.0000   1.0000   1.0000   1.0000
     1.0000   1.0000   1.0000   1.0000   1.0000   1.0000   1.0000   1.0000
     1.0000   1.0000   1.0000   1.0000   1.0000   1.0000   1.0000   1.0000
     1.0000   1.0000   1.0000   1.0000   1.0000   1.0000   1.0000   1.0000
     1.0000   1.0000   1.0000   1.0000   1.0000   1.0000   1.0000   1.0000
     1.0000   1.0000   1.0000   1.0000   1.0000   1.0000   1.0000   1.0000
     1.0000   1.0000   1.0000   1.0000   1.0000   1.0000   1.0000   1.0000
     1.0000   1.0000   1.0000   1.0000   1.0000   1.0000   1.0000   1.0000
     1.0000   1.0000   1.0000   1.0000   0.9996   0.9976   0.3255   0.2955
     0.1300   0.0046   0.0030   0.0006   0.0004   0.0003   0.0001   0.0001
     0.0000   0.0000   0.0000   0.0000   0.0000   0.0000   0.0000   0.0000
     0.0000   0.0000   0.0000   0.0000   0.0000   0.0000   0.0000   0.0000
     0.0000   0.0000

          k = 0.0000-0.5200 0.0000 ( 35392 PWs)   bands (ev):

   -59.2628 -59.2577 -59.0177 -59.0106 -58.9751 -58.8688 -58.8619 -58.8077
   -58.7594 -58.7520 -58.6414 -58.6295 -29.0804 -28.9365 -28.9028 -28.8986
   -28.8026 -28.7977 -28.7772 -28.7512 -28.7188 -28.7147 -28.6910 -28.6616
   -28.6493 -28.6350 -28.6141 -28.5798 -28.5722 -28.5501 -28.5155 -28.5015
   -28.4940 -28.4578 -28.4509 -28.4138 -28.3994 -28.3833 -28.3597 -28.3316
   -28.3107 -28.3056 -28.2290 -28.2207 -28.2018 -28.1792 -28.1648 -28.1459
   -17.2220 -16.9508 -16.6962 -16.5468 -16.3764 -16.2399 -16.1990 -16.1119
   -16.0955 -16.0491 -15.9959 -15.9836 -15.8348 -15.6748 -15.6412 -15.4844
   -15.4485 -15.3392 -15.2636 -15.2443 -14.5046  -5.2213  -5.1591  -5.0278
    -4.8350  -4.6676  -4.5889  -4.4880  -4.4818  -4.3255  -4.2705  -4.2623
    -4.1906  -4.0949  -3.9882  -3.9150  -3.8634  -3.7932  -3.6225  -3.5830
    -3.2972  -3.2595  -3.1761  -3.1135  -2.9069  -2.8901  -2.7938  -2.6759
    -2.6302  -2.4508  -2.3844  -2.3175  -2.2548  -2.0704  -2.0399  -1.9644
    -1.8687  -1.6748  -1.6316  -1.5618  -1.4797  -1.4747  -1.3606  -1.3172
    -1.2812  -1.2152  -1.1974  -1.1421  -1.0664  -0.9845  -0.9058  -0.8579
    -0.7790  -0.6178  -0.5964  -0.5534  -0.4352  -0.3184  -0.2482  -0.2086
     0.0118   0.1207   0.2626   0.3423   3.6035   3.7865   4.0958   4.1253
     4.3551   4.5199   4.5645   4.9876   5.0717   5.2142   5.2306   5.2533
     5.4282   5.4876   5.5616   5.6542   5.7012   5.9581   6.1324   6.2757
     6.3465   6.4354   6.5626   6.6994   6.9712   7.0859   7.0937   7.1672
     7.2411   7.2422

     occupation numbers 
     1.0000   1.0000   1.0000   1.0000   1.0000   1.0000   1.0000   1.0000
     1.0000   1.0000   1.0000   1.0000   1.0000   1.0000   1.0000   1.0000
     1.0000   1.0000   1.0000   1.0000   1.0000   1.0000   1.0000   1.0000
     1.0000   1.0000   1.0000   1.0000   1.0000   1.0000   1.0000   1.0000
     1.0000   1.0000   1.0000   1.0000   1.0000   1.0000   1.0000   1.0000
     1.0000   1.0000   1.0000   1.0000   1.0000   1.0000   1.0000   1.0000
     1.0000   1.0000   1.0000   1.0000   1.0000   1.0000   1.0000   1.0000
     1.0000   1.0000   1.0000   1.0000   1.0000   1.0000   1.0000   1.0000
     1.0000   1.0000   1.0000   1.0000   1.0000   1.0000   1.0000   1.0000
     1.0000   1.0000   1.0000   1.0000   1.0000   1.0000   1.0000   1.0000
     1.0000   1.0000   1.0000   1.0000   1.0000   1.0000   1.0000   1.0000
     1.0000   1.0000   1.0000   1.0000   1.0000   1.0000   1.0000   1.0000
     1.0000   1.0000   1.0000   1.0000   1.0000   1.0000   1.0000   1.0000
     1.0000   1.0000   1.0000   1.0000   1.0000   1.0000   1.0000   1.0000
     1.0000   1.0000   1.0000   1.0000   1.0000   1.0000   1.0000   1.0000
     1.0000   1.0000   1.0000   1.0000   1.0000   1.0000   1.0000   1.0000
     1.0000   1.0000   1.0000   1.0000   0.9759   0.9136   0.5210   0.4669
     0.1393   0.0460   0.0335   0.0015   0.0008   0.0003   0.0003   0.0002
     0.0001   0.0000   0.0000   0.0000   0.0000   0.0000   0.0000   0.0000
     0.0000   0.0000   0.0000   0.0000   0.0000   0.0000   0.0000   0.0000
     0.0000   0.0000

          k = 0.2500 0.0000 0.0000 ( 35470 PWs)   bands (ev):

   -59.2650 -59.2556 -59.0197 -59.0087 -58.9752 -58.8708 -58.8599 -58.8077
   -58.7612 -58.7501 -58.6424 -58.6282 -29.0788 -29.0245 -28.9451 -28.8853
   -28.8172 -28.8031 -28.7843 -28.7524 -28.7205 -28.6911 -28.6820 -28.6717
   -28.6596 -28.6484 -28.6045 -28.5832 -28.5701 -28.5520 -28.5138 -28.4646
   -28.4554 -28.4497 -28.4439 -28.4212 -28.3796 -28.3588 -28.3430 -28.3169
   -28.3061 -28.2750 -28.2631 -28.2140 -28.1868 -28.1671 -28.1566 -28.1301
   -17.5931 -17.2487 -16.8259 -16.6725 -16.3915 -16.3745 -16.2729 -16.1955
   -16.0641 -16.0513 -15.8683 -15.8025 -15.5875 -15.5691 -15.4572 -15.4355
   -15.3678 -15.3154 -15.2200 -15.1872 -14.4684  -5.2356  -5.1141  -4.9733
    -4.9275  -4.8301  -4.7049  -4.6075  -4.5722  -4.3942  -4.3320  -4.2216
    -4.1367  -4.0579  -4.0386  -3.9557  -3.8374  -3.7756  -3.5709  -3.4174
    -3.3742  -3.2852  -3.2457  -3.0778  -3.0465  -2.8707  -2.8066  -2.5936
    -2.5545  -2.4139  -2.3497  -2.3182  -2.2398  -2.1692  -2.0343  -1.9407
    -1.9013  -1.8044  -1.7613  -1.6589  -1.6165  -1.5856  -1.5456  -1.4187
    -1.3756  -1.2799  -1.1967  -1.1180  -1.0125  -0.8987  -0.8089  -0.6842
    -0.5941  -0.5240  -0.4378  -0.4145  -0.3290  -0.2243  -0.1872  -0.0936
    -0.0608   0.0297   0.0657   0.2584   2.9632   3.2625   4.1318   4.3209
     4.6234   4.8495   4.9016   5.1422   5.1640   5.5085   5.5558   5.6850
     5.8427   5.8974   6.0169   6.0906   6.1790   6.2623   6.3479   6.4126
     6.4942   6.5915   6.6185   6.6767   6.7411   6.8410   6.8716   7.0075
     7.0890   7.1958

     occupation numbers 
     1.0000   1.0000   1.0000   1.0000   1.0000   1.0000   1.0000   1.0000
     1.0000   1.0000   1.0000   1.0000   1.0000   1.0000   1.0000   1.0000
     1.0000   1.0000   1.0000   1.0000   1.0000   1.0000   1.0000   1.0000
     1.0000   1.0000   1.0000   1.0000   1.0000   1.0000   1.0000   1.0000
     1.0000   1.0000   1.0000   1.0000   1.0000   1.0000   1.0000   1.0000
     1.0000   1.0000   1.0000   1.0000   1.0000   1.0000   1.0000   1.0000
     1.0000   1.0000   1.0000   1.0000   1.0000   1.0000   1.0000   1.0000
     1.0000   1.0000   1.0000   1.0000   1.0000   1.0000   1.0000   1.0000
     1.0000   1.0000   1.0000   1.0000   1.0000   1.0000   1.0000   1.0000
     1.0000   1.0000   1.0000   1.0000   1.0000   1.0000   1.0000   1.0000
     1.0000   1.0000   1.0000   1.0000   1.0000   1.0000   1.0000   1.0000
     1.0000   1.0000   1.0000   1.0000   1.0000   1.0000   1.0000   1.0000
     1.0000   1.0000   1.0000   1.0000   1.0000   1.0000   1.0000   1.0000
     1.0000   1.0000   1.0000   1.0000   1.0000   1.0000   1.0000   1.0000
     1.0000   1.0000   1.0000   1.0000   1.0000   1.0000   1.0000   1.0000
     1.0000   1.0000   1.0000   1.0000   1.0000   1.0000   1.0000   1.0000
     1.0000   1.0000   1.0000   1.0000   0.9998   0.9980   0.4551   0.1722
     0.0220   0.0043   0.0029   0.0005   0.0004   0.0000   0.0000   0.0000
     0.0000   0.0000   0.0000   0.0000   0.0000   0.0000   0.0000   0.0000
     0.0000   0.0000   0.0000   0.0000   0.0000   0.0000   0.0000   0.0000
     0.0000   0.0000

          k = 0.2500 0.2600 0.0000 ( 35420 PWs)   bands (ev):

   -59.2638 -59.2567 -59.0184 -59.0098 -58.9751 -58.8696 -58.8611 -58.8077
   -58.7601 -58.7513 -58.6417 -58.6291 -29.0928 -29.0315 -28.9535 -28.8986
   -28.8370 -28.7997 -28.7717 -28.7524 -28.7321 -28.7156 -28.6923 -28.6637
   -28.6516 -28.6402 -28.6056 -28.5836 -28.5615 -28.5243 -28.5079 -28.4959
   -28.4799 -28.4528 -28.4291 -28.4104 -28.3667 -28.3623 -28.3423 -28.3180
   -28.3015 -28.2691 -28.2442 -28.2077 -28.2029 -28.1755 -28.1490 -28.1225
   -17.4084 -17.1114 -16.7877 -16.6873 -16.4488 -16.3796 -16.2878 -16.2229
   -16.0746 -16.0500 -15.9257 -15.7619 -15.6509 -15.5768 -15.5145 -15.4485
   -15.4178 -15.3261 -15.2016 -15.1551 -14.5095  -5.2156  -5.0611  -4.8327
    -4.7728  -4.7250  -4.6555  -4.5330  -4.4470  -4.3598  -4.3181  -4.2269
    -4.1202  -4.0349  -3.9843  -3.8920  -3.6650  -3.5511  -3.4362  -3.3817
    -3.3459  -3.2845  -3.2241  -3.1563  -3.0471  -3.0053  -2.9154  -2.7679
    -2.5672  -2.4633  -2.4040  -2.3275  -2.2342  -2.1836  -2.1108  -1.9315
    -1.8482  -1.8026  -1.7670  -1.6537  -1.5979  -1.5279  -1.4583  -1.4272
    -1.3408  -1.2755  -1.1874  -1.0891  -1.0278  -0.9744  -0.9383  -0.7989
    -0.6869  -0.6576  -0.5632  -0.4845  -0.4590  -0.3720  -0.2568  -0.1974
    -0.1483  -0.0430   0.0689   0.2506   3.1380   3.4810   4.0677   4.1223
     4.5869   4.7843   4.8588   5.1023   5.1561   5.1987   5.3379   5.4571
     5.5619   5.7346   5.8092   5.8725   5.9827   6.0403   6.0758   6.3333
     6.4125   6.5697   6.5986   6.7076   6.7279   6.8726   6.9657   7.0908
     7.1762   7.2198

     occupation numbers 
     1.0000   1.0000   1.0000   1.0000   1.0000   1.0000   1.0000   1.0000
     1.0000   1.0000   1.0000   1.0000   1.0000   1.0000   1.0000   1.0000
     1.0000   1.0000   1.0000   1.0000   1.0000   1.0000   1.0000   1.0000
     1.0000   1.0000   1.0000   1.0000   1.0000   1.0000   1.0000   1.0000
     1.0000   1.0000   1.0000   1.0000   1.0000   1.0000   1.0000   1.0000
     1.0000   1.0000   1.0000   1.0000   1.0000   1.0000   1.0000   1.0000
     1.0000   1.0000   1.0000   1.0000   1.0000   1.0000   1.0000   1.0000
     1.0000   1.0000   1.0000   1.0000   1.0000   1.0000   1.0000   1.0000
     1.0000   1.0000   1.0000   1.0000   1.0000   1.0000   1.0000   1.0000
     1.0000   1.0000   1.0000   1.0000   1.0000   1.0000   1.0000   1.0000
     1.0000   1.0000   1.0000   1.0000   1.0000   1.0000   1.0000   1.0000
     1.0000   1.0000   1.0000   1.0000   1.0000   1.0000   1.0000   1.0000
     1.0000   1.0000   1.0000   1.0000   1.0000   1.0000   1.0000   1.0000
     1.0000   1.0000   1.0000   1.0000   1.0000   1.0000   1.0000   1.0000
     1.0000   1.0000   1.0000   1.0000   1.0000   1.0000   1.0000   1.0000
     1.0000   1.0000   1.0000   1.0000   1.0000   1.0000   1.0000   1.0000
     1.0000   1.0000   1.0000   1.0000   0.9992   0.9901   0.5722   0.4724
     0.0286   0.0069   0.0040   0.0007   0.0004   0.0003   0.0001   0.0000
     0.0000   0.0000   0.0000   0.0000   0.0000   0.0000   0.0000   0.0000
     0.0000   0.0000   0.0000   0.0000   0.0000   0.0000   0.0000   0.0000
     0.0000   0.0000

          k = 0.2500-0.5200 0.0000 ( 35366 PWs)   bands (ev):

   -59.2620 -59.2584 -59.0166 -59.0116 -58.9750 -58.8678 -58.8629 -58.8077
   -58.7585 -58.7528 -58.6410 -58.6300 -29.0989 -29.0421 -28.9552 -28.9351
   -28.8189 -28.8158 -28.7783 -28.7554 -28.7347 -28.7165 -28.6910 -28.6721
   -28.6641 -28.6459 -28.6176 -28.5944 -28.5499 -28.5422 -28.5220 -28.4964
   -28.4612 -28.4325 -28.4174 -28.3981 -28.3883 -28.3484 -28.3314 -28.2970
   -28.2878 -28.2772 -28.2392 -28.1955 -28.1892 -28.1642 -28.1547 -28.1388
   -17.1625 -16.9138 -16.7350 -16.7200 -16.4896 -16.4294 -16.3573 -16.3140
   -16.1557 -16.0876 -16.0318 -15.7681 -15.7043 -15.5845 -15.4631 -15.4436
   -15.3556 -15.3247 -15.2246 -15.1952 -14.4469  -5.0856  -5.0446  -4.8530
    -4.6443  -4.6139  -4.5177  -4.3637  -4.3466  -4.2456  -4.2092  -4.1292
    -4.0624  -3.9687  -3.9125  -3.8126  -3.7735  -3.6768  -3.6084  -3.4667
    -3.3765  -3.3503  -3.0321  -2.9933  -2.9327  -2.8241  -2.7546  -2.6897
    -2.6473  -2.4965  -2.4050  -2.3711  -2.3242  -2.3004  -2.2316  -2.0916
    -1.9773  -1.9290  -1.8882  -1.7546  -1.6125  -1.5275  -1.4221  -1.4188
    -1.3381  -1.2588  -1.2087  -1.1153  -1.0560  -1.0192  -0.8917  -0.8663
    -0.7770  -0.6919  -0.6304  -0.5404  -0.5103  -0.4449  -0.2982  -0.2557
    -0.2306  -0.1036   0.0679   0.2253   3.6359   3.7147   4.0335   4.1464
     4.4710   4.4815   4.6537   4.9665   5.0022   5.0767   5.1330   5.2578
     5.3531   5.4167   5.5577   5.6612   5.7545   5.9537   6.0678   6.1459
     6.3128   6.4087   6.6020   6.6839   6.8348   6.9259   6.9979   7.1557
     7.2013   7.2435

     occupation numbers 
     1.0000   1.0000   1.0000   1.0000   1.0000   1.0000   1.0000   1.0000
     1.0000   1.0000   1.0000   1.0000   1.0000   1.0000   1.0000   1.0000
     1.0000   1.0000   1.0000   1.0000   1.0000   1.0000   1.0000   1.0000
     1.0000   1.0000   1.0000   1.0000   1.0000   1.0000   1.0000   1.0000
     1.0000   1.0000   1.0000   1.0000   1.0000   1.0000   1.0000   1.0000
     1.0000   1.0000   1.0000   1.0000   1.0000   1.0000   1.0000   1.0000
     1.0000   1.0000   1.0000   1.0000   1.0000   1.0000   1.0000   1.0000
     1.0000   1.0000   1.0000   1.0000   1.0000   1.0000   1.0000   1.0000
     1.0000   1.0000   1.0000   1.0000   1.0000   1.0000   1.0000   1.0000
     1.0000   1.0000   1.0000   1.0000   1.0000   1.0000   1.0000   1.0000
     1.0000   1.0000   1.0000   1.0000   1.0000   1.0000   1.0000   1.0000
     1.0000   1.0000   1.0000   1.0000   1.0000   1.0000   1.0000   1.0000
     1.0000   1.0000   1.0000   1.0000   1.0000   1.0000   1.0000   1.0000
     1.0000   1.0000   1.0000   1.0000   1.0000   1.0000   1.0000   1.0000
     1.0000   1.0000   1.0000   1.0000   1.0000   1.0000   1.0000   1.0000
     1.0000   1.0000   1.0000   1.0000   1.0000   1.0000   1.0000   1.0000
     1.0000   1.0000   1.0000   1.0000   0.9697   0.9471   0.6324   0.4287
     0.0646   0.0600   0.0177   0.0018   0.0014   0.0008   0.0005   0.0002
     0.0001   0.0001   0.0000   0.0000   0.0000   0.0000   0.0000   0.0000
     0.0000   0.0000   0.0000   0.0000   0.0000   0.0000   0.0000   0.0000
     0.0000   0.0000

          k = 0.2500-0.2600 0.0000 ( 35420 PWs)   bands (ev):

   -59.2638 -59.2567 -59.0184 -59.0098 -58.9751 -58.8696 -58.8611 -58.8077
   -58.7601 -58.7513 -58.6417 -58.6290 -29.0929 -29.0314 -28.9535 -28.8986
   -28.8371 -28.7999 -28.7721 -28.7533 -28.7244 -28.7184 -28.7029 -28.6771
   -28.6518 -28.6412 -28.6086 -28.6025 -28.5618 -28.5256 -28.5185 -28.4934
   -28.4634 -28.4518 -28.4253 -28.3990 -28.3694 -28.3562 -28.3451 -28.3245
   -28.2808 -28.2636 -28.2431 -28.2144 -28.1926 -28.1829 -28.1434 -28.1209
   -17.4089 -17.1217 -16.8052 -16.6878 -16.4564 -16.3834 -16.2941 -16.2378
   -16.0988 -16.0580 -15.9256 -15.7625 -15.6509 -15.5737 -15.4843 -15.4452
   -15.3922 -15.3365 -15.2210 -15.1776 -14.4100  -5.2143  -5.0601  -4.8247
    -4.7725  -4.7368  -4.6646  -4.5222  -4.4413  -4.3751  -4.3162  -4.2272
    -4.1397  -4.0255  -3.9809  -3.8922  -3.6561  -3.5404  -3.4197  -3.3802
    -3.3485  -3.2775  -3.2167  -3.1631  -3.0522  -2.9882  -2.8961  -2.7678
    -2.5766  -2.5123  -2.4156  -2.3449  -2.2055  -2.1602  -2.0858  -1.9706
    -1.9163  -1.8105  -1.8001  -1.6769  -1.6282  -1.5389  -1.4816  -1.4465
    -1.3153  -1.2760  -1.2212  -1.1352  -1.0418  -1.0036  -0.8510  -0.7478
    -0.6875  -0.6179  -0.4932  -0.4503  -0.4280  -0.3636  -0.3233  -0.1736
    -0.1412  -0.0326   0.0811   0.2121   3.3723   3.4814   4.0680   4.2854
     4.4736   4.5872   4.8574   5.1412   5.1816   5.2247   5.4363   5.5064
     5.6294   5.7652   5.8258   5.8975   5.9581   6.0003   6.1599   6.1974
     6.3126   6.4051   6.6024   6.7030   6.7380   6.8568   6.9942   7.0315
     7.0976   7.1935

     occupation numbers 
     1.0000   1.0000   1.0000   1.0000   1.0000   1.0000   1.0000   1.0000
     1.0000   1.0000   1.0000   1.0000   1.0000   1.0000   1.0000   1.0000
     1.0000   1.0000   1.0000   1.0000   1.0000   1.0000   1.0000   1.0000
     1.0000   1.0000   1.0000   1.0000   1.0000   1.0000   1.0000   1.0000
     1.0000   1.0000   1.0000   1.0000   1.0000   1.0000   1.0000   1.0000
     1.0000   1.0000   1.0000   1.0000   1.0000   1.0000   1.0000   1.0000
     1.0000   1.0000   1.0000   1.0000   1.0000   1.0000   1.0000   1.0000
     1.0000   1.0000   1.0000   1.0000   1.0000   1.0000   1.0000   1.0000
     1.0000   1.0000   1.0000   1.0000   1.0000   1.0000   1.0000   1.0000
     1.0000   1.0000   1.0000   1.0000   1.0000   1.0000   1.0000   1.0000
     1.0000   1.0000   1.0000   1.0000   1.0000   1.0000   1.0000   1.0000
     1.0000   1.0000   1.0000   1.0000   1.0000   1.0000   1.0000   1.0000
     1.0000   1.0000   1.0000   1.0000   1.0000   1.0000   1.0000   1.0000
     1.0000   1.0000   1.0000   1.0000   1.0000   1.0000   1.0000   1.0000
     1.0000   1.0000   1.0000   1.0000   1.0000   1.0000   1.0000   1.0000
     1.0000   1.0000   1.0000   1.0000   1.0000   1.0000   1.0000   1.0000
     1.0000   1.0000   1.0000   1.0000   0.9955   0.9900   0.5716   0.2126
     0.0634   0.0285   0.0040   0.0005   0.0004   0.0003   0.0001   0.0000
     0.0000   0.0000   0.0000   0.0000   0.0000   0.0000   0.0000   0.0000
     0.0000   0.0000   0.0000   0.0000   0.0000   0.0000   0.0000   0.0000
     0.0000   0.0000

          k =-0.5000 0.0000 0.0000 ( 35502 PWs)   bands (ev):

   -59.2603 -59.2602 -59.0148 -59.0135 -58.9751 -58.8655 -58.8652 -58.8078
   -58.7572 -58.7542 -58.6403 -58.6304 -29.0111 -29.0108 -28.8900 -28.8898
   -28.8014 -28.8011 -28.7423 -28.7419 -28.7007 -28.7003 -28.6902 -28.6769
   -28.6751 -28.6235 -28.6157 -28.6086 -28.5648 -28.5631 -28.5195 -28.5160
   -28.4686 -28.4565 -28.4398 -28.4272 -28.4113 -28.3782 -28.3545 -28.3294
   -28.3193 -28.2728 -28.2363 -28.2346 -28.2085 -28.1911 -28.1711 -28.1338
   -16.9812 -16.9801 -16.7272 -16.7169 -16.5443 -16.5173 -16.2990 -16.2772
   -16.0407 -16.0265 -15.8118 -15.8113 -15.6103 -15.6099 -15.4999 -15.4971
   -15.4581 -15.4165 -15.3601 -15.3297 -14.5154  -4.8729  -4.8721  -4.6139
    -4.6133  -4.4496  -4.4446  -4.3345  -4.3227  -4.2220  -4.2132  -4.0802
    -4.0392  -3.9130  -3.9089  -3.8187  -3.8179  -3.6990  -3.6820  -3.5798
    -3.5610  -3.4518  -3.4420  -3.3576  -3.3432  -3.2022  -3.1742  -2.7587
    -2.7004  -2.5706  -2.5244  -2.4011  -2.3637  -2.2075  -2.1897  -2.0834
    -2.0041  -1.8305  -1.7906  -1.6780  -1.6498  -1.5632  -1.4077  -1.3608
    -1.3092  -1.2636  -1.1852  -1.1116  -1.0791  -0.9252  -0.7965  -0.7382
    -0.7259  -0.6417  -0.5247  -0.4859  -0.4449  -0.4393  -0.3691  -0.2664
    -0.2401  -0.1460  -0.1287   0.1960   3.3808   3.9801   3.9808   4.0104
     4.6032   5.0079   5.0086   5.1537   5.1710   5.1726   5.3880   5.8214
     5.8237   5.8944   5.8965   6.0119   6.1038   6.1605   6.2420   6.3433
     6.4110   6.5645   6.6194   6.7211   6.7863   6.9580   6.9854   7.0307
     7.0589   7.0920

     occupation numbers 
     1.0000   1.0000   1.0000   1.0000   1.0000   1.0000   1.0000   1.0000
     1.0000   1.0000   1.0000   1.0000   1.0000   1.0000   1.0000   1.0000
     1.0000   1.0000   1.0000   1.0000   1.0000   1.0000   1.0000   1.0000
     1.0000   1.0000   1.0000   1.0000   1.0000   1.0000   1.0000   1.0000
     1.0000   1.0000   1.0000   1.0000   1.0000   1.0000   1.0000   1.0000
     1.0000   1.0000   1.0000   1.0000   1.0000   1.0000   1.0000   1.0000
     1.0000   1.0000   1.0000   1.0000   1.0000   1.0000   1.0000   1.0000
     1.0000   1.0000   1.0000   1.0000   1.0000   1.0000   1.0000   1.0000
     1.0000   1.0000   1.0000   1.0000   1.0000   1.0000   1.0000   1.0000
     1.0000   1.0000   1.0000   1.0000   1.0000   1.0000   1.0000   1.0000
     1.0000   1.0000   1.0000   1.0000   1.0000   1.0000   1.0000   1.0000
     1.0000   1.0000   1.0000   1.0000   1.0000   1.0000   1.0000   1.0000
     1.0000   1.0000   1.0000   1.0000   1.0000   1.0000   1.0000   1.0000
     1.0000   1.0000   1.0000   1.0000   1.0000   1.0000   1.0000   1.0000
     1.0000   1.0000   1.0000   1.0000   1.0000   1.0000   1.0000   1.0000
     1.0000   1.0000   1.0000   1.0000   1.0000   1.0000   1.0000   1.0000
     1.0000   1.0000   1.0000   1.0000   0.9952   0.7181   0.7170   0.6709
     0.0255   0.0013   0.0013   0.0005   0.0004   0.0004   0.0001   0.0000
     0.0000   0.0000   0.0000   0.0000   0.0000   0.0000   0.0000   0.0000
     0.0000   0.0000   0.0000   0.0000   0.0000   0.0000   0.0000   0.0000
     0.0000   0.0000

          k =-0.5000 0.2600 0.0000 ( 35450 PWs)   bands (ev):

   -59.2603 -59.2602 -59.0147 -59.0135 -58.9750 -58.8655 -58.8652 -58.8077
   -58.7572 -58.7542 -58.6404 -58.6305 -29.0667 -29.0664 -28.9422 -28.9421
   -28.8194 -28.8191 -28.7684 -28.7665 -28.7262 -28.7051 -28.6856 -28.6750
   -28.6625 -28.6451 -28.6145 -28.6094 -28.5505 -28.5435 -28.5267 -28.5058
   -28.4627 -28.4300 -28.4100 -28.3989 -28.3830 -28.3581 -28.3182 -28.2986
   -28.2887 -28.2738 -28.2397 -28.2030 -28.1905 -28.1647 -28.1617 -28.1337
   -16.9859 -16.9850 -16.7445 -16.7392 -16.6086 -16.5869 -16.3883 -16.3741
   -16.0973 -16.0868 -15.8421 -15.8413 -15.5877 -15.5842 -15.4612 -15.4445
   -15.3513 -15.3273 -15.2556 -15.2280 -14.4518  -4.9234  -4.9202  -4.6107
    -4.6019  -4.4098  -4.3938  -4.2973  -4.2930  -4.1555  -4.1460  -4.0206
    -3.9858  -3.8935  -3.8844  -3.7767  -3.7657  -3.6940  -3.6695  -3.5087
    -3.4881  -3.2776  -3.2663  -3.1991  -3.1759  -2.9565  -2.9408  -2.7381
    -2.7138  -2.5847  -2.5591  -2.3536  -2.3002  -2.2507  -2.2325  -2.0452
    -2.0275  -1.9875  -1.9207  -1.7647  -1.7078  -1.6288  -1.5888  -1.4351
    -1.3967  -1.2839  -1.2609  -1.1708  -1.0890  -1.0405  -0.9194  -0.9039
    -0.7369  -0.6487  -0.6041  -0.5309  -0.5162  -0.4262  -0.3994  -0.3062
    -0.2712  -0.1320  -0.0854   0.1344   3.5289   3.8983   3.8989   4.1065
     4.4528   4.7881   4.7889   4.9817   4.9834   5.2189   5.4643   5.5029
     5.5305   5.7133   5.7609   5.9000   5.9909   6.0656   6.1299   6.2190
     6.2560   6.3713   6.4807   6.5432   6.6934   6.7558   6.9067   6.9865
     7.0496   7.1280

     occupation numbers 
     1.0000   1.0000   1.0000   1.0000   1.0000   1.0000   1.0000   1.0000
     1.0000   1.0000   1.0000   1.0000   1.0000   1.0000   1.0000   1.0000
     1.0000   1.0000   1.0000   1.0000   1.0000   1.0000   1.0000   1.0000
     1.0000   1.0000   1.0000   1.0000   1.0000   1.0000   1.0000   1.0000
     1.0000   1.0000   1.0000   1.0000   1.0000   1.0000   1.0000   1.0000
     1.0000   1.0000   1.0000   1.0000   1.0000   1.0000   1.0000   1.0000
     1.0000   1.0000   1.0000   1.0000   1.0000   1.0000   1.0000   1.0000
     1.0000   1.0000   1.0000   1.0000   1.0000   1.0000   1.0000   1.0000
     1.0000   1.0000   1.0000   1.0000   1.0000   1.0000   1.0000   1.0000
     1.0000   1.0000   1.0000   1.0000   1.0000   1.0000   1.0000   1.0000
     1.0000   1.0000   1.0000   1.0000   1.0000   1.0000   1.0000   1.0000
     1.0000   1.0000   1.0000   1.0000   1.0000   1.0000   1.0000   1.0000
     1.0000   1.0000   1.0000   1.0000   1.0000   1.0000   1.0000   1.0000
     1.0000   1.0000   1.0000   1.0000   1.0000   1.0000   1.0000   1.0000
     1.0000   1.0000   1.0000   1.0000   1.0000   1.0000   1.0000   1.0000
     1.0000   1.0000   1.0000   1.0000   1.0000   1.0000   1.0000   1.0000
     1.0000   1.0000   1.0000   1.0000   0.9859   0.8229   0.8222   0.5015
     0.0731   0.0067   0.0066   0.0016   0.0016   0.0003   0.0000   0.0000
     0.0000   0.0000   0.0000   0.0000   0.0000   0.0000   0.0000   0.0000
     0.0000   0.0000   0.0000   0.0000   0.0000   0.0000   0.0000   0.0000
     0.0000   0.0000

          k =-0.5000-0.5200 0.0000 ( 35320 PWs)   bands (ev):

   -59.2602 -59.2601 -59.0147 -59.0135 -58.9750 -58.8655 -58.8651 -58.8077
   -58.7572 -58.7541 -58.6405 -58.6305 -29.1065 -29.1062 -28.9891 -28.9890
   -28.8573 -28.8566 -28.7796 -28.7720 -28.7356 -28.7183 -28.7111 -28.6928
   -28.6556 -28.6522 -28.6028 -28.5878 -28.5507 -28.5177 -28.5064 -28.5035
   -28.4509 -28.4236 -28.3922 -28.3643 -28.3605 -28.3535 -28.2881 -28.2829
   -28.2517 -28.2509 -28.2415 -28.1991 -28.1819 -28.1513 -28.1304 -28.1217
   -16.9958 -16.9952 -16.7619 -16.7608 -16.6529 -16.6377 -16.4661 -16.4648
   -16.1509 -16.1405 -15.8747 -15.8737 -15.5536 -15.5513 -15.3995 -15.3875
   -15.2521 -15.2446 -15.1948 -15.1607 -14.3935  -4.7941  -4.7908  -4.5513
    -4.5493  -4.4246  -4.4089  -4.2640  -4.2472  -4.1371  -4.1161  -4.0438
    -4.0396  -3.9302  -3.9085  -3.8713  -3.8655  -3.6849  -3.6343  -3.2903
    -3.2511  -3.1023  -3.0693  -3.0611  -2.9750  -2.8151  -2.8139  -2.7810
    -2.7567  -2.6046  -2.5947  -2.4318  -2.4029  -2.1641  -2.1169  -2.0287
    -1.9963  -1.9378  -1.9203  -1.8558  -1.8398  -1.7469  -1.6865  -1.4475
    -1.3432  -1.3121  -1.2655  -1.2231  -1.1707  -1.0563  -0.9689  -0.8720
    -0.7914  -0.7771  -0.7239  -0.6623  -0.5362  -0.5051  -0.4472  -0.4135
    -0.2679  -0.1993  -0.1645   0.0648   3.7740   3.7850   3.7862   3.9683
     4.4693   4.4696   4.6810   5.0607   5.0656   5.1468   5.2035   5.2123
     5.3719   5.4122   5.4827   5.7436   5.8179   5.9071   5.9307   6.0656
     6.1571   6.2468   6.4371   6.5221   6.6490   6.7936   6.8734   7.0448
     7.1026   7.2493

     occupation numbers 
     1.0000   1.0000   1.0000   1.0000   1.0000   1.0000   1.0000   1.0000
     1.0000   1.0000   1.0000   1.0000   1.0000   1.0000   1.0000   1.0000
     1.0000   1.0000   1.0000   1.0000   1.0000   1.0000   1.0000   1.0000
     1.0000   1.0000   1.0000   1.0000   1.0000   1.0000   1.0000   1.0000
     1.0000   1.0000   1.0000   1.0000   1.0000   1.0000   1.0000   1.0000
     1.0000   1.0000   1.0000   1.0000   1.0000   1.0000   1.0000   1.0000
     1.0000   1.0000   1.0000   1.0000   1.0000   1.0000   1.0000   1.0000
     1.0000   1.0000   1.0000   1.0000   1.0000   1.0000   1.0000   1.0000
     1.0000   1.0000   1.0000   1.0000   1.0000   1.0000   1.0000   1.0000
     1.0000   1.0000   1.0000   1.0000   1.0000   1.0000   1.0000   1.0000
     1.0000   1.0000   1.0000   1.0000   1.0000   1.0000   1.0000   1.0000
     1.0000   1.0000   1.0000   1.0000   1.0000   1.0000   1.0000   1.0000
     1.0000   1.0000   1.0000   1.0000   1.0000   1.0000   1.0000   1.0000
     1.0000   1.0000   1.0000   1.0000   1.0000   1.0000   1.0000   1.0000
     1.0000   1.0000   1.0000   1.0000   1.0000   1.0000   1.0000   1.0000
     1.0000   1.0000   1.0000   1.0000   1.0000   1.0000   1.0000   1.0000
     1.0000   1.0000   1.0000   1.0000   0.9205   0.9144   0.9137   0.7353
     0.0653   0.0652   0.0145   0.0009   0.0009   0.0005   0.0003   0.0003
     0.0001   0.0001   0.0000   0.0000   0.0000   0.0000   0.0000   0.0000
     0.0000   0.0000   0.0000   0.0000   0.0000   0.0000   0.0000   0.0000
     0.0000   0.0000

     the Fermi energy is     4.1073 ev

!    total energy              =   -1853.43465585 Ry
     estimated scf accuracy    <       0.00000005 Ry
     smearing contrib. (-TS)   =      -0.03687024 Ry
     internal energy E=F+TS    =   -1853.39778561 Ry

     The total energy is F=E-TS. E is the sum of the following terms:
     one-electron contribution =  -41335.91801324 Ry
     hartree contribution      =   20694.88765269 Ry
     xc contribution           =    -289.28734576 Ry
     ewald contribution        =   19076.92039238 Ry
     electric field correction =      -0.00047167 Ry

     convergence has been achieved in  11 iterations

     Forces acting on atoms (cartesian axes, Ry/au):

     atom    1 type  1   force =     0.01547375   -0.01582735    0.07293819
     atom    2 type  1   force =     0.00024409   -0.00179982    0.00882751
     atom    3 type  1   force =     0.00277759   -0.00361552    0.00575337
     atom    4 type  1   force =     0.01553546    0.01579160    0.07293091
     atom    5 type  1   force =     0.00059253    0.00164477    0.00879303
     atom    6 type  1   force =    -0.00033289    0.01115475    0.01653946
     atom    7 type  1   force =    -0.00385940    0.00866467    0.01194888
     atom    8 type  1   force =    -0.00022822    0.00089984    0.00764274
     atom    9 type  1   force =     0.03029948    0.07172026   -0.02226584
     atom   10 type  1   force =    -0.00361922   -0.00878091    0.01191634
     atom   11 type  1   force =     0.00010902   -0.00091238    0.00847280
     atom   12 type  1   force =    -0.07802373   -0.04260549   -0.01703865
     atom   13 type  2   force =    -0.01624139    0.02012062   -0.02460202
     atom   14 type  2   force =    -0.00065847    0.00122880   -0.00357322
     atom   15 type  2   force =     0.01345638   -0.01346558    0.00925050
     atom   16 type  2   force =    -0.01613731   -0.02008419   -0.02479827
     atom   17 type  2   force =    -0.00043314   -0.00107554   -0.00360808
     atom   18 type  2   force =     0.00696816    0.01365747   -0.00495727
     atom   19 type  2   force =     0.00395379   -0.00228516   -0.05983581
     atom   20 type  2   force =     0.00053602   -0.00001227   -0.00433927
     atom   21 type  2   force =    -0.00501112   -0.01540876    0.02543967
     atom   22 type  2   force =     0.00075247    0.00298175   -0.00161468
     atom   23 type  2   force =     0.00132508    0.00136314   -0.00382199
     atom   24 type  2   force =     0.00068778   -0.00294430   -0.00135501
     atom   25 type  2   force =     0.00047688   -0.00058019   -0.00376004
     atom   26 type  2   force =     0.02267057   -0.00362508   -0.03520983
     atom   27 type  2   force =     0.00395669    0.00225623   -0.05982436
     atom   28 type  2   force =    -0.00063674   -0.00008156   -0.00675159
     atom   29 type  2   force =     0.00051335    0.00000286   -0.00426742
     atom   30 type  2   force =    -0.00089847    0.00003161   -0.00107475
     atom   31 type  2   force =     0.00823564   -0.01955968    0.03077056
     atom   32 type  2   force =    -0.00063780    0.00025254   -0.00663219
     atom   33 type  2   force =    -0.00184682    0.00089287   -0.00189366
     The non-local contrib.  to forces
     atom    1 type  1   force =    -0.01954432    0.01744327   -0.07711192
     atom    2 type  1   force =    -0.03044646    0.06474739    0.03355326
     atom    3 type  1   force =    -0.03275584    0.06765070    0.04179299
     atom    4 type  1   force =    -0.01940244   -0.01736524   -0.07716707
     atom    5 type  1   force =    -0.03078744   -0.06477928    0.03354000
     atom    6 type  1   force =    -0.03158890   -0.07027355    0.03177931
     atom    7 type  1   force =     0.03186346   -0.07180758    0.01863966
     atom    8 type  1   force =     0.03038032   -0.06388665    0.03438732
     atom    9 type  1   force =     0.02783602   -0.12317145    0.16922407
     atom   10 type  1   force =     0.03195952    0.07180553    0.01866148
     atom   11 type  1   force =     0.03051641    0.06412803    0.03474318
     atom   12 type  1   force =     0.09205502   -0.00952374    0.19733293
     atom   13 type  2   force =    -0.08628464    0.07678285    0.03845732
     atom   14 type  2   force =    -0.05372417    0.04725434    0.03302077
     atom   15 type  2   force =    -0.03819341    0.02644712    0.03197017
     atom   16 type  2   force =    -0.08567187   -0.07628327    0.03802453
     atom   17 type  2   force =    -0.05298114   -0.04658218    0.03292540
     atom   18 type  2   force =    -0.04264106   -0.02091171    0.02097106
     atom   19 type  2   force =    -0.04579860   -0.15009891   -0.04175453
     atom   20 type  2   force =    -0.05230001   -0.14663512    0.00698440
     atom   21 type  2   force =    -0.06595463   -0.17389629    0.03860314
     atom   22 type  2   force =     0.05480070    0.04888141    0.03785080
     atom   23 type  2   force =     0.05439204    0.04731871    0.03239326
     atom   24 type  2   force =     0.05494180   -0.04916610    0.03778989
     atom   25 type  2   force =     0.05322593   -0.04648921    0.03161984
     atom   26 type  2   force =     0.14212625   -0.20243494   -0.38075857
     atom   27 type  2   force =    -0.04573438    0.15005259   -0.04175204
     atom   28 type  2   force =     0.05242597    0.14632262    0.00113648
     atom   29 type  2   force =    -0.05247340    0.14650484    0.00714375
     atom   30 type  2   force =     0.05260088    0.14666296    0.01169564
     atom   31 type  2   force =    -0.03686508    0.12510550    0.03336165
     atom   32 type  2   force =     0.05243432   -0.14650695    0.00125239
     atom   33 type  2   force =     0.05003370   -0.14501841    0.01095489
     The ionic contribution  to forces
     atom    1 type  1   force =    -1.52878945    1.02840401 -240.39944581
     atom    2 type  1   force =    -1.80742421   -2.70623651  -48.22101972
     atom    3 type  1   force =    -2.03103681   -2.59736134  146.51282999
     atom    4 type  1   force =    -1.52591277   -1.02735530 -240.39988343
     atom    5 type  1   force =    -1.80336029    2.70476274  -48.21990852
     atom    6 type  1   force =    -1.54458928    2.81618714  147.53751105
     atom    7 type  1   force =     1.80519332    2.50027154 -145.83887872
     atom    8 type  1   force =     1.77957643    2.71620553   49.35528060
     atom    9 type  1   force =    -3.39388243   -1.00949179  235.98857526
     atom   10 type  1   force =     1.81768421   -2.50024815 -145.83663965
     atom   11 type  1   force =     1.82800142   -2.71564697   49.36478799
     atom   12 type  1   force =     5.65090834   -1.22204631  236.36515164
     atom   13 type  2   force =     0.85452872    0.36071850 -108.74338748
     atom   14 type  2   force =     0.86499332    0.79735974  -12.08351591
     atom   15 type  2   force =     0.18428091    0.65231284   85.56540321
     atom   16 type  2   force =     0.85580289   -0.36221577 -108.72723200
     atom   17 type  2   force =     0.86799077   -0.79909344  -12.06657587
     atom   18 type  2   force =     1.44444277   -1.00277658   85.31061446
     atom   19 type  2   force =     0.37643203    2.31165840  -98.23236597
     atom   20 type  2   force =     0.36452489    2.42156997    0.00775730
     atom   21 type  2   force =     0.78074852    2.58965056   97.54201729
     atom   22 type  2   force =    -0.86357032    0.78164809  -60.81993296
     atom   23 type  2   force =    -0.86402916    0.79359546   36.75284913
     atom   24 type  2   force =    -0.86708022   -0.77987103  -60.82318280
     atom   25 type  2   force =    -0.86753962   -0.80505772   36.68927052
     atom   26 type  2   force =    -1.71039014    1.79635424  123.61593908
     atom   27 type  2   force =     0.37578433   -2.31348508  -98.23400559
     atom   28 type  2   force =    -0.36310407   -2.41323934  -48.80824858
     atom   29 type  2   force =     0.36116989   -2.42153879    0.00939432
     atom   30 type  2   force =    -0.39359265   -2.40151304   48.82426080
     atom   31 type  2   force =     0.04487345   -2.04456020   98.04177773
     atom   32 type  2   force =    -0.36232578    2.41551929  -48.80821315
     atom   33 type  2   force =    -0.33030900    2.43551932   48.77901578
     The local contribution  to forces
     atom    1 type  1   force =     1.56380991   -1.06166179  240.54890297
     atom    2 type  1   force =     1.83811537    2.63968874   48.19570459
     atom    3 type  1   force =     2.06657265    2.52609490 -146.54990222
     atom    4 type  1   force =     1.56085320    1.06049863  240.54938829
     atom    5 type  1   force =     1.83474074   -2.63833894   48.19457218
     atom    6 type  1   force =     1.57584097   -2.73476290 -147.55379229
     atom    7 type  1   force =    -1.84091723   -2.41979838  145.83160855
     atom    8 type  1   force =    -1.81018595   -2.65142191  -49.38289083
     atom    9 type  1   force =     3.39638780    1.20442963 -236.18086539
     atom   10 type  1   force =    -1.85326430    2.41965976  145.82931464
     atom   11 type  1   force =    -1.85841090    2.65060896  -49.39192387
     atom   12 type  1   force =    -5.82103327    1.18894370 -236.58032777
     atom   13 type  2   force =    -0.78448651   -0.41737990  108.68001748
     atom   14 type  2   force =    -0.81192762   -0.84338692   12.04657832
     atom   15 type  2   force =    -0.13262143   -0.69222258  -85.58872802
     atom   16 type  2   force =    -0.78626959    0.41841367  108.66409883
     atom   17 type  2   force =    -0.81544297    0.84460117   12.02969879
     atom   18 type  2   force =    -1.39484429    1.03734047  -85.33714626
     atom   19 type  2   force =    -0.32667478   -2.16384506   98.21396146
     atom   20 type  2   force =    -0.31168938   -2.27494968   -0.01946972
     atom   21 type  2   force =    -0.71980756   -2.43116093  -97.55576326
     atom   22 type  2   force =     0.80952142   -0.82754986   60.78018321
     atom   23 type  2   force =     0.81096382   -0.83955063  -36.78960279
     atom   24 type  2   force =     0.81282552    0.82609445   60.78375373
     atom   25 type  2   force =     0.81479185    0.85096643  -36.72518662
     atom   26 type  2   force =     1.59092086   -1.59753163 -123.27075710
     atom   27 type  2   force =    -0.32608815    2.16568833   98.21560978
     atom   28 type  2   force =     0.31004245    2.26683503   48.80008559
     atom   29 type  2   force =    -0.30818343    2.27503867   -0.02119412
     atom   30 type  2   force =     0.34009423    2.25488302  -48.83760667
     atom   31 type  2   force =     0.00023424    1.89989443  -98.04495442
     atom   32 type  2   force =     0.30925478   -2.26876031   48.80005388
     atom   33 type  2   force =     0.27842747   -2.28961055  -48.79243930
     The core correction contribution to forces
     atom    1 type  1   force =     0.00000000    0.00000000    0.00000000
     atom    2 type  1   force =     0.00000000    0.00000000    0.00000000
     atom    3 type  1   force =     0.00000000    0.00000000    0.00000000
     atom    4 type  1   force =     0.00000000    0.00000000    0.00000000
     atom    5 type  1   force =     0.00000000    0.00000000    0.00000000
     atom    6 type  1   force =     0.00000000    0.00000000    0.00000000
     atom    7 type  1   force =     0.00000000    0.00000000    0.00000000
     atom    8 type  1   force =     0.00000000    0.00000000    0.00000000
     atom    9 type  1   force =     0.00000000    0.00000000    0.00000000
     atom   10 type  1   force =     0.00000000    0.00000000    0.00000000
     atom   11 type  1   force =     0.00000000    0.00000000    0.00000000
     atom   12 type  1   force =     0.00000000    0.00000000    0.00000000
     atom   13 type  2   force =     0.00000000    0.00000000    0.00000000
     atom   14 type  2   force =     0.00000000    0.00000000    0.00000000
     atom   15 type  2   force =     0.00000000    0.00000000    0.00000000
     atom   16 type  2   force =     0.00000000    0.00000000    0.00000000
     atom   17 type  2   force =     0.00000000    0.00000000    0.00000000
     atom   18 type  2   force =     0.00000000    0.00000000    0.00000000
     atom   19 type  2   force =     0.00000000    0.00000000    0.00000000
     atom   20 type  2   force =     0.00000000    0.00000000    0.00000000
     atom   21 type  2   force =     0.00000000    0.00000000    0.00000000
     atom   22 type  2   force =     0.00000000    0.00000000    0.00000000
     atom   23 type  2   force =     0.00000000    0.00000000    0.00000000
     atom   24 type  2   force =     0.00000000    0.00000000    0.00000000
     atom   25 type  2   force =     0.00000000    0.00000000    0.00000000
     atom   26 type  2   force =     0.00000000    0.00000000    0.00000000
     atom   27 type  2   force =     0.00000000    0.00000000    0.00000000
     atom   28 type  2   force =     0.00000000    0.00000000    0.00000000
     atom   29 type  2   force =     0.00000000    0.00000000    0.00000000
     atom   30 type  2   force =     0.00000000    0.00000000    0.00000000
     atom   31 type  2   force =     0.00000000    0.00000000    0.00000000
     atom   32 type  2   force =     0.00000000    0.00000000    0.00000000
     atom   33 type  2   force =     0.00000000    0.00000000    0.00000000
     The Hubbard contrib.    to forces
     atom    1 type  1   force =     0.00000000    0.00000000    0.00000000
     atom    2 type  1   force =     0.00000000    0.00000000    0.00000000
     atom    3 type  1   force =     0.00000000    0.00000000    0.00000000
     atom    4 type  1   force =     0.00000000    0.00000000    0.00000000
     atom    5 type  1   force =     0.00000000    0.00000000    0.00000000
     atom    6 type  1   force =     0.00000000    0.00000000    0.00000000
     atom    7 type  1   force =     0.00000000    0.00000000    0.00000000
     atom    8 type  1   force =     0.00000000    0.00000000    0.00000000
     atom    9 type  1   force =     0.00000000    0.00000000    0.00000000
     atom   10 type  1   force =     0.00000000    0.00000000    0.00000000
     atom   11 type  1   force =     0.00000000    0.00000000    0.00000000
     atom   12 type  1   force =     0.00000000    0.00000000    0.00000000
     atom   13 type  2   force =     0.00000000    0.00000000    0.00000000
     atom   14 type  2   force =     0.00000000    0.00000000    0.00000000
     atom   15 type  2   force =     0.00000000    0.00000000    0.00000000
     atom   16 type  2   force =     0.00000000    0.00000000    0.00000000
     atom   17 type  2   force =     0.00000000    0.00000000    0.00000000
     atom   18 type  2   force =     0.00000000    0.00000000    0.00000000
     atom   19 type  2   force =     0.00000000    0.00000000    0.00000000
     atom   20 type  2   force =     0.00000000    0.00000000    0.00000000
     atom   21 type  2   force =     0.00000000    0.00000000    0.00000000
     atom   22 type  2   force =     0.00000000    0.00000000    0.00000000
     atom   23 type  2   force =     0.00000000    0.00000000    0.00000000
     atom   24 type  2   force =     0.00000000    0.00000000    0.00000000
     atom   25 type  2   force =     0.00000000    0.00000000    0.00000000
     atom   26 type  2   force =     0.00000000    0.00000000    0.00000000
     atom   27 type  2   force =     0.00000000    0.00000000    0.00000000
     atom   28 type  2   force =     0.00000000    0.00000000    0.00000000
     atom   29 type  2   force =     0.00000000    0.00000000    0.00000000
     atom   30 type  2   force =     0.00000000    0.00000000    0.00000000
     atom   31 type  2   force =     0.00000000    0.00000000    0.00000000
     atom   32 type  2   force =     0.00000000    0.00000000    0.00000000
     atom   33 type  2   force =     0.00000000    0.00000000    0.00000000
     The SCF correction term to forces
     atom    1 type  1   force =     0.00000000    0.00000000    0.00000000
     atom    2 type  1   force =     0.00000000    0.00000000    0.00000000
     atom    3 type  1   force =     0.00000000    0.00000000    0.00000000
     atom    4 type  1   force =     0.00000000    0.00000000    0.00000000
     atom    5 type  1   force =     0.00000000    0.00000000    0.00000000
     atom    6 type  1   force =     0.00000000    0.00000000    0.00000000
     atom    7 type  1   force =     0.00000000    0.00000000    0.00000000
     atom    8 type  1   force =     0.00000000    0.00000000    0.00000000
     atom    9 type  1   force =     0.00000000    0.00000000    0.00000000
     atom   10 type  1   force =     0.00000000    0.00000000    0.00000000
     atom   11 type  1   force =     0.00000000    0.00000000    0.00000000
     atom   12 type  1   force =     0.00000000    0.00000000    0.00000000
     atom   13 type  2   force =     0.00000000    0.00000000    0.00000000
     atom   14 type  2   force =     0.00000000    0.00000000    0.00000000
     atom   15 type  2   force =     0.00000000    0.00000000    0.00000000
     atom   16 type  2   force =     0.00000000    0.00000000    0.00000000
     atom   17 type  2   force =     0.00000000    0.00000000    0.00000000
     atom   18 type  2   force =     0.00000000    0.00000000    0.00000000
     atom   19 type  2   force =     0.00000000    0.00000000    0.00000000
     atom   20 type  2   force =     0.00000000    0.00000000    0.00000000
     atom   21 type  2   force =     0.00000000    0.00000000    0.00000000
     atom   22 type  2   force =     0.00000000    0.00000000    0.00000000
     atom   23 type  2   force =     0.00000000    0.00000000    0.00000000
     atom   24 type  2   force =     0.00000000    0.00000000    0.00000000
     atom   25 type  2   force =     0.00000000    0.00000000    0.00000000
     atom   26 type  2   force =     0.00001375   -0.00001306    0.00005399
     atom   27 type  2   force =     0.00000000    0.00000000    0.00000000
     atom   28 type  2   force =     0.00000000    0.00000000    0.00000000
     atom   29 type  2   force =     0.00000000    0.00000000    0.00000000
     atom   30 type  2   force =     0.00000000    0.00000000    0.00000000
     atom   31 type  2   force =     0.00000000    0.00000000    0.00000000
     atom   32 type  2   force =     0.00000000    0.00000000    0.00000000
     atom   33 type  2   force =     0.00000000    0.00000000    0.00000000

     Total force =     0.042034     Total SCF correction =     0.000057

     BFGS Geometry Optimization
     Energy error            =      0.0E+00
     Gradient error          =      3.5E-02

     number of scf cycles    =   1
     number of bfgs steps    =   0

     energy   new            =   -1853.4346558523 Ry

     new trust radius        =       0.0420336526 bohr
     new conv_thr            =       0.0000001000 Ry


ATOMIC_POSITIONS (angstrom)
Hf            4.0076390000        3.7813620000        6.1529890000    0   0   0
Hf            4.0076390000        3.7813620000       11.0753320000    0   0   0
Hf            4.0076390000        3.7813620000       15.9976750000    0   0   0
Hf            1.4522770000        1.1321830000        6.1529770000    0   0   0
Hf            1.4522770000        1.1321830000       11.0753200000    0   0   0
Hf            1.4522770000        1.1321830000       15.9976630000    0   0   0
Hf            3.6579980000        1.1322110000        8.6140330000    0   0   0
Hf            3.6579980000        1.1322110000       13.5363760000    0   0   0
Hf            3.6579980000        1.1322110000       18.4587190000    0   0   0
Hf            1.1027520000        3.7813090000        8.6141070000    0   0   0
Hf            1.1027520000        3.7813090000       13.5364490000    0   0   0
Hf            1.1027520000        3.7813090000       18.4587920000    0   0   0
O             3.1707970000        2.0862730000        6.8074440000    0   0   0
O             3.1707970000        2.0862730000       11.7297860000    0   0   0
O             3.1707970000        2.0862730000       16.6521290000    0   0   0
O             0.6152330000        2.8266930000        6.8083890000    0   0   0
O             0.6152330000        2.8266930000       11.7307320000    0   0   0
O             0.6152330000        2.8266930000       16.6530750000    0   0   0
O             5.0530890000        0.2074550000        7.3799440000    0   0   0
O             5.0530890000        0.2074550000       12.3022870000    0   0   0
O             5.0530890000        0.2074550000       17.2246300000    0   0   0
O             1.9399660000        2.0865810000        9.2696970000    0   0   0
O             1.9399660000        2.0865810000       14.1920390000    0   0   0
O             4.4952530000        2.8267400000        9.2692970000    0   0   0
O             4.4952530000        2.8267400000       14.1916400000    0   0   0
O             4.5072497479        2.8248216918       19.0953497605
O             2.4978700000       -0.2075440000        7.3798460000    0   0   0
O             2.6124080000       -0.2081150000        9.8410840000    0   0   0
O             2.4978700000       -0.2075440000       12.3021890000    0   0   0
O             2.6124080000       -0.2081150000       14.7634270000    0   0   0
O             2.4978700000       -0.2075440000       17.2245320000    0   0   0
O             5.1675430000        0.2075860000        9.8410300000    0   0   0
O             5.1675430000        0.2075860000       14.7633720000    0   0   0



     Writing output data file ./hfo2.save/
     NEW-OLD atomic charge density approx. for the potential

     negative rho (up, down):  2.414E-04 0.000E+00
 
     Adding external electric field

     Computed dipole along edir(3) : 
        Elec. dipole         -2.7545 Ry au,         -7.0012 Debye
        Ion. dipole          -2.7535 Ry au,         -6.9987 Debye
        Dipole                0.4604 Ry au,          1.1703 Debye
        Dipole field          0.0010 Ry au, 
 
        E field amplitude [Ha a.u.]:  1.0000E-03
        Potential amp.        0.0031 Ry
        Total length         62.8334 bohr
 

     total cpu time spent up to now is      122.5 secs

     Self-consistent Calculation

     iteration #  1     ecut=    50.00 Ry     beta= 0.30
     Davidson diagonalization with overlap
     ethr =  1.00E-06,  avg # of iterations =  3.8

     negative rho (up, down):  1.554E-04 0.000E+00
 
     Adding external electric field

     Computed dipole along edir(3) : 
        Elec. dipole         -2.7545 Ry au,         -7.0012 Debye
        Ion. dipole          -2.7535 Ry au,         -6.9987 Debye
        Dipole                0.4601 Ry au,          1.1695 Debye
        Dipole field          0.0010 Ry au, 
 
        E field amplitude [Ha a.u.]:  1.0000E-03
        Potential amp.        0.0032 Ry
        Total length         62.8334 bohr
 

     total cpu time spent up to now is      132.6 secs

     total energy              =   -1853.43633268 Ry
     estimated scf accuracy    <       0.00135130 Ry

     iteration #  2     ecut=    50.00 Ry     beta= 0.30
     Davidson diagonalization with overlap
     ethr =  5.00E-07,  avg # of iterations =  1.0

     negative rho (up, down):  9.406E-05 0.000E+00
 
     Adding external electric field

     Computed dipole along edir(3) : 
        Elec. dipole         -2.7545 Ry au,         -7.0012 Debye
        Ion. dipole          -2.7535 Ry au,         -6.9987 Debye
        Dipole                0.4600 Ry au,          1.1692 Debye
        Dipole field          0.0010 Ry au, 
 
        E field amplitude [Ha a.u.]:  1.0000E-03
        Potential amp.        0.0032 Ry
        Total length         62.8334 bohr
 

     total cpu time spent up to now is      141.6 secs

     total energy              =   -1853.43630659 Ry
     estimated scf accuracy    <       0.00029054 Ry

     iteration #  3     ecut=    50.00 Ry     beta= 0.30
     Davidson diagonalization with overlap
     ethr =  1.08E-07,  avg # of iterations =  2.1

     negative rho (up, down):  4.901E-05 0.000E+00
 
     Adding external electric field

     Computed dipole along edir(3) : 
        Elec. dipole         -2.7545 Ry au,         -7.0012 Debye
        Ion. dipole          -2.7535 Ry au,         -6.9987 Debye
        Dipole                0.4603 Ry au,          1.1699 Debye
        Dipole field          0.0010 Ry au, 
 
        E field amplitude [Ha a.u.]:  1.0000E-03
        Potential amp.        0.0031 Ry
        Total length         62.8334 bohr
 

     total cpu time spent up to now is      145.8 secs

     total energy              =   -1853.43628297 Ry
     estimated scf accuracy    <       0.00006684 Ry

     iteration #  4     ecut=    50.00 Ry     beta= 0.30
     Davidson diagonalization with overlap
     ethr =  2.48E-08,  avg # of iterations =  5.1

     negative rho (up, down):  2.424E-05 0.000E+00
 
     Adding external electric field

     Computed dipole along edir(3) : 
        Elec. dipole         -2.7545 Ry au,         -7.0012 Debye
        Ion. dipole          -2.7535 Ry au,         -6.9987 Debye
        Dipole                0.4607 Ry au,          1.1710 Debye
        Dipole field          0.0010 Ry au, 
 
        E field amplitude [Ha a.u.]:  1.0000E-03
        Potential amp.        0.0030 Ry
        Total length         62.8334 bohr
 

     total cpu time spent up to now is      149.6 secs

     total energy              =   -1853.43629131 Ry
     estimated scf accuracy    <       0.00000837 Ry

     iteration #  5     ecut=    50.00 Ry     beta= 0.30
     Davidson diagonalization with overlap
     ethr =  3.10E-09,  avg # of iterations =  2.4

     negative rho (up, down):  1.112E-05 0.000E+00
 
     Adding external electric field

     Computed dipole along edir(3) : 
        Elec. dipole         -2.7545 Ry au,         -7.0012 Debye
        Ion. dipole          -2.7535 Ry au,         -6.9987 Debye
        Dipole                0.4609 Ry au,          1.1716 Debye
        Dipole field          0.0010 Ry au, 
 
        E field amplitude [Ha a.u.]:  1.0000E-03
        Potential amp.        0.0029 Ry
        Total length         62.8334 bohr
 

     total cpu time spent up to now is      152.8 secs

     total energy              =   -1853.43629145 Ry
     estimated scf accuracy    <       0.00000404 Ry

     iteration #  6     ecut=    50.00 Ry     beta= 0.30
     Davidson diagonalization with overlap
     ethr =  1.50E-09,  avg # of iterations =  2.4

     negative rho (up, down):  6.602E-06 0.000E+00
 
     Adding external electric field

     Computed dipole along edir(3) : 
        Elec. dipole         -2.7545 Ry au,         -7.0012 Debye
        Ion. dipole          -2.7535 Ry au,         -6.9987 Debye
        Dipole                0.4617 Ry au,          1.1736 Debye
        Dipole field          0.0010 Ry au, 
 
        E field amplitude [Ha a.u.]:  1.0000E-03
        Potential amp.        0.0027 Ry
        Total length         62.8334 bohr
 

     total cpu time spent up to now is      155.7 secs

     total energy              =   -1853.43629129 Ry
     estimated scf accuracy    <       0.00000408 Ry

     iteration #  7     ecut=    50.00 Ry     beta= 0.30
     Davidson diagonalization with overlap
     ethr =  1.50E-09,  avg # of iterations =  2.0

     negative rho (up, down):  3.244E-06 0.000E+00
 
     Adding external electric field

     Computed dipole along edir(3) : 
        Elec. dipole         -2.7545 Ry au,         -7.0012 Debye
        Ion. dipole          -2.7535 Ry au,         -6.9987 Debye
        Dipole                0.4619 Ry au,          1.1741 Debye
        Dipole field          0.0010 Ry au, 
 
        E field amplitude [Ha a.u.]:  1.0000E-03
        Potential amp.        0.0027 Ry
        Total length         62.8334 bohr
 

     total cpu time spent up to now is      158.7 secs

     total energy              =   -1853.43629140 Ry
     estimated scf accuracy    <       0.00000096 Ry

     iteration #  8     ecut=    50.00 Ry     beta= 0.30
     Davidson diagonalization with overlap
     ethr =  3.56E-10,  avg # of iterations =  5.0

     negative rho (up, down):  7.541E-06 0.000E+00
 
     Adding external electric field

     Computed dipole along edir(3) : 
        Elec. dipole         -2.7545 Ry au,         -7.0012 Debye
        Ion. dipole          -2.7535 Ry au,         -6.9987 Debye
        Dipole                0.4622 Ry au,          1.1749 Debye
        Dipole field          0.0010 Ry au, 
 
        E field amplitude [Ha a.u.]:  1.0000E-03
        Potential amp.        0.0026 Ry
        Total length         62.8334 bohr
 

     total cpu time spent up to now is      172.9 secs

     total energy              =   -1853.43629141 Ry
     estimated scf accuracy    <       0.00000056 Ry

     iteration #  9     ecut=    50.00 Ry     beta= 0.30
     Davidson diagonalization with overlap
     ethr =  2.08E-10,  avg # of iterations =  2.7

     negative rho (up, down):  4.579E-06 0.000E+00
 
     Adding external electric field

     Computed dipole along edir(3) : 
        Elec. dipole         -2.7545 Ry au,         -7.0012 Debye
        Ion. dipole          -2.7535 Ry au,         -6.9987 Debye
        Dipole                0.4622 Ry au,          1.1749 Debye
        Dipole field          0.0010 Ry au, 
 
        E field amplitude [Ha a.u.]:  1.0000E-03
        Potential amp.        0.0026 Ry
        Total length         62.8334 bohr
 

     total cpu time spent up to now is      185.7 secs

     total energy              =   -1853.43629146 Ry
     estimated scf accuracy    <       0.00000025 Ry

     iteration # 10     ecut=    50.00 Ry     beta= 0.30
     Davidson diagonalization with overlap
     ethr =  9.27E-11,  avg # of iterations =  1.7

     negative rho (up, down):  2.842E-06 0.000E+00
 
     Adding external electric field

     Computed dipole along edir(3) : 
        Elec. dipole         -2.7545 Ry au,         -7.0012 Debye
        Ion. dipole          -2.7535 Ry au,         -6.9987 Debye
        Dipole                0.4618 Ry au,          1.1739 Debye
        Dipole field          0.0010 Ry au, 
 
        E field amplitude [Ha a.u.]:  1.0000E-03
        Potential amp.        0.0027 Ry
        Total length         62.8334 bohr
 

     total cpu time spent up to now is      192.2 secs

     total energy              =   -1853.43629147 Ry
     estimated scf accuracy    <       0.00000021 Ry

     iteration # 11     ecut=    50.00 Ry     beta= 0.30
     Davidson diagonalization with overlap
     ethr =  7.85E-11,  avg # of iterations =  2.1
 
     Adding external electric field

     Computed dipole along edir(3) : 
        Elec. dipole         -2.7545 Ry au,         -7.0012 Debye
        Ion. dipole          -2.7535 Ry au,         -6.9987 Debye
        Dipole                0.4645 Ry au,          1.1806 Debye
        Dipole field          0.0010 Ry au, 
 
        E field amplitude [Ha a.u.]:  1.0000E-03
        Potential amp.        0.0020 Ry
        Total length         62.8334 bohr
 

     total cpu time spent up to now is      194.2 secs

     End of self-consistent calculation

          k = 0.0000 0.0000 0.0000 ( 35385 PWs)   bands (ev):

   -59.2642 -59.2508 -59.0177 -59.0022 -58.9506 -58.8668 -58.8514 -58.8093
   -58.7553 -58.7399 -58.6347 -58.6169 -29.1129 -29.0541 -28.9723 -28.8934
   -28.8498 -28.7905 -28.7825 -28.7651 -28.7257 -28.7089 -28.6736 -28.6607
   -28.6494 -28.6257 -28.5918 -28.5593 -28.5521 -28.5459 -28.4891 -28.4602
   -28.4534 -28.4281 -28.4069 -28.3961 -28.3548 -28.3489 -28.3346 -28.3111
   -28.2787 -28.2571 -28.2343 -28.1995 -28.1754 -28.1548 -28.1273 -28.1034
   -17.8604 -17.4642 -16.9523 -16.6685 -16.4195 -16.3817 -16.2515 -16.1665
   -16.0807 -16.0694 -15.9160 -15.7397 -15.5700 -15.4240 -15.4167 -15.2992
   -15.2809 -15.1726 -15.1332 -15.0740 -14.4463  -5.4766  -5.4493  -5.2916
    -5.2437  -5.0979  -5.0178  -4.6904  -4.6511  -4.4732  -4.4204  -4.2987
    -4.2543  -4.1619  -3.9374  -3.8394  -3.6667  -3.6421  -3.4691  -3.4211
    -3.3622  -3.1643  -3.1053  -2.8670  -2.8387  -2.8042  -2.6893  -2.6203
    -2.5283  -2.4662  -2.3125  -2.1530  -2.1323  -2.0053  -2.0012  -1.9642
    -1.8851  -1.7793  -1.7532  -1.7403  -1.6954  -1.6470  -1.6074  -1.2853
    -1.2433  -1.2122  -1.0581  -0.9090  -0.9030  -0.8389  -0.7330  -0.6595
    -0.6172  -0.5069  -0.3629  -0.2184  -0.1982  -0.1285   0.0392   0.0882
     0.2031   0.2256   0.3261   0.4286   2.6914   2.9255   4.1208   4.3584
     4.4184   4.8038   5.0122   5.0376   5.2806   5.4577   5.5401   5.8163
     5.9145   5.9835   6.0162   6.1681   6.2260   6.2700   6.3819   6.4499
     6.4588   6.5940   6.6344   6.6869   6.8261   6.8661   6.9626   6.9822
     7.0248   7.1623

     occupation numbers 
     1.0000   1.0000   1.0000   1.0000   1.0000   1.0000   1.0000   1.0000
     1.0000   1.0000   1.0000   1.0000   1.0000   1.0000   1.0000   1.0000
     1.0000   1.0000   1.0000   1.0000   1.0000   1.0000   1.0000   1.0000
     1.0000   1.0000   1.0000   1.0000   1.0000   1.0000   1.0000   1.0000
     1.0000   1.0000   1.0000   1.0000   1.0000   1.0000   1.0000   1.0000
     1.0000   1.0000   1.0000   1.0000   1.0000   1.0000   1.0000   1.0000
     1.0000   1.0000   1.0000   1.0000   1.0000   1.0000   1.0000   1.0000
     1.0000   1.0000   1.0000   1.0000   1.0000   1.0000   1.0000   1.0000
     1.0000   1.0000   1.0000   1.0000   1.0000   1.0000   1.0000   1.0000
     1.0000   1.0000   1.0000   1.0000   1.0000   1.0000   1.0000   1.0000
     1.0000   1.0000   1.0000   1.0000   1.0000   1.0000   1.0000   1.0000
     1.0000   1.0000   1.0000   1.0000   1.0000   1.0000   1.0000   1.0000
     1.0000   1.0000   1.0000   1.0000   1.0000   1.0000   1.0000   1.0000
     1.0000   1.0000   1.0000   1.0000   1.0000   1.0000   1.0000   1.0000
     1.0000   1.0000   1.0000   1.0000   1.0000   1.0000   1.0000   1.0000
     1.0000   1.0000   1.0000   1.0000   1.0000   1.0000   1.0000   1.0000
     1.0000   1.0000   1.0000   1.0000   1.0000   0.9998   0.4802   0.1388
     0.0939   0.0061   0.0013   0.0011   0.0002   0.0000   0.0000   0.0000
     0.0000   0.0000   0.0000   0.0000   0.0000   0.0000   0.0000   0.0000
     0.0000   0.0000   0.0000   0.0000   0.0000   0.0000   0.0000   0.0000
     0.0000   0.0000

          k = 0.0000 0.2600 0.0000 ( 35369 PWs)   bands (ev):

   -59.2626 -59.2524 -59.0160 -59.0039 -58.9504 -58.8651 -58.8531 -58.8094
   -58.7536 -58.7415 -58.6336 -58.6182 -29.0962 -29.0025 -28.9463 -28.8858
   -28.8219 -28.8025 -28.7647 -28.7412 -28.7173 -28.7032 -28.6845 -28.6752
   -28.6559 -28.6194 -28.5888 -28.5745 -28.5454 -28.5371 -28.5272 -28.4793
   -28.4535 -28.4367 -28.4299 -28.4055 -28.3880 -28.3464 -28.3231 -28.3002
   -28.2978 -28.2811 -28.2495 -28.2051 -28.1839 -28.1606 -28.1374 -28.1277
   -17.5970 -17.2536 -16.8383 -16.6072 -16.3973 -16.3105 -16.1805 -16.1233
   -16.0676 -16.0300 -15.9678 -15.7698 -15.6303 -15.5822 -15.4919 -15.4483
   -15.3837 -15.2688 -15.1938 -15.1574 -14.4907  -5.4200  -5.2923  -5.1137
    -4.9894  -4.9599  -4.7404  -4.6236  -4.5816  -4.5382  -4.4007  -4.3317
    -4.2186  -3.9714  -3.9044  -3.7303  -3.6766  -3.5943  -3.5141  -3.4117
    -3.3515  -3.2944  -3.2577  -3.0559  -2.9611  -2.8474  -2.7379  -2.6694
    -2.5617  -2.4470  -2.3712  -2.3115  -2.2247  -2.1927  -2.0748  -2.0102
    -1.9236  -1.8185  -1.6887  -1.5822  -1.5111  -1.4659  -1.3684  -1.2408
    -1.2256  -1.1401  -0.9910  -0.9116  -0.8833  -0.8328  -0.7785  -0.7538
    -0.6864  -0.6026  -0.4722  -0.4251  -0.2989  -0.2832  -0.2367  -0.2048
     0.0601   0.1857   0.2723   0.3829   3.0531   3.2892   4.2134   4.2287
     4.3688   4.8439   4.9009   5.1271   5.1822   5.2277   5.3260   5.4225
     5.6450   5.7001   5.8314   5.8561   5.9496   6.0989   6.1304   6.3404
     6.5270   6.5507   6.6645   6.7240   6.9006   6.9711   7.0399   7.1439
     7.2052   7.2562

     occupation numbers 
     1.0000   1.0000   1.0000   1.0000   1.0000   1.0000   1.0000   1.0000
     1.0000   1.0000   1.0000   1.0000   1.0000   1.0000   1.0000   1.0000
     1.0000   1.0000   1.0000   1.0000   1.0000   1.0000   1.0000   1.0000
     1.0000   1.0000   1.0000   1.0000   1.0000   1.0000   1.0000   1.0000
     1.0000   1.0000   1.0000   1.0000   1.0000   1.0000   1.0000   1.0000
     1.0000   1.0000   1.0000   1.0000   1.0000   1.0000   1.0000   1.0000
     1.0000   1.0000   1.0000   1.0000   1.0000   1.0000   1.0000   1.0000
     1.0000   1.0000   1.0000   1.0000   1.0000   1.0000   1.0000   1.0000
     1.0000   1.0000   1.0000   1.0000   1.0000   1.0000   1.0000   1.0000
     1.0000   1.0000   1.0000   1.0000   1.0000   1.0000   1.0000   1.0000
     1.0000   1.0000   1.0000   1.0000   1.0000   1.0000   1.0000   1.0000
     1.0000   1.0000   1.0000   1.0000   1.0000   1.0000   1.0000   1.0000
     1.0000   1.0000   1.0000   1.0000   1.0000   1.0000   1.0000   1.0000
     1.0000   1.0000   1.0000   1.0000   1.0000   1.0000   1.0000   1.0000
     1.0000   1.0000   1.0000   1.0000   1.0000   1.0000   1.0000   1.0000
     1.0000   1.0000   1.0000   1.0000   1.0000   1.0000   1.0000   1.0000
     1.0000   1.0000   1.0000   1.0000   0.9996   0.9976   0.3187   0.2948
     0.1299   0.0045   0.0030   0.0006   0.0004   0.0003   0.0001   0.0001
     0.0000   0.0000   0.0000   0.0000   0.0000   0.0000   0.0000   0.0000
     0.0000   0.0000   0.0000   0.0000   0.0000   0.0000   0.0000   0.0000
     0.0000   0.0000

          k = 0.0000-0.5200 0.0000 ( 35392 PWs)   bands (ev):

   -59.2600 -59.2549 -59.0135 -59.0064 -58.9503 -58.8625 -58.8556 -58.8094
   -58.7513 -58.7439 -58.6323 -58.6197 -29.0771 -28.9330 -28.8981 -28.8954
   -28.7985 -28.7935 -28.7729 -28.7452 -28.7107 -28.7043 -28.6876 -28.6558
   -28.6435 -28.6281 -28.6067 -28.5751 -28.5636 -28.5434 -28.5106 -28.4931
   -28.4876 -28.4489 -28.4451 -28.4082 -28.3918 -28.3751 -28.3516 -28.3242
   -28.3030 -28.2934 -28.2214 -28.2110 -28.1949 -28.1746 -28.1584 -28.1379
   -17.2173 -16.9431 -16.6889 -16.5433 -16.3693 -16.2346 -16.1950 -16.1034
   -16.0867 -16.0412 -15.9876 -15.9764 -15.8269 -15.6669 -15.6379 -15.4755
   -15.4436 -15.3322 -15.2503 -15.2344 -14.5329  -5.2168  -5.1532  -5.0209
    -4.8278  -4.6613  -4.5821  -4.4835  -4.4760  -4.3171  -4.2655  -4.2553
    -4.1840  -4.0877  -3.9805  -3.9084  -3.8571  -3.7879  -3.6151  -3.5765
    -3.2940  -3.2526  -3.1685  -3.1087  -2.9022  -2.8838  -2.7878  -2.6688
    -2.6250  -2.4461  -2.3804  -2.3106  -2.2481  -2.0700  -2.0340  -1.9597
    -1.8630  -1.6689  -1.6239  -1.5564  -1.4756  -1.4700  -1.3544  -1.3149
    -1.2774  -1.2075  -1.1915  -1.1357  -1.0602  -0.9779  -0.9046  -0.8527
    -0.7753  -0.6143  -0.5880  -0.5592  -0.4353  -0.3160  -0.2446  -0.2158
     0.0169   0.1279   0.2704   0.3495   3.6098   3.7893   4.0919   4.1282
     4.3579   4.5211   4.5676   4.9950   5.0774   5.2192   5.2344   5.2594
     5.4365   5.4916   5.5592   5.6596   5.7081   5.9611   6.1380   6.2812
     6.3670   6.4411   6.5663   6.7180   6.9744   7.0902   7.1006   7.1712
     7.2469   7.2496

     occupation numbers 
     1.0000   1.0000   1.0000   1.0000   1.0000   1.0000   1.0000   1.0000
     1.0000   1.0000   1.0000   1.0000   1.0000   1.0000   1.0000   1.0000
     1.0000   1.0000   1.0000   1.0000   1.0000   1.0000   1.0000   1.0000
     1.0000   1.0000   1.0000   1.0000   1.0000   1.0000   1.0000   1.0000
     1.0000   1.0000   1.0000   1.0000   1.0000   1.0000   1.0000   1.0000
     1.0000   1.0000   1.0000   1.0000   1.0000   1.0000   1.0000   1.0000
     1.0000   1.0000   1.0000   1.0000   1.0000   1.0000   1.0000   1.0000
     1.0000   1.0000   1.0000   1.0000   1.0000   1.0000   1.0000   1.0000
     1.0000   1.0000   1.0000   1.0000   1.0000   1.0000   1.0000   1.0000
     1.0000   1.0000   1.0000   1.0000   1.0000   1.0000   1.0000   1.0000
     1.0000   1.0000   1.0000   1.0000   1.0000   1.0000   1.0000   1.0000
     1.0000   1.0000   1.0000   1.0000   1.0000   1.0000   1.0000   1.0000
     1.0000   1.0000   1.0000   1.0000   1.0000   1.0000   1.0000   1.0000
     1.0000   1.0000   1.0000   1.0000   1.0000   1.0000   1.0000   1.0000
     1.0000   1.0000   1.0000   1.0000   1.0000   1.0000   1.0000   1.0000
     1.0000   1.0000   1.0000   1.0000   1.0000   1.0000   1.0000   1.0000
     1.0000   1.0000   1.0000   1.0000   0.9753   0.9135   0.5334   0.4666
     0.1392   0.0465   0.0335   0.0015   0.0008   0.0003   0.0003   0.0002
     0.0001   0.0000   0.0000   0.0000   0.0000   0.0000   0.0000   0.0000
     0.0000   0.0000   0.0000   0.0000   0.0000   0.0000   0.0000   0.0000
     0.0000   0.0000

          k = 0.2500 0.0000 0.0000 ( 35470 PWs)   bands (ev):

   -59.2623 -59.2528 -59.0155 -59.0045 -58.9504 -58.8646 -58.8537 -58.8094
   -58.7531 -58.7420 -58.6332 -58.6185 -29.0754 -29.0212 -28.9406 -28.8808
   -28.8119 -28.8000 -28.7792 -28.7458 -28.7098 -28.6838 -28.6766 -28.6667
   -28.6530 -28.6422 -28.6001 -28.5765 -28.5638 -28.5460 -28.5090 -28.4577
   -28.4475 -28.4429 -28.4367 -28.4136 -28.3730 -28.3499 -28.3338 -28.3081
   -28.2988 -28.2673 -28.2533 -28.2079 -28.1803 -28.1585 -28.1478 -28.1243
   -17.5877 -17.2413 -16.8191 -16.6689 -16.3858 -16.3680 -16.2647 -16.1874
   -16.0550 -16.0437 -15.8645 -15.7990 -15.5822 -15.5636 -15.4496 -15.4279
   -15.3591 -15.3057 -15.2114 -15.1746 -14.4947  -5.2300  -5.1078  -4.9682
    -4.9213  -4.8232  -4.6978  -4.6006  -4.5641  -4.3872  -4.3268  -4.2161
    -4.1284  -4.0532  -4.0315  -3.9499  -3.8319  -3.7666  -3.5640  -3.4118
    -3.3680  -3.2789  -3.2386  -3.0708  -3.0419  -2.8645  -2.7997  -2.5892
    -2.5474  -2.4090  -2.3454  -2.3129  -2.2360  -2.1645  -2.0348  -1.9350
    -1.8960  -1.7999  -1.7558  -1.6532  -1.6101  -1.5778  -1.5439  -1.4118
    -1.3751  -1.2765  -1.1889  -1.1149  -1.0059  -0.8934  -0.8056  -0.6781
    -0.5890  -0.5322  -0.4368  -0.4129  -0.3332  -0.2211  -0.1820  -0.0862
    -0.0538   0.0371   0.0747   0.2655   2.9634   3.2652   4.1379   4.3238
     4.6263   4.8529   4.9075   5.1448   5.1671   5.5144   5.5625   5.6912
     5.8468   5.9013   6.0232   6.0969   6.1838   6.2700   6.3534   6.4199
     6.5015   6.5981   6.6235   6.6841   6.7471   6.8486   6.8815   7.0175
     7.1010   7.2069

     occupation numbers 
     1.0000   1.0000   1.0000   1.0000   1.0000   1.0000   1.0000   1.0000
     1.0000   1.0000   1.0000   1.0000   1.0000   1.0000   1.0000   1.0000
     1.0000   1.0000   1.0000   1.0000   1.0000   1.0000   1.0000   1.0000
     1.0000   1.0000   1.0000   1.0000   1.0000   1.0000   1.0000   1.0000
     1.0000   1.0000   1.0000   1.0000   1.0000   1.0000   1.0000   1.0000
     1.0000   1.0000   1.0000   1.0000   1.0000   1.0000   1.0000   1.0000
     1.0000   1.0000   1.0000   1.0000   1.0000   1.0000   1.0000   1.0000
     1.0000   1.0000   1.0000   1.0000   1.0000   1.0000   1.0000   1.0000
     1.0000   1.0000   1.0000   1.0000   1.0000   1.0000   1.0000   1.0000
     1.0000   1.0000   1.0000   1.0000   1.0000   1.0000   1.0000   1.0000
     1.0000   1.0000   1.0000   1.0000   1.0000   1.0000   1.0000   1.0000
     1.0000   1.0000   1.0000   1.0000   1.0000   1.0000   1.0000   1.0000
     1.0000   1.0000   1.0000   1.0000   1.0000   1.0000   1.0000   1.0000
     1.0000   1.0000   1.0000   1.0000   1.0000   1.0000   1.0000   1.0000
     1.0000   1.0000   1.0000   1.0000   1.0000   1.0000   1.0000   1.0000
     1.0000   1.0000   1.0000   1.0000   1.0000   1.0000   1.0000   1.0000
     1.0000   1.0000   1.0000   1.0000   0.9998   0.9980   0.4489   0.1721
     0.0220   0.0042   0.0028   0.0005   0.0004   0.0000   0.0000   0.0000
     0.0000   0.0000   0.0000   0.0000   0.0000   0.0000   0.0000   0.0000
     0.0000   0.0000   0.0000   0.0000   0.0000   0.0000   0.0000   0.0000
     0.0000   0.0000

          k = 0.2500 0.2600 0.0000 ( 35420 PWs)   bands (ev):

   -59.2611 -59.2539 -59.0142 -59.0057 -58.9503 -58.8633 -58.8549 -58.8094
   -58.7520 -58.7432 -58.6326 -58.6193 -29.0895 -29.0281 -28.9492 -28.8939
   -28.8321 -28.7950 -28.7666 -28.7470 -28.7208 -28.7099 -28.6843 -28.6564
   -28.6475 -28.6351 -28.6016 -28.5756 -28.5561 -28.5188 -28.5004 -28.4888
   -28.4740 -28.4469 -28.4213 -28.4026 -28.3599 -28.3556 -28.3342 -28.3083
   -28.2933 -28.2605 -28.2355 -28.2006 -28.1952 -28.1685 -28.1432 -28.1139
   -17.4034 -17.1037 -16.7803 -16.6837 -16.4419 -16.3735 -16.2790 -16.2143
   -16.0661 -16.0415 -15.9220 -15.7578 -15.6461 -15.5699 -15.5063 -15.4426
   -15.4096 -15.3180 -15.1926 -15.1418 -14.5377  -5.2096  -5.0560  -4.8265
    -4.7676  -4.7175  -4.6491  -4.5263  -4.4397  -4.3535  -4.3129  -4.2205
    -4.1135  -4.0280  -3.9774  -3.8840  -3.6593  -3.5459  -3.4303  -3.3744
    -3.3396  -3.2794  -3.2180  -3.1511  -3.0404  -2.9998  -2.9081  -2.7632
    -2.5601  -2.4590  -2.3987  -2.3235  -2.2323  -2.1785  -2.1057  -1.9248
    -1.8409  -1.7976  -1.7604  -1.6472  -1.5919  -1.5220  -1.4518  -1.4210
    -1.3369  -1.2707  -1.1796  -1.0851  -1.0242  -0.9742  -0.9381  -0.7948
    -0.6830  -0.6574  -0.5599  -0.4782  -0.4557  -0.3744  -0.2597  -0.1917
    -0.1425  -0.0362   0.0765   0.2568   3.1419   3.4838   4.0706   4.1245
     4.5900   4.7865   4.8619   5.0946   5.1594   5.2022   5.3440   5.4619
     5.5657   5.7411   5.8150   5.8793   5.9897   6.0492   6.0866   6.3399
     6.4159   6.5826   6.6093   6.7136   6.7341   6.8810   6.9718   7.0979
     7.1828   7.2252

     occupation numbers 
     1.0000   1.0000   1.0000   1.0000   1.0000   1.0000   1.0000   1.0000
     1.0000   1.0000   1.0000   1.0000   1.0000   1.0000   1.0000   1.0000
     1.0000   1.0000   1.0000   1.0000   1.0000   1.0000   1.0000   1.0000
     1.0000   1.0000   1.0000   1.0000   1.0000   1.0000   1.0000   1.0000
     1.0000   1.0000   1.0000   1.0000   1.0000   1.0000   1.0000   1.0000
     1.0000   1.0000   1.0000   1.0000   1.0000   1.0000   1.0000   1.0000
     1.0000   1.0000   1.0000   1.0000   1.0000   1.0000   1.0000   1.0000
     1.0000   1.0000   1.0000   1.0000   1.0000   1.0000   1.0000   1.0000
     1.0000   1.0000   1.0000   1.0000   1.0000   1.0000   1.0000   1.0000
     1.0000   1.0000   1.0000   1.0000   1.0000   1.0000   1.0000   1.0000
     1.0000   1.0000   1.0000   1.0000   1.0000   1.0000   1.0000   1.0000
     1.0000   1.0000   1.0000   1.0000   1.0000   1.0000   1.0000   1.0000
     1.0000   1.0000   1.0000   1.0000   1.0000   1.0000   1.0000   1.0000
     1.0000   1.0000   1.0000   1.0000   1.0000   1.0000   1.0000   1.0000
     1.0000   1.0000   1.0000   1.0000   1.0000   1.0000   1.0000   1.0000
     1.0000   1.0000   1.0000   1.0000   1.0000   1.0000   1.0000   1.0000
     1.0000   1.0000   1.0000   1.0000   0.9992   0.9901   0.5720   0.4735
     0.0285   0.0069   0.0040   0.0007   0.0004   0.0003   0.0001   0.0000
     0.0000   0.0000   0.0000   0.0000   0.0000   0.0000   0.0000   0.0000
     0.0000   0.0000   0.0000   0.0000   0.0000   0.0000   0.0000   0.0000
     0.0000   0.0000

          k = 0.2500-0.5200 0.0000 ( 35366 PWs)   bands (ev):

   -59.2592 -59.2557 -59.0124 -59.0074 -58.9502 -58.8615 -58.8566 -58.8094
   -58.7504 -58.7448 -58.6319 -58.6202 -29.0956 -29.0387 -28.9507 -28.9309
   -28.8131 -28.8100 -28.7730 -28.7521 -28.7229 -28.7104 -28.6848 -28.6661
   -28.6569 -28.6391 -28.6135 -28.5896 -28.5445 -28.5366 -28.5164 -28.4895
   -28.4544 -28.4246 -28.4098 -28.3906 -28.3806 -28.3408 -28.3234 -28.2886
   -28.2801 -28.2676 -28.2316 -28.1884 -28.1811 -28.1556 -28.1460 -28.1342
   -17.1581 -16.9063 -16.7313 -16.7125 -16.4840 -16.4224 -16.3498 -16.3046
   -16.1497 -16.0797 -16.0255 -15.7623 -15.7007 -15.5777 -15.4578 -15.4358
   -15.3477 -15.3150 -15.2155 -15.1834 -14.4724  -5.0797  -5.0399  -4.8462
    -4.6377  -4.6068  -4.5111  -4.3590  -4.3407  -4.2391  -4.2019  -4.1217
    -4.0571  -3.9626  -3.9049  -3.8076  -3.7673  -3.6695  -3.6002  -3.4592
    -3.3706  -3.3427  -3.0269  -2.9875  -2.9264  -2.8183  -2.7497  -2.6843
    -2.6398  -2.4900  -2.3991  -2.3709  -2.3179  -2.2940  -2.2282  -2.0830
    -1.9715  -1.9228  -1.8825  -1.7486  -1.6080  -1.5218  -1.4169  -1.4122
    -1.3356  -1.2544  -1.2039  -1.1167  -1.0506  -1.0132  -0.8868  -0.8638
    -0.7705  -0.6942  -0.6252  -0.5429  -0.5063  -0.4435  -0.2969  -0.2514
    -0.2306  -0.0974   0.0733   0.2327   3.6424   3.7176   4.0363   4.1441
     4.4740   4.4812   4.6566   4.9698   5.0071   5.0812   5.1394   5.2656
     5.3590   5.4258   5.5652   5.6680   5.7562   5.9604   6.0762   6.1522
     6.3264   6.4164   6.6105   6.6894   6.8404   6.9318   7.0035   7.1617
     7.2071   7.2499

     occupation numbers 
     1.0000   1.0000   1.0000   1.0000   1.0000   1.0000   1.0000   1.0000
     1.0000   1.0000   1.0000   1.0000   1.0000   1.0000   1.0000   1.0000
     1.0000   1.0000   1.0000   1.0000   1.0000   1.0000   1.0000   1.0000
     1.0000   1.0000   1.0000   1.0000   1.0000   1.0000   1.0000   1.0000
     1.0000   1.0000   1.0000   1.0000   1.0000   1.0000   1.0000   1.0000
     1.0000   1.0000   1.0000   1.0000   1.0000   1.0000   1.0000   1.0000
     1.0000   1.0000   1.0000   1.0000   1.0000   1.0000   1.0000   1.0000
     1.0000   1.0000   1.0000   1.0000   1.0000   1.0000   1.0000   1.0000
     1.0000   1.0000   1.0000   1.0000   1.0000   1.0000   1.0000   1.0000
     1.0000   1.0000   1.0000   1.0000   1.0000   1.0000   1.0000   1.0000
     1.0000   1.0000   1.0000   1.0000   1.0000   1.0000   1.0000   1.0000
     1.0000   1.0000   1.0000   1.0000   1.0000   1.0000   1.0000   1.0000
     1.0000   1.0000   1.0000   1.0000   1.0000   1.0000   1.0000   1.0000
     1.0000   1.0000   1.0000   1.0000   1.0000   1.0000   1.0000   1.0000
     1.0000   1.0000   1.0000   1.0000   1.0000   1.0000   1.0000   1.0000
     1.0000   1.0000   1.0000   1.0000   1.0000   1.0000   1.0000   1.0000
     1.0000   1.0000   1.0000   1.0000   0.9689   0.9471   0.6322   0.4377
     0.0645   0.0614   0.0177   0.0018   0.0014   0.0008   0.0005   0.0002
     0.0001   0.0001   0.0000   0.0000   0.0000   0.0000   0.0000   0.0000
     0.0000   0.0000   0.0000   0.0000   0.0000   0.0000   0.0000   0.0000
     0.0000   0.0000

          k = 0.2500-0.2600 0.0000 ( 35420 PWs)   bands (ev):

   -59.2611 -59.2539 -59.0142 -59.0057 -58.9503 -58.8633 -58.8549 -58.8094
   -58.7520 -58.7432 -58.6326 -58.6193 -29.0896 -29.0280 -28.9491 -28.8939
   -28.8321 -28.7951 -28.7670 -28.7480 -28.7162 -28.7095 -28.6960 -28.6706
   -28.6477 -28.6364 -28.6030 -28.5959 -28.5568 -28.5192 -28.5115 -28.4874
   -28.4568 -28.4446 -28.4182 -28.3893 -28.3621 -28.3487 -28.3375 -28.3144
   -28.2726 -28.2561 -28.2352 -28.2045 -28.1846 -28.1775 -28.1361 -28.1140
   -17.4039 -17.1144 -16.7986 -16.6842 -16.4502 -16.3780 -16.2866 -16.2301
   -16.0899 -16.0510 -15.9220 -15.7585 -15.6460 -15.5669 -15.4746 -15.4389
   -15.3799 -15.3282 -15.2127 -15.1678 -14.4339  -5.2083  -5.0550  -4.8182
    -4.7672  -4.7293  -4.6580  -4.5146  -4.4341  -4.3688  -4.3104  -4.2205
    -4.1328  -4.0192  -3.9733  -3.8836  -3.6499  -3.5347  -3.4129  -3.3727
    -3.3426  -3.2715  -3.2101  -3.1582  -3.0462  -2.9810  -2.8869  -2.7630
    -2.5706  -2.5117  -2.4108  -2.3401  -2.2005  -2.1546  -2.0798  -1.9686
    -1.9131  -1.8058  -1.7939  -1.6728  -1.6220  -1.5351  -1.4756  -1.4406
    -1.3101  -1.2718  -1.2148  -1.1298  -1.0373  -0.9994  -0.8468  -0.7487
    -0.6816  -0.6134  -0.4899  -0.4488  -0.4255  -0.3777  -0.3177  -0.1704
    -0.1378  -0.0253   0.0894   0.2212   3.3715   3.4842   4.0709   4.2938
     4.4738   4.5903   4.8607   5.1473   5.1888   5.2345   5.4437   5.5154
     5.6388   5.7726   5.8339   5.9045   5.9624   6.0047   6.1657   6.2020
     6.3233   6.4147   6.6075   6.7078   6.7441   6.8640   6.9998   7.0386
     7.1061   7.1977

     occupation numbers 
     1.0000   1.0000   1.0000   1.0000   1.0000   1.0000   1.0000   1.0000
     1.0000   1.0000   1.0000   1.0000   1.0000   1.0000   1.0000   1.0000
     1.0000   1.0000   1.0000   1.0000   1.0000   1.0000   1.0000   1.0000
     1.0000   1.0000   1.0000   1.0000   1.0000   1.0000   1.0000   1.0000
     1.0000   1.0000   1.0000   1.0000   1.0000   1.0000   1.0000   1.0000
     1.0000   1.0000   1.0000   1.0000   1.0000   1.0000   1.0000   1.0000
     1.0000   1.0000   1.0000   1.0000   1.0000   1.0000   1.0000   1.0000
     1.0000   1.0000   1.0000   1.0000   1.0000   1.0000   1.0000   1.0000
     1.0000   1.0000   1.0000   1.0000   1.0000   1.0000   1.0000   1.0000
     1.0000   1.0000   1.0000   1.0000   1.0000   1.0000   1.0000   1.0000
     1.0000   1.0000   1.0000   1.0000   1.0000   1.0000   1.0000   1.0000
     1.0000   1.0000   1.0000   1.0000   1.0000   1.0000   1.0000   1.0000
     1.0000   1.0000   1.0000   1.0000   1.0000   1.0000   1.0000   1.0000
     1.0000   1.0000   1.0000   1.0000   1.0000   1.0000   1.0000   1.0000
     1.0000   1.0000   1.0000   1.0000   1.0000   1.0000   1.0000   1.0000
     1.0000   1.0000   1.0000   1.0000   1.0000   1.0000   1.0000   1.0000
     1.0000   1.0000   1.0000   1.0000   0.9956   0.9900   0.5715   0.2058
     0.0645   0.0285   0.0040   0.0005   0.0004   0.0003   0.0001   0.0000
     0.0000   0.0000   0.0000   0.0000   0.0000   0.0000   0.0000   0.0000
     0.0000   0.0000   0.0000   0.0000   0.0000   0.0000   0.0000   0.0000
     0.0000   0.0000

          k =-0.5000 0.0000 0.0000 ( 35502 PWs)   bands (ev):

   -59.2575 -59.2574 -59.0106 -59.0093 -58.9503 -58.8593 -58.8589 -58.8095
   -58.7491 -58.7461 -58.6313 -58.6206 -29.0079 -29.0076 -28.8859 -28.8857
   -28.7974 -28.7971 -28.7368 -28.7364 -28.6969 -28.6968 -28.6755 -28.6716
   -28.6672 -28.6156 -28.6084 -28.6017 -28.5598 -28.5584 -28.5130 -28.5101
   -28.4599 -28.4504 -28.4325 -28.4215 -28.4026 -28.3726 -28.3414 -28.3204
   -28.3126 -28.2659 -28.2284 -28.2273 -28.2018 -28.1810 -28.1633 -28.1287
   -16.9769 -16.9758 -16.7194 -16.7098 -16.5361 -16.5101 -16.2916 -16.2703
   -16.0324 -16.0184 -15.8083 -15.8078 -15.6052 -15.6048 -15.4926 -15.4898
   -15.4495 -15.4051 -15.3512 -15.3162 -14.5439  -4.8671  -4.8663  -4.6093
    -4.6085  -4.4436  -4.4379  -4.3264  -4.3153  -4.2167  -4.2076  -4.0745
    -4.0299  -3.9062  -3.9019  -3.8131  -3.8115  -3.6940  -3.6765  -3.5731
    -3.5546  -3.4460  -3.4360  -3.3497  -3.3348  -3.1980  -3.1676  -2.7555
    -2.6955  -2.5656  -2.5160  -2.3955  -2.3557  -2.2040  -2.1837  -2.0808
    -1.9969  -1.8301  -1.7852  -1.6750  -1.6434  -1.5584  -1.3971  -1.3593
    -1.3042  -1.2600  -1.1774  -1.1060  -1.0719  -0.9273  -0.7954  -0.7336
    -0.7221  -0.6347  -0.5238  -0.4793  -0.4386  -0.4323  -0.3798  -0.2600
    -0.2339  -0.1403  -0.1223   0.1986   3.3805   3.9828   3.9835   4.0074
     4.6067   5.0108   5.0115   5.1495   5.1742   5.1752   5.3931   5.8276
     5.8294   5.8996   5.9021   6.0181   6.1103   6.1678   6.2510   6.3530
     6.4193   6.5722   6.6285   6.7295   6.7924   6.9685   6.9932   7.0399
     7.0642   7.0985

     occupation numbers 
     1.0000   1.0000   1.0000   1.0000   1.0000   1.0000   1.0000   1.0000
     1.0000   1.0000   1.0000   1.0000   1.0000   1.0000   1.0000   1.0000
     1.0000   1.0000   1.0000   1.0000   1.0000   1.0000   1.0000   1.0000
     1.0000   1.0000   1.0000   1.0000   1.0000   1.0000   1.0000   1.0000
     1.0000   1.0000   1.0000   1.0000   1.0000   1.0000   1.0000   1.0000
     1.0000   1.0000   1.0000   1.0000   1.0000   1.0000   1.0000   1.0000
     1.0000   1.0000   1.0000   1.0000   1.0000   1.0000   1.0000   1.0000
     1.0000   1.0000   1.0000   1.0000   1.0000   1.0000   1.0000   1.0000
     1.0000   1.0000   1.0000   1.0000   1.0000   1.0000   1.0000   1.0000
     1.0000   1.0000   1.0000   1.0000   1.0000   1.0000   1.0000   1.0000
     1.0000   1.0000   1.0000   1.0000   1.0000   1.0000   1.0000   1.0000
     1.0000   1.0000   1.0000   1.0000   1.0000   1.0000   1.0000   1.0000
     1.0000   1.0000   1.0000   1.0000   1.0000   1.0000   1.0000   1.0000
     1.0000   1.0000   1.0000   1.0000   1.0000   1.0000   1.0000   1.0000
     1.0000   1.0000   1.0000   1.0000   1.0000   1.0000   1.0000   1.0000
     1.0000   1.0000   1.0000   1.0000   1.0000   1.0000   1.0000   1.0000
     1.0000   1.0000   1.0000   1.0000   0.9953   0.7181   0.7171   0.6802
     0.0253   0.0013   0.0013   0.0005   0.0004   0.0004   0.0001   0.0000
     0.0000   0.0000   0.0000   0.0000   0.0000   0.0000   0.0000   0.0000
     0.0000   0.0000   0.0000   0.0000   0.0000   0.0000   0.0000   0.0000
     0.0000   0.0000

          k =-0.5000 0.2600 0.0000 ( 35450 PWs)   bands (ev):

   -59.2575 -59.2574 -59.0105 -59.0093 -58.9502 -58.8592 -58.8589 -58.8095
   -58.7491 -58.7461 -58.6314 -58.6206 -29.0634 -29.0631 -28.9378 -28.9377
   -28.8140 -28.8138 -28.7629 -28.7617 -28.7142 -28.6992 -28.6791 -28.6703
   -28.6552 -28.6384 -28.6092 -28.6042 -28.5449 -28.5388 -28.5209 -28.4993
   -28.4562 -28.4222 -28.4030 -28.3917 -28.3750 -28.3503 -28.3090 -28.2896
   -28.2810 -28.2657 -28.2333 -28.1955 -28.1819 -28.1558 -28.1526 -28.1294
   -16.9818 -16.9809 -16.7373 -16.7323 -16.6004 -16.5791 -16.3807 -16.3674
   -16.0893 -16.0792 -15.8382 -15.8373 -15.5821 -15.5784 -15.4543 -15.4367
   -15.3435 -15.3176 -15.2469 -15.2155 -14.4774  -4.9176  -4.9144  -4.6051
    -4.5961  -4.4043  -4.3875  -4.2904  -4.2860  -4.1494  -4.1397  -4.0149
    -3.9773  -3.8877  -3.8771  -3.7713  -3.7598  -3.6878  -3.6629  -3.5023
    -3.4810  -3.2723  -3.2602  -3.1904  -3.1676  -2.9502  -2.9340  -2.7332
    -2.7077  -2.5795  -2.5533  -2.3496  -2.2942  -2.2458  -2.2258  -2.0401
    -2.0206  -1.9852  -1.9146  -1.7632  -1.7022  -1.6233  -1.5814  -1.4312
    -1.3904  -1.2812  -1.2552  -1.1711  -1.0841  -1.0388  -0.9150  -0.8982
    -0.7337  -0.6442  -0.5984  -0.5265  -0.5169  -0.4206  -0.4020  -0.3038
    -0.2689  -0.1262  -0.0793   0.1387   3.5312   3.9011   3.9017   4.1066
     4.4529   4.7911   4.7919   4.9852   4.9868   5.2210   5.4718   5.5059
     5.5373   5.7201   5.7669   5.9086   5.9963   6.0761   6.1379   6.2248
     6.2618   6.3837   6.4885   6.5503   6.6991   6.7623   6.9166   6.9934
     7.0558   7.1344

     occupation numbers 
     1.0000   1.0000   1.0000   1.0000   1.0000   1.0000   1.0000   1.0000
     1.0000   1.0000   1.0000   1.0000   1.0000   1.0000   1.0000   1.0000
     1.0000   1.0000   1.0000   1.0000   1.0000   1.0000   1.0000   1.0000
     1.0000   1.0000   1.0000   1.0000   1.0000   1.0000   1.0000   1.0000
     1.0000   1.0000   1.0000   1.0000   1.0000   1.0000   1.0000   1.0000
     1.0000   1.0000   1.0000   1.0000   1.0000   1.0000   1.0000   1.0000
     1.0000   1.0000   1.0000   1.0000   1.0000   1.0000   1.0000   1.0000
     1.0000   1.0000   1.0000   1.0000   1.0000   1.0000   1.0000   1.0000
     1.0000   1.0000   1.0000   1.0000   1.0000   1.0000   1.0000   1.0000
     1.0000   1.0000   1.0000   1.0000   1.0000   1.0000   1.0000   1.0000
     1.0000   1.0000   1.0000   1.0000   1.0000   1.0000   1.0000   1.0000
     1.0000   1.0000   1.0000   1.0000   1.0000   1.0000   1.0000   1.0000
     1.0000   1.0000   1.0000   1.0000   1.0000   1.0000   1.0000   1.0000
     1.0000   1.0000   1.0000   1.0000   1.0000   1.0000   1.0000   1.0000
     1.0000   1.0000   1.0000   1.0000   1.0000   1.0000   1.0000   1.0000
     1.0000   1.0000   1.0000   1.0000   1.0000   1.0000   1.0000   1.0000
     1.0000   1.0000   1.0000   1.0000   0.9860   0.8229   0.8222   0.5064
     0.0745   0.0067   0.0066   0.0016   0.0016   0.0003   0.0000   0.0000
     0.0000   0.0000   0.0000   0.0000   0.0000   0.0000   0.0000   0.0000
     0.0000   0.0000   0.0000   0.0000   0.0000   0.0000   0.0000   0.0000
     0.0000   0.0000

          k =-0.5000-0.5200 0.0000 ( 35320 PWs)   bands (ev):

   -59.2575 -59.2574 -59.0105 -59.0093 -58.9502 -58.8592 -58.8589 -58.8094
   -58.7491 -58.7461 -58.6315 -58.6207 -29.1031 -29.1028 -28.9847 -28.9846
   -28.8513 -28.8506 -28.7714 -28.7660 -28.7251 -28.7132 -28.7049 -28.6864
   -28.6513 -28.6473 -28.5975 -28.5827 -28.5451 -28.5111 -28.5022 -28.4984
   -28.4445 -28.4158 -28.3816 -28.3577 -28.3542 -28.3465 -28.2783 -28.2740
   -28.2443 -28.2428 -28.2351 -28.1921 -28.1718 -28.1442 -28.1217 -28.1158
   -16.9919 -16.9912 -16.7556 -16.7544 -16.6438 -16.6295 -16.4592 -16.4576
   -16.1447 -16.1322 -15.8704 -15.8692 -15.5480 -15.5455 -15.3929 -15.3802
   -15.2442 -15.2366 -15.1860 -15.1477 -14.4167  -4.7882  -4.7849  -4.5462
    -4.5442  -4.4175  -4.4017  -4.2566  -4.2394  -4.1314  -4.1099  -4.0373
    -4.0331  -3.9236  -3.9003  -3.8654  -3.8584  -3.6781  -3.6275  -3.2838
    -3.2434  -3.0996  -3.0644  -3.0561  -2.9659  -2.8098  -2.8084  -2.7759
    -2.7498  -2.5991  -2.5889  -2.4260  -2.3958  -2.1600  -2.1099  -2.0219
    -1.9880  -1.9329  -1.9142  -1.8493  -1.8329  -1.7424  -1.6787  -1.4527
    -1.3369  -1.3084  -1.2601  -1.2189  -1.1638  -1.0584  -0.9668  -0.8681
    -0.7879  -0.7727  -0.7224  -0.6593  -0.5292  -0.5023  -0.4497  -0.4070
    -0.2743  -0.1911  -0.1611   0.0689   3.7773   3.7878   3.7890   3.9727
     4.4724   4.4727   4.6752   5.0639   5.0696   5.1475   5.2089   5.2190
     5.3880   5.4209   5.4870   5.7463   5.8313   5.9283   5.9425   6.0705
     6.1641   6.2569   6.4449   6.5294   6.6513   6.7989   6.8774   7.0497
     7.1070   7.2557

     occupation numbers 
     1.0000   1.0000   1.0000   1.0000   1.0000   1.0000   1.0000   1.0000
     1.0000   1.0000   1.0000   1.0000   1.0000   1.0000   1.0000   1.0000
     1.0000   1.0000   1.0000   1.0000   1.0000   1.0000   1.0000   1.0000
     1.0000   1.0000   1.0000   1.0000   1.0000   1.0000   1.0000   1.0000
     1.0000   1.0000   1.0000   1.0000   1.0000   1.0000   1.0000   1.0000
     1.0000   1.0000   1.0000   1.0000   1.0000   1.0000   1.0000   1.0000
     1.0000   1.0000   1.0000   1.0000   1.0000   1.0000   1.0000   1.0000
     1.0000   1.0000   1.0000   1.0000   1.0000   1.0000   1.0000   1.0000
     1.0000   1.0000   1.0000   1.0000   1.0000   1.0000   1.0000   1.0000
     1.0000   1.0000   1.0000   1.0000   1.0000   1.0000   1.0000   1.0000
     1.0000   1.0000   1.0000   1.0000   1.0000   1.0000   1.0000   1.0000
     1.0000   1.0000   1.0000   1.0000   1.0000   1.0000   1.0000   1.0000
     1.0000   1.0000   1.0000   1.0000   1.0000   1.0000   1.0000   1.0000
     1.0000   1.0000   1.0000   1.0000   1.0000   1.0000   1.0000   1.0000
     1.0000   1.0000   1.0000   1.0000   1.0000   1.0000   1.0000   1.0000
     1.0000   1.0000   1.0000   1.0000   1.0000   1.0000   1.0000   1.0000
     1.0000   1.0000   1.0000   1.0000   0.9202   0.9144   0.9137   0.7329
     0.0652   0.0651   0.0155   0.0009   0.0009   0.0005   0.0003   0.0003
     0.0001   0.0001   0.0000   0.0000   0.0000   0.0000   0.0000   0.0000
     0.0000   0.0000   0.0000   0.0000   0.0000   0.0000   0.0000   0.0000
     0.0000   0.0000

     the Fermi energy is     4.1101 ev

!    total energy              =   -1853.43629143 Ry
     estimated scf accuracy    <       0.00000005 Ry
     smearing contrib. (-TS)   =      -0.03685699 Ry
     internal energy E=F+TS    =   -1853.39943444 Ry

     The total energy is F=E-TS. E is the sum of the following terms:
     one-electron contribution =  -41344.78338794 Ry
     hartree contribution      =   20699.36171982 Ry
     xc contribution           =    -289.29590427 Ry
     ewald contribution        =   19081.31860978 Ry
     electric field correction =      -0.00047183 Ry

     convergence has been achieved in  11 iterations

     Forces acting on atoms (cartesian axes, Ry/au):

     atom    1 type  1   force =     0.01547342   -0.01583825    0.07290119
     atom    2 type  1   force =     0.00024345   -0.00180867    0.00895889
     atom    3 type  1   force =     0.00319875   -0.00378736    0.00617586
     atom    4 type  1   force =     0.01553504    0.01580346    0.07289410
     atom    5 type  1   force =     0.00059431    0.00165436    0.00892469
     atom    6 type  1   force =    -0.00061900    0.01148118    0.01644825
     atom    7 type  1   force =    -0.00385900    0.00867624    0.01198667
     atom    8 type  1   force =    -0.00023454    0.00091793    0.00780624
     atom    9 type  1   force =     0.03043889    0.07008316   -0.02429632
     atom   10 type  1   force =    -0.00361835   -0.00879141    0.01195407
     atom   11 type  1   force =     0.00011090   -0.00094221    0.00872428
     atom   12 type  1   force =    -0.07571388   -0.04200828   -0.01844193
     atom   13 type  2   force =    -0.01625489    0.02013394   -0.02464194
     atom   14 type  2   force =    -0.00066630    0.00124421   -0.00363557
     atom   15 type  2   force =     0.01318213   -0.01369038    0.00923098
     atom   16 type  2   force =    -0.01615066   -0.02009680   -0.02483789
     atom   17 type  2   force =    -0.00044327   -0.00109075   -0.00366869
     atom   18 type  2   force =     0.00764950    0.01349401   -0.00641935
     atom   19 type  2   force =     0.00395838   -0.00228894   -0.05988194
     atom   20 type  2   force =     0.00054192   -0.00001589   -0.00438987
     atom   21 type  2   force =    -0.00501149   -0.01473913    0.02522605
     atom   22 type  2   force =     0.00076232    0.00300008   -0.00168473
     atom   23 type  2   force =     0.00135440    0.00132700   -0.00391998
     atom   24 type  2   force =     0.00069759   -0.00296180   -0.00142543
     atom   25 type  2   force =     0.00043352   -0.00060822   -0.00383496
     atom   26 type  2   force =     0.01908243   -0.00379312   -0.02993814
     atom   27 type  2   force =     0.00396119    0.00226075   -0.05987048
     atom   28 type  2   force =    -0.00064714   -0.00007618   -0.00682050
     atom   29 type  2   force =     0.00052011    0.00000595   -0.00431985
     atom   30 type  2   force =    -0.00088385    0.00002247   -0.00115649
     atom   31 type  2   force =     0.00889396   -0.01872697    0.03061625
     atom   32 type  2   force =    -0.00064827    0.00024807   -0.00670067
     atom   33 type  2   force =    -0.00188158    0.00091155   -0.00196280
     The non-local contrib.  to forces
     atom    1 type  1   force =    -0.01954413    0.01743848   -0.07715647
     atom    2 type  1   force =    -0.03044302    0.06475124    0.03342177
     atom    3 type  1   force =    -0.03297996    0.06774785    0.04162099
     atom    4 type  1   force =    -0.01940227   -0.01736038   -0.07721156
     atom    5 type  1   force =    -0.03078545   -0.06478226    0.03340739
     atom    6 type  1   force =    -0.03137545   -0.07047739    0.03177414
     atom    7 type  1   force =     0.03186074   -0.07180965    0.01851143
     atom    8 type  1   force =     0.03038797   -0.06389555    0.03425807
     atom    9 type  1   force =     0.02668568   -0.12236059    0.17172163
     atom   10 type  1   force =     0.03195678    0.07180780    0.01853348
     atom   11 type  1   force =     0.03051522    0.06413906    0.03458116
     atom   12 type  1   force =     0.09526642   -0.00681514    0.19677651
     atom   13 type  2   force =    -0.08629319    0.07679554    0.03836078
     atom   14 type  2   force =    -0.05372862    0.04726241    0.03286796
     atom   15 type  2   force =    -0.03871292    0.02613844    0.03184456
     atom   16 type  2   force =    -0.08568032   -0.07629615    0.03792794
     atom   17 type  2   force =    -0.05298985   -0.04659195    0.03277386
     atom   18 type  2   force =    -0.04128757   -0.02057859    0.01901874
     atom   19 type  2   force =    -0.04579556   -0.15010195   -0.04187263
     atom   20 type  2   force =    -0.05229467   -0.14664066    0.00683790
     atom   21 type  2   force =    -0.06597750   -0.17293873    0.03845414
     atom   22 type  2   force =     0.05481059    0.04889511    0.03768933
     atom   23 type  2   force =     0.05444355    0.04724200    0.03217846
     atom   24 type  2   force =     0.05495160   -0.04917967    0.03762826
     atom   25 type  2   force =     0.05313084   -0.04648106    0.03143493
     atom   26 type  2   force =     0.14620565   -0.19720955   -0.37244836
     atom   27 type  2   force =    -0.04573144    0.15005566   -0.04187009
     atom   28 type  2   force =     0.05241733    0.14632710    0.00096827
     atom   29 type  2   force =    -0.05246761    0.14650767    0.00699503
     atom   30 type  2   force =     0.05263823    0.14665018    0.01151685
     atom   31 type  2   force =    -0.03579392    0.12632886    0.03319640
     atom   32 type  2   force =     0.05242554   -0.14651141    0.00108442
     atom   33 type  2   force =     0.04999769   -0.14500281    0.01078070
     The ionic contribution  to forces
     atom    1 type  1   force =    -1.52878951    1.02840404 -240.41018893
     atom    2 type  1   force =    -1.80745060   -2.70621987  -48.23177785
     atom    3 type  1   force =    -2.04375554   -2.58614110  146.49516128
     atom    4 type  1   force =    -1.52591271   -1.02735533 -240.41062647
     atom    5 type  1   force =    -1.80333436    2.70474826  -48.23063307
     atom    6 type  1   force =    -1.53561823    2.81028428  147.53434919
     atom    7 type  1   force =     1.80519195    2.50027091 -145.84962142
     atom    8 type  1   force =     1.77901811    2.71585579   49.34474830
     atom    9 type  1   force =    -3.45845184   -1.03733369  236.12152998
     atom   10 type  1   force =     1.81768559   -2.50024745 -145.84738296
     atom   11 type  1   force =     1.82859981   -2.71527426   49.35392946
     atom   12 type  1   force =     5.78490272   -1.13152994  236.44076451
     atom   13 type  2   force =     0.85452866    0.36071847 -108.74875901
     atom   14 type  2   force =     0.86496722    0.79734567  -12.08888106
     atom   15 type  2   force =     0.17117940    0.64691515   85.56529137
     atom   16 type  2   force =     0.85580295   -0.36221577 -108.73260362
     atom   17 type  2   force =     0.86801722   -0.79909142  -12.07198633
     atom   18 type  2   force =     1.46301091   -1.00158469   85.28347856
     atom   19 type  2   force =     0.37643205    2.31165841  -98.23773758
     atom   20 type  2   force =     0.36453096    2.42157459    0.00236609
     atom   21 type  2   force =     0.78019924    2.59267533   97.54832241
     atom   22 type  2   force =    -0.86356947    0.78164748  -60.82530376
     atom   23 type  2   force =    -0.86365253    0.79331722   36.74779191
     atom   24 type  2   force =    -0.86708107   -0.77987094  -60.82855648
     atom   25 type  2   force =    -0.86793485   -0.80500467   36.68278667
     atom   26 type  2   force =    -1.78241489    1.72663986  123.60078169
     atom   27 type  2   force =     0.37578431   -2.31348503  -98.23937692
     atom   28 type  2   force =    -0.36310482   -2.41323833  -48.81361575
     atom   29 type  2   force =     0.36116373   -2.42151674    0.00411582
     atom   30 type  2   force =    -0.39383601   -2.40109811   48.82068586
     atom   31 type  2   force =     0.04628505   -2.04201513   98.06095116
     atom   32 type  2   force =    -0.36232503    2.41551948  -48.81358594
     atom   33 type  2   force =    -0.33006842    2.43564754   48.77358290
     The local contribution  to forces
     atom    1 type  1   force =     1.56381097   -1.06170883  240.55960952
     atom    2 type  1   force =     1.83813826    2.63965919   48.20683159
     atom    3 type  1   force =     2.07991927    2.51461825 -146.53143156
     atom    4 type  1   force =     1.56085397    1.06054563  240.56009511
     atom    5 type  1   force =     1.83471514   -2.63831233   48.20566657
     atom    6 type  1   force =     1.56638977   -2.72834260 -147.55049977
     atom    7 type  1   force =    -1.84091002   -2.41978814  145.84237110
     atom    8 type  1   force =    -1.80964145   -2.65104629  -49.37182438
     atom    9 type  1   force =     3.46221395    1.22975515 -236.31816298
     atom   10 type  1   force =    -1.85325911    2.41964985  145.84007801
     atom   11 type  1   force =    -1.85900072    2.65019511  -49.38041378
     atom   12 type  1   force =    -5.95588978    1.09633781 -236.65658390
     atom   13 type  2   force =    -0.78448985   -0.41737776  108.68532990
     atom   14 type  2   force =    -0.81190191   -0.84336953   12.05210202
     atom   15 type  2   force =    -0.11928261   -0.68675079  -85.58836514
     atom   16 type  2   force =    -0.78627275    0.41841129  108.66941106
     atom   17 type  2   force =    -0.81546792    0.84459694   12.03526800
     atom   18 type  2   force =    -1.41407019    1.03566142  -85.30938246
     atom   19 type  2   force =    -0.32667790   -2.16384609   98.21928936
     atom   20 type  2   force =    -0.31169546   -2.27495217   -0.01387910
     atom   21 type  2   force =    -0.71924376   -2.43447383  -97.56196874
     atom   22 type  2   force =     0.80952225   -0.82754263   60.78553563
     atom   23 type  2   force =     0.81056979   -0.83923035  -36.78433106
     atom   24 type  2   force =     0.81282803    0.82608732   60.78910891
     atom   25 type  2   force =     0.81523828    0.85087529  -36.71849765
     atom   26 type  2   force =     1.65532593   -1.53324149 -123.25863293
     atom   27 type  2   force =    -0.32609154    2.16568944   98.22093769
     atom   28 type  2   force =     0.31004068    2.26683312   48.80547829
     atom   29 type  2   force =    -0.30817684    2.27501523   -0.01571428
     atom   30 type  2   force =     0.34031699    2.25447141  -48.83384034
     atom   31 type  2   force =    -0.00159252    1.89695645  -98.06397265
     atom   32 type  2   force =     0.30925170   -2.26875961   48.80545196
     atom   33 type  2   force =     0.27818711   -2.28973685  -48.78681294
     The core correction contribution to forces
     atom    1 type  1   force =     0.00000000    0.00000000    0.00000000
     atom    2 type  1   force =     0.00000000    0.00000000    0.00000000
     atom    3 type  1   force =     0.00000000    0.00000000    0.00000000
     atom    4 type  1   force =     0.00000000    0.00000000    0.00000000
     atom    5 type  1   force =     0.00000000    0.00000000    0.00000000
     atom    6 type  1   force =     0.00000000    0.00000000    0.00000000
     atom    7 type  1   force =     0.00000000    0.00000000    0.00000000
     atom    8 type  1   force =     0.00000000    0.00000000    0.00000000
     atom    9 type  1   force =     0.00000000    0.00000000    0.00000000
     atom   10 type  1   force =     0.00000000    0.00000000    0.00000000
     atom   11 type  1   force =     0.00000000    0.00000000    0.00000000
     atom   12 type  1   force =     0.00000000    0.00000000    0.00000000
     atom   13 type  2   force =     0.00000000    0.00000000    0.00000000
     atom   14 type  2   force =     0.00000000    0.00000000    0.00000000
     atom   15 type  2   force =     0.00000000    0.00000000    0.00000000
     atom   16 type  2   force =     0.00000000    0.00000000    0.00000000
     atom   17 type  2   force =     0.00000000    0.00000000    0.00000000
     atom   18 type  2   force =     0.00000000    0.00000000    0.00000000
     atom   19 type  2   force =     0.00000000    0.00000000    0.00000000
     atom   20 type  2   force =     0.00000000    0.00000000    0.00000000
     atom   21 type  2   force =     0.00000000    0.00000000    0.00000000
     atom   22 type  2   force =     0.00000000    0.00000000    0.00000000
     atom   23 type  2   force =     0.00000000    0.00000000    0.00000000
     atom   24 type  2   force =     0.00000000    0.00000000    0.00000000
     atom   25 type  2   force =     0.00000000    0.00000000    0.00000000
     atom   26 type  2   force =     0.00000000    0.00000000    0.00000000
     atom   27 type  2   force =     0.00000000    0.00000000    0.00000000
     atom   28 type  2   force =     0.00000000    0.00000000    0.00000000
     atom   29 type  2   force =     0.00000000    0.00000000    0.00000000
     atom   30 type  2   force =     0.00000000    0.00000000    0.00000000
     atom   31 type  2   force =     0.00000000    0.00000000    0.00000000
     atom   32 type  2   force =     0.00000000    0.00000000    0.00000000
     atom   33 type  2   force =     0.00000000    0.00000000    0.00000000
     The Hubbard contrib.    to forces
     atom    1 type  1   force =     0.00000000    0.00000000    0.00000000
     atom    2 type  1   force =     0.00000000    0.00000000    0.00000000
     atom    3 type  1   force =     0.00000000    0.00000000    0.00000000
     atom    4 type  1   force =     0.00000000    0.00000000    0.00000000
     atom    5 type  1   force =     0.00000000    0.00000000    0.00000000
     atom    6 type  1   force =     0.00000000    0.00000000    0.00000000
     atom    7 type  1   force =     0.00000000    0.00000000    0.00000000
     atom    8 type  1   force =     0.00000000    0.00000000    0.00000000
     atom    9 type  1   force =     0.00000000    0.00000000    0.00000000
     atom   10 type  1   force =     0.00000000    0.00000000    0.00000000
     atom   11 type  1   force =     0.00000000    0.00000000    0.00000000
     atom   12 type  1   force =     0.00000000    0.00000000    0.00000000
     atom   13 type  2   force =     0.00000000    0.00000000    0.00000000
     atom   14 type  2   force =     0.00000000    0.00000000    0.00000000
     atom   15 type  2   force =     0.00000000    0.00000000    0.00000000
     atom   16 type  2   force =     0.00000000    0.00000000    0.00000000
     atom   17 type  2   force =     0.00000000    0.00000000    0.00000000
     atom   18 type  2   force =     0.00000000    0.00000000    0.00000000
     atom   19 type  2   force =     0.00000000    0.00000000    0.00000000
     atom   20 type  2   force =     0.00000000    0.00000000    0.00000000
     atom   21 type  2   force =     0.00000000    0.00000000    0.00000000
     atom   22 type  2   force =     0.00000000    0.00000000    0.00000000
     atom   23 type  2   force =     0.00000000    0.00000000    0.00000000
     atom   24 type  2   force =     0.00000000    0.00000000    0.00000000
     atom   25 type  2   force =     0.00000000    0.00000000    0.00000000
     atom   26 type  2   force =     0.00000000    0.00000000    0.00000000
     atom   27 type  2   force =     0.00000000    0.00000000    0.00000000
     atom   28 type  2   force =     0.00000000    0.00000000    0.00000000
     atom   29 type  2   force =     0.00000000    0.00000000    0.00000000
     atom   30 type  2   force =     0.00000000    0.00000000    0.00000000
     atom   31 type  2   force =     0.00000000    0.00000000    0.00000000
     atom   32 type  2   force =     0.00000000    0.00000000    0.00000000
     atom   33 type  2   force =     0.00000000    0.00000000    0.00000000
     The SCF correction term to forces
     atom    1 type  1   force =     0.00000000    0.00000000    0.00000000
     atom    2 type  1   force =     0.00000000    0.00000000    0.00000000
     atom    3 type  1   force =     0.00000000    0.00000000    0.00000000
     atom    4 type  1   force =     0.00000000    0.00000000    0.00000000
     atom    5 type  1   force =     0.00000000    0.00000000    0.00000000
     atom    6 type  1   force =     0.00000000    0.00000000    0.00000000
     atom    7 type  1   force =     0.00000000    0.00000000    0.00000000
     atom    8 type  1   force =     0.00000000    0.00000000    0.00000000
     atom    9 type  1   force =     0.00000000    0.00000000    0.00000000
     atom   10 type  1   force =     0.00000000    0.00000000    0.00000000
     atom   11 type  1   force =     0.00000000    0.00000000    0.00000000
     atom   12 type  1   force =     0.00000000    0.00000000    0.00000000
     atom   13 type  2   force =     0.00000000    0.00000000    0.00000000
     atom   14 type  2   force =     0.00000000    0.00000000    0.00000000
     atom   15 type  2   force =     0.00000000    0.00000000    0.00000000
     atom   16 type  2   force =     0.00000000    0.00000000    0.00000000
     atom   17 type  2   force =     0.00000000    0.00000000    0.00000000
     atom   18 type  2   force =     0.00000000    0.00000000    0.00000000
     atom   19 type  2   force =     0.00000000    0.00000000    0.00000000
     atom   20 type  2   force =     0.00000000    0.00000000    0.00000000
     atom   21 type  2   force =     0.00000000    0.00000000    0.00000000
     atom   22 type  2   force =     0.00000000    0.00000000    0.00000000
     atom   23 type  2   force =     0.00000000    0.00000000    0.00000000
     atom   24 type  2   force =     0.00000000    0.00000000    0.00000000
     atom   25 type  2   force =     0.00000000    0.00000000    0.00000000
     atom   26 type  2   force =    -0.00003319    0.00001730    0.00013904
     atom   27 type  2   force =     0.00000000    0.00000000    0.00000000
     atom   28 type  2   force =     0.00000000    0.00000000    0.00000000
     atom   29 type  2   force =     0.00000000    0.00000000    0.00000000
     atom   30 type  2   force =     0.00000000    0.00000000    0.00000000
     atom   31 type  2   force =     0.00000000    0.00000000    0.00000000
     atom   32 type  2   force =     0.00000000    0.00000000    0.00000000
     atom   33 type  2   force =     0.00000000    0.00000000    0.00000000

     Total force =     0.035705     Total SCF correction =     0.000144
     Energy error            =      1.6E-03
     Gradient error          =      3.0E-02

     number of scf cycles    =   2
     number of bfgs steps    =   1

     energy   old            =   -1853.4346558523 Ry
     energy   new            =   -1853.4362914318 Ry

     CASE: energy  _new < energy  _old


     WARNING: bfgs curvature condition failed, Theta= 0.942
     new trust radius        =       0.0462370178 bohr
     new conv_thr            =       0.0000001000 Ry


ATOMIC_POSITIONS (angstrom)
Hf            4.0076390000        3.7813620000        6.1529890000    0   0   0
Hf            4.0076390000        3.7813620000       11.0753320000    0   0   0
Hf            4.0076390000        3.7813620000       15.9976750000    0   0   0
Hf            1.4522770000        1.1321830000        6.1529770000    0   0   0
Hf            1.4522770000        1.1321830000       11.0753200000    0   0   0
Hf            1.4522770000        1.1321830000       15.9976630000    0   0   0
Hf            3.6579980000        1.1322110000        8.6140330000    0   0   0
Hf            3.6579980000        1.1322110000       13.5363760000    0   0   0
Hf            3.6579980000        1.1322110000       18.4587190000    0   0   0
Hf            1.1027520000        3.7813090000        8.6141070000    0   0   0
Hf            1.1027520000        3.7813090000       13.5364490000    0   0   0
Hf            1.1027520000        3.7813090000       18.4587920000    0   0   0
O             3.1707970000        2.0862730000        6.8074440000    0   0   0
O             3.1707970000        2.0862730000       11.7297860000    0   0   0
O             3.1707970000        2.0862730000       16.6521290000    0   0   0
O             0.6152330000        2.8266930000        6.8083890000    0   0   0
O             0.6152330000        2.8266930000       11.7307320000    0   0   0
O             0.6152330000        2.8266930000       16.6530750000    0   0   0
O             5.0530890000        0.2074550000        7.3799440000    0   0   0
O             5.0530890000        0.2074550000       12.3022870000    0   0   0
O             5.0530890000        0.2074550000       17.2246300000    0   0   0
O             1.9399660000        2.0865810000        9.2696970000    0   0   0
O             1.9399660000        2.0865810000       14.1920390000    0   0   0
O             4.4952530000        2.8267400000        9.2692970000    0   0   0
O             4.4952530000        2.8267400000       14.1916400000    0   0   0
O             4.5203346121        2.8222547340       19.0748349039
O             2.4978700000       -0.2075440000        7.3798460000    0   0   0
O             2.6124080000       -0.2081150000        9.8410840000    0   0   0
O             2.4978700000       -0.2075440000       12.3021890000    0   0   0
O             2.6124080000       -0.2081150000       14.7634270000    0   0   0
O             2.4978700000       -0.2075440000       17.2245320000    0   0   0
O             5.1675430000        0.2075860000        9.8410300000    0   0   0
O             5.1675430000        0.2075860000       14.7633720000    0   0   0



     Writing output data file ./hfo2.save/
     NEW-OLD atomic charge density approx. for the potential

     negative rho (up, down):  2.666E-04 0.000E+00
 
     Adding external electric field

     Computed dipole along edir(3) : 
        Elec. dipole         -2.7550 Ry au,         -7.0024 Debye
        Ion. dipole          -2.7540 Ry au,         -6.9999 Debye
        Dipole                0.4645 Ry au,          1.1806 Debye
        Dipole field          0.0010 Ry au, 
 
        E field amplitude [Ha a.u.]:  1.0000E-03
        Potential amp.        0.0020 Ry
        Total length         62.8334 bohr
 

     total cpu time spent up to now is      195.6 secs

     Self-consistent Calculation

     iteration #  1     ecut=    50.00 Ry     beta= 0.30
     Davidson diagonalization with overlap
     ethr =  1.00E-06,  avg # of iterations =  4.0

     negative rho (up, down):  1.718E-04 0.000E+00
 
     Adding external electric field

     Computed dipole along edir(3) : 
        Elec. dipole         -2.7550 Ry au,         -7.0024 Debye
        Ion. dipole          -2.7540 Ry au,         -6.9999 Debye
        Dipole                0.4639 Ry au,          1.1792 Debye
        Dipole field          0.0010 Ry au, 
 
        E field amplitude [Ha a.u.]:  1.0000E-03
        Potential amp.        0.0021 Ry
        Total length         62.8334 bohr
 

     total cpu time spent up to now is      204.4 secs

     total energy              =   -1853.43782805 Ry
     estimated scf accuracy    <       0.00252902 Ry

     iteration #  2     ecut=    50.00 Ry     beta= 0.30
     Davidson diagonalization with overlap
     ethr =  9.37E-07,  avg # of iterations =  1.0

     negative rho (up, down):  1.037E-04 0.000E+00
 
     Adding external electric field

     Computed dipole along edir(3) : 
        Elec. dipole         -2.7550 Ry au,         -7.0024 Debye
        Ion. dipole          -2.7540 Ry au,         -6.9999 Debye
        Dipole                0.4636 Ry au,          1.1783 Debye
        Dipole field          0.0010 Ry au, 
 
        E field amplitude [Ha a.u.]:  1.0000E-03
        Potential amp.        0.0022 Ry
        Total length         62.8334 bohr
 

     total cpu time spent up to now is      217.3 secs

     total energy              =   -1853.43779847 Ry
     estimated scf accuracy    <       0.00045659 Ry

     iteration #  3     ecut=    50.00 Ry     beta= 0.30
     Davidson diagonalization with overlap
     ethr =  1.69E-07,  avg # of iterations =  1.9

     negative rho (up, down):  5.218E-05 0.000E+00
 
     Adding external electric field

     Computed dipole along edir(3) : 
        Elec. dipole         -2.7550 Ry au,         -7.0024 Debye
        Ion. dipole          -2.7540 Ry au,         -6.9999 Debye
        Dipole                0.4634 Ry au,          1.1779 Debye
        Dipole field          0.0010 Ry au, 
 
        E field amplitude [Ha a.u.]:  1.0000E-03
        Potential amp.        0.0023 Ry
        Total length         62.8334 bohr
 

     total cpu time spent up to now is      221.1 secs

     total energy              =   -1853.43776892 Ry
     estimated scf accuracy    <       0.00008520 Ry

     iteration #  4     ecut=    50.00 Ry     beta= 0.30
     Davidson diagonalization with overlap
     ethr =  3.16E-08,  avg # of iterations =  5.1

     negative rho (up, down):  2.468E-05 0.000E+00
 
     Adding external electric field

     Computed dipole along edir(3) : 
        Elec. dipole         -2.7550 Ry au,         -7.0024 Debye
        Ion. dipole          -2.7540 Ry au,         -6.9999 Debye
        Dipole                0.4636 Ry au,          1.1784 Debye
        Dipole field          0.0010 Ry au, 
 
        E field amplitude [Ha a.u.]:  1.0000E-03
        Potential amp.        0.0022 Ry
        Total length         62.8334 bohr
 

     total cpu time spent up to now is      224.4 secs

     total energy              =   -1853.43777938 Ry
     estimated scf accuracy    <       0.00000901 Ry

     iteration #  5     ecut=    50.00 Ry     beta= 0.30
     Davidson diagonalization with overlap
     ethr =  3.34E-09,  avg # of iterations =  2.7

     negative rho (up, down):  1.068E-05 0.000E+00
 
     Adding external electric field

     Computed dipole along edir(3) : 
        Elec. dipole         -2.7550 Ry au,         -7.0024 Debye
        Ion. dipole          -2.7540 Ry au,         -6.9999 Debye
        Dipole                0.4638 Ry au,          1.1788 Debye
        Dipole field          0.0010 Ry au, 
 
        E field amplitude [Ha a.u.]:  1.0000E-03
        Potential amp.        0.0022 Ry
        Total length         62.8334 bohr
 

     total cpu time spent up to now is      227.3 secs

     total energy              =   -1853.43777961 Ry
     estimated scf accuracy    <       0.00000375 Ry

     iteration #  6     ecut=    50.00 Ry     beta= 0.30
     Davidson diagonalization with overlap
     ethr =  1.39E-09,  avg # of iterations =  3.0

     negative rho (up, down):  5.247E-06 0.000E+00
 
     Adding external electric field

     Computed dipole along edir(3) : 
        Elec. dipole         -2.7550 Ry au,         -7.0024 Debye
        Ion. dipole          -2.7540 Ry au,         -6.9999 Debye
        Dipole                0.4644 Ry au,          1.1804 Debye
        Dipole field          0.0010 Ry au, 
 
        E field amplitude [Ha a.u.]:  1.0000E-03
        Potential amp.        0.0020 Ry
        Total length         62.8334 bohr
 

     total cpu time spent up to now is      230.2 secs

     total energy              =   -1853.43777939 Ry
     estimated scf accuracy    <       0.00000409 Ry

     iteration #  7     ecut=    50.00 Ry     beta= 0.30
     Davidson diagonalization with overlap
     ethr =  1.39E-09,  avg # of iterations =  2.3

     negative rho (up, down):  2.078E-06 0.000E+00
 
     Adding external electric field

     Computed dipole along edir(3) : 
        Elec. dipole         -2.7550 Ry au,         -7.0024 Debye
        Ion. dipole          -2.7540 Ry au,         -6.9999 Debye
        Dipole                0.4646 Ry au,          1.1808 Debye
        Dipole field          0.0010 Ry au, 
 
        E field amplitude [Ha a.u.]:  1.0000E-03
        Potential amp.        0.0020 Ry
        Total length         62.8334 bohr
 

     total cpu time spent up to now is      233.1 secs

     total energy              =   -1853.43777950 Ry
     estimated scf accuracy    <       0.00000123 Ry

     iteration #  8     ecut=    50.00 Ry     beta= 0.30
     Davidson diagonalization with overlap
     ethr =  4.55E-10,  avg # of iterations =  4.1

     negative rho (up, down):  4.882E-06 0.000E+00
 
     Adding external electric field

     Computed dipole along edir(3) : 
        Elec. dipole         -2.7550 Ry au,         -7.0024 Debye
        Ion. dipole          -2.7540 Ry au,         -6.9999 Debye
        Dipole                0.4652 Ry au,          1.1823 Debye
        Dipole field          0.0010 Ry au, 
 
        E field amplitude [Ha a.u.]:  1.0000E-03
        Potential amp.        0.0018 Ry
        Total length         62.8334 bohr
 

     total cpu time spent up to now is      236.6 secs

     total energy              =   -1853.43777952 Ry
     estimated scf accuracy    <       0.00000083 Ry

     iteration #  9     ecut=    50.00 Ry     beta= 0.30
     Davidson diagonalization with overlap
     ethr =  3.07E-10,  avg # of iterations =  2.6

     negative rho (up, down):  2.838E-06 0.000E+00
 
     Adding external electric field

     Computed dipole along edir(3) : 
        Elec. dipole         -2.7550 Ry au,         -7.0024 Debye
        Ion. dipole          -2.7540 Ry au,         -6.9999 Debye
        Dipole                0.4652 Ry au,          1.1824 Debye
        Dipole field          0.0010 Ry au, 
 
        E field amplitude [Ha a.u.]:  1.0000E-03
        Potential amp.        0.0018 Ry
        Total length         62.8334 bohr
 

     total cpu time spent up to now is      240.4 secs

     total energy              =   -1853.43777957 Ry
     estimated scf accuracy    <       0.00000015 Ry

     iteration # 10     ecut=    50.00 Ry     beta= 0.30
     Davidson diagonalization with overlap
     ethr =  5.46E-11,  avg # of iterations =  4.1
 
     Adding external electric field

     Computed dipole along edir(3) : 
        Elec. dipole         -2.7550 Ry au,         -7.0024 Debye
        Ion. dipole          -2.7540 Ry au,         -6.9999 Debye
        Dipole                0.4657 Ry au,          1.1838 Debye
        Dipole field          0.0010 Ry au, 
 
        E field amplitude [Ha a.u.]:  1.0000E-03
        Potential amp.        0.0017 Ry
        Total length         62.8334 bohr
 

     total cpu time spent up to now is      242.5 secs

     End of self-consistent calculation

          k = 0.0000 0.0000 0.0000 ( 35385 PWs)   bands (ev):

   -59.2616 -59.2483 -59.0135 -58.9981 -58.9235 -58.8609 -58.8455 -58.8107
   -58.7473 -58.7319 -58.6250 -58.6066 -29.1096 -29.0507 -28.9678 -28.8889
   -28.8448 -28.7846 -28.7791 -28.7590 -28.7194 -28.6976 -28.6659 -28.6566
   -28.6439 -28.6214 -28.5883 -28.5510 -28.5462 -28.5402 -28.4849 -28.4541
   -28.4473 -28.4160 -28.3992 -28.3893 -28.3468 -28.3432 -28.3257 -28.3038
   -28.2706 -28.2430 -28.2265 -28.1908 -28.1709 -28.1472 -28.1177 -28.0948
   -17.8549 -17.4568 -16.9458 -16.6649 -16.4136 -16.3761 -16.2438 -16.1587
   -16.0735 -16.0594 -15.9121 -15.7365 -15.5647 -15.4157 -15.4122 -15.2905
   -15.2745 -15.1639 -15.1212 -15.0612 -14.4731  -5.4710  -5.4447  -5.2847
    -5.2372  -5.0909  -5.0087  -4.6850  -4.6428  -4.4650  -4.4154  -4.2928
    -4.2482  -4.1537  -3.9300  -3.8321  -3.6608  -3.6340  -3.4628  -3.4149
    -3.3573  -3.1581  -3.0987  -2.8620  -2.8302  -2.7980  -2.6839  -2.6137
    -2.5196  -2.4589  -2.3076  -2.1536  -2.1401  -2.0006  -1.9968  -1.9636
    -1.8783  -1.7736  -1.7470  -1.7319  -1.6929  -1.6404  -1.6037  -1.2811
    -1.2404  -1.2059  -1.0590  -0.9047  -0.8949  -0.8340  -0.7281  -0.6561
    -0.6093  -0.5217  -0.3668  -0.2211  -0.1990  -0.1246   0.0463   0.0934
     0.2121   0.2326   0.3366   0.4431   2.6929   2.9283   4.1304   4.3611
     4.4212   4.8071   5.0248   5.0475   5.2895   5.4655   5.5461   5.8208
     5.9250   5.9926   6.0237   6.1750   6.2306   6.2728   6.3885   6.4526
     6.4611   6.6005   6.6382   6.6920   6.8335   6.8730   6.9714   6.9931
     7.0267   7.1724

     occupation numbers 
     1.0000   1.0000   1.0000   1.0000   1.0000   1.0000   1.0000   1.0000
     1.0000   1.0000   1.0000   1.0000   1.0000   1.0000   1.0000   1.0000
     1.0000   1.0000   1.0000   1.0000   1.0000   1.0000   1.0000   1.0000
     1.0000   1.0000   1.0000   1.0000   1.0000   1.0000   1.0000   1.0000
     1.0000   1.0000   1.0000   1.0000   1.0000   1.0000   1.0000   1.0000
     1.0000   1.0000   1.0000   1.0000   1.0000   1.0000   1.0000   1.0000
     1.0000   1.0000   1.0000   1.0000   1.0000   1.0000   1.0000   1.0000
     1.0000   1.0000   1.0000   1.0000   1.0000   1.0000   1.0000   1.0000
     1.0000   1.0000   1.0000   1.0000   1.0000   1.0000   1.0000   1.0000
     1.0000   1.0000   1.0000   1.0000   1.0000   1.0000   1.0000   1.0000
     1.0000   1.0000   1.0000   1.0000   1.0000   1.0000   1.0000   1.0000
     1.0000   1.0000   1.0000   1.0000   1.0000   1.0000   1.0000   1.0000
     1.0000   1.0000   1.0000   1.0000   1.0000   1.0000   1.0000   1.0000
     1.0000   1.0000   1.0000   1.0000   1.0000   1.0000   1.0000   1.0000
     1.0000   1.0000   1.0000   1.0000   1.0000   1.0000   1.0000   1.0000
     1.0000   1.0000   1.0000   1.0000   1.0000   1.0000   1.0000   1.0000
     1.0000   1.0000   1.0000   1.0000   1.0000   0.9998   0.4675   0.1387
     0.0939   0.0060   0.0012   0.0010   0.0002   0.0000   0.0000   0.0000
     0.0000   0.0000   0.0000   0.0000   0.0000   0.0000   0.0000   0.0000
     0.0000   0.0000   0.0000   0.0000   0.0000   0.0000   0.0000   0.0000
     0.0000   0.0000

          k = 0.0000 0.2600 0.0000 ( 35369 PWs)   bands (ev):

   -59.2600 -59.2499 -59.0118 -58.9998 -58.9233 -58.8591 -58.8472 -58.8108
   -58.7456 -58.7336 -58.6239 -58.6078 -29.0930 -28.9991 -28.9420 -28.8819
   -28.8174 -28.7968 -28.7607 -28.7360 -28.7057 -28.6998 -28.6776 -28.6675
   -28.6516 -28.6124 -28.5850 -28.5672 -28.5395 -28.5326 -28.5199 -28.4709
   -28.4455 -28.4307 -28.4234 -28.3991 -28.3809 -28.3371 -28.3124 -28.2939
   -28.2906 -28.2689 -28.2394 -28.2008 -28.1754 -28.1513 -28.1300 -28.1192
   -17.5918 -17.2460 -16.8315 -16.6037 -16.3907 -16.3051 -16.1727 -16.1146
   -16.0592 -16.0211 -15.9644 -15.7657 -15.6254 -15.5766 -15.4831 -15.4379
   -15.3779 -15.2618 -15.1824 -15.1442 -14.5198  -5.4152  -5.2859  -5.1069
    -4.9836  -4.9525  -4.7328  -4.6180  -4.5744  -4.5322  -4.3929  -4.3249
    -4.2108  -3.9649  -3.8993  -3.7238  -3.6713  -3.5884  -3.5067  -3.4068
    -3.3453  -3.2868  -3.2528  -3.0501  -2.9537  -2.8406  -2.7298  -2.6642
    -2.5560  -2.4429  -2.3646  -2.3065  -2.2209  -2.1852  -2.0672  -2.0126
    -1.9212  -1.8239  -1.6843  -1.5749  -1.5056  -1.4590  -1.3617  -1.2341
    -1.2214  -1.1334  -0.9860  -0.9107  -0.8787  -0.8285  -0.7750  -0.7501
    -0.6806  -0.5971  -0.4847  -0.4208  -0.3012  -0.2778  -0.2365  -0.2012
     0.0652   0.1923   0.2815   0.3948   3.0552   3.2919   4.2207   4.2320
     4.3717   4.8468   4.9043   5.1326   5.1915   5.2319   5.3311   5.4274
     5.6519   5.7050   5.8361   5.8612   5.9561   6.1056   6.1360   6.3455
     6.5331   6.5649   6.6708   6.7286   6.9087   6.9765   7.0470   7.1490
     7.2140   7.2729

     occupation numbers 
     1.0000   1.0000   1.0000   1.0000   1.0000   1.0000   1.0000   1.0000
     1.0000   1.0000   1.0000   1.0000   1.0000   1.0000   1.0000   1.0000
     1.0000   1.0000   1.0000   1.0000   1.0000   1.0000   1.0000   1.0000
     1.0000   1.0000   1.0000   1.0000   1.0000   1.0000   1.0000   1.0000
     1.0000   1.0000   1.0000   1.0000   1.0000   1.0000   1.0000   1.0000
     1.0000   1.0000   1.0000   1.0000   1.0000   1.0000   1.0000   1.0000
     1.0000   1.0000   1.0000   1.0000   1.0000   1.0000   1.0000   1.0000
     1.0000   1.0000   1.0000   1.0000   1.0000   1.0000   1.0000   1.0000
     1.0000   1.0000   1.0000   1.0000   1.0000   1.0000   1.0000   1.0000
     1.0000   1.0000   1.0000   1.0000   1.0000   1.0000   1.0000   1.0000
     1.0000   1.0000   1.0000   1.0000   1.0000   1.0000   1.0000   1.0000
     1.0000   1.0000   1.0000   1.0000   1.0000   1.0000   1.0000   1.0000
     1.0000   1.0000   1.0000   1.0000   1.0000   1.0000   1.0000   1.0000
     1.0000   1.0000   1.0000   1.0000   1.0000   1.0000   1.0000   1.0000
     1.0000   1.0000   1.0000   1.0000   1.0000   1.0000   1.0000   1.0000
     1.0000   1.0000   1.0000   1.0000   1.0000   1.0000   1.0000   1.0000
     1.0000   1.0000   1.0000   1.0000   0.9996   0.9976   0.3114   0.2938
     0.1297   0.0045   0.0030   0.0006   0.0004   0.0003   0.0001   0.0001
     0.0000   0.0000   0.0000   0.0000   0.0000   0.0000   0.0000   0.0000
     0.0000   0.0000   0.0000   0.0000   0.0000   0.0000   0.0000   0.0000
     0.0000   0.0000

          k = 0.0000-0.5200 0.0000 ( 35392 PWs)   bands (ev):

   -59.2574 -59.2524 -59.0093 -59.0022 -58.9231 -58.8566 -58.8497 -58.8109
   -58.7433 -58.7359 -58.6227 -58.6093 -29.0740 -28.9296 -28.8935 -28.8923
   -28.7946 -28.7895 -28.7686 -28.7393 -28.7066 -28.6899 -28.6843 -28.6502
   -28.6381 -28.6212 -28.5991 -28.5704 -28.5547 -28.5367 -28.5058 -28.4843
   -28.4812 -28.4408 -28.4390 -28.4022 -28.3849 -28.3674 -28.3419 -28.3169
   -28.2952 -28.2795 -28.2141 -28.2012 -28.1867 -28.1694 -28.1511 -28.1286
   -17.2128 -16.9354 -16.6813 -16.5399 -16.3621 -16.2295 -16.1912 -16.0951
   -16.0774 -16.0332 -15.9797 -15.9688 -15.8187 -15.6587 -15.6346 -15.4664
   -15.4387 -15.3255 -15.2369 -15.2231 -14.5642  -5.2123  -5.1473  -5.0140
    -4.8205  -4.6549  -4.5752  -4.4790  -4.4704  -4.3084  -4.2606  -4.2484
    -4.1774  -4.0805  -3.9728  -3.9019  -3.8507  -3.7828  -3.6076  -3.5700
    -3.2913  -3.2455  -3.1606  -3.1040  -2.8978  -2.8773  -2.7821  -2.6617
    -2.6197  -2.4413  -2.3766  -2.3037  -2.2415  -2.0707  -2.0281  -1.9558
    -1.8574  -1.6631  -1.6158  -1.5509  -1.4719  -1.4653  -1.3485  -1.3130
    -1.2735  -1.1998  -1.1858  -1.1291  -1.0539  -0.9715  -0.9032  -0.8474
    -0.7717  -0.6132  -0.5795  -0.5657  -0.4355  -0.3148  -0.2411  -0.2215
     0.0219   0.1351   0.2785   0.3580   3.6163   3.7921   4.0870   4.1311
     4.3607   4.5216   4.5705   5.0025   5.0832   5.2238   5.2381   5.2655
     5.4445   5.4949   5.5571   5.6649   5.7155   5.9640   6.1435   6.2867
     6.3876   6.4475   6.5700   6.7403   6.9776   7.0945   7.1079   7.1752
     7.2526   7.2572

     occupation numbers 
     1.0000   1.0000   1.0000   1.0000   1.0000   1.0000   1.0000   1.0000
     1.0000   1.0000   1.0000   1.0000   1.0000   1.0000   1.0000   1.0000
     1.0000   1.0000   1.0000   1.0000   1.0000   1.0000   1.0000   1.0000
     1.0000   1.0000   1.0000   1.0000   1.0000   1.0000   1.0000   1.0000
     1.0000   1.0000   1.0000   1.0000   1.0000   1.0000   1.0000   1.0000
     1.0000   1.0000   1.0000   1.0000   1.0000   1.0000   1.0000   1.0000
     1.0000   1.0000   1.0000   1.0000   1.0000   1.0000   1.0000   1.0000
     1.0000   1.0000   1.0000   1.0000   1.0000   1.0000   1.0000   1.0000
     1.0000   1.0000   1.0000   1.0000   1.0000   1.0000   1.0000   1.0000
     1.0000   1.0000   1.0000   1.0000   1.0000   1.0000   1.0000   1.0000
     1.0000   1.0000   1.0000   1.0000   1.0000   1.0000   1.0000   1.0000
     1.0000   1.0000   1.0000   1.0000   1.0000   1.0000   1.0000   1.0000
     1.0000   1.0000   1.0000   1.0000   1.0000   1.0000   1.0000   1.0000
     1.0000   1.0000   1.0000   1.0000   1.0000   1.0000   1.0000   1.0000
     1.0000   1.0000   1.0000   1.0000   1.0000   1.0000   1.0000   1.0000
     1.0000   1.0000   1.0000   1.0000   1.0000   1.0000   1.0000   1.0000
     1.0000   1.0000   1.0000   1.0000   0.9746   0.9134   0.5471   0.4663
     0.1391   0.0472   0.0334   0.0014   0.0008   0.0003   0.0003   0.0002
     0.0001   0.0000   0.0000   0.0000   0.0000   0.0000   0.0000   0.0000
     0.0000   0.0000   0.0000   0.0000   0.0000   0.0000   0.0000   0.0000
     0.0000   0.0000

          k = 0.2500 0.0000 0.0000 ( 35470 PWs)   bands (ev):

   -59.2597 -59.2502 -59.0113 -59.0003 -58.9233 -58.8586 -58.8477 -58.8108
   -58.7452 -58.7341 -58.6236 -58.6081 -29.0722 -29.0179 -28.9363 -28.8764
   -28.8068 -28.7970 -28.7744 -28.7394 -28.7004 -28.6771 -28.6696 -28.6620
   -28.6454 -28.6360 -28.5959 -28.5707 -28.5566 -28.5400 -28.5042 -28.4512
   -28.4402 -28.4364 -28.4285 -28.4062 -28.3665 -28.3407 -28.3243 -28.3001
   -28.2897 -28.2592 -28.2422 -28.2021 -28.1732 -28.1493 -28.1381 -28.1174
   -17.5825 -17.2337 -16.8122 -16.6653 -16.3803 -16.3614 -16.2564 -16.1791
   -16.0455 -16.0361 -15.8608 -15.7956 -15.5770 -15.5581 -15.4419 -15.4203
   -15.3501 -15.2957 -15.2027 -15.1608 -14.5237  -5.2245  -5.1017  -4.9632
    -4.9150  -4.8162  -4.6907  -4.5937  -4.5558  -4.3802  -4.3217  -4.2107
    -4.1200  -4.0486  -4.0244  -3.9439  -3.8264  -3.7571  -3.5573  -3.4063
    -3.3619  -3.2725  -3.2314  -3.0636  -3.0373  -2.8583  -2.7927  -2.5850
    -2.5403  -2.4042  -2.3420  -2.3076  -2.2328  -2.1601  -2.0359  -1.9295
    -1.8908  -1.7956  -1.7502  -1.6477  -1.6038  -1.5701  -1.5429  -1.4054
    -1.3738  -1.2735  -1.1808  -1.1122  -0.9990  -0.8882  -0.8031  -0.6720
    -0.5853  -0.5418  -0.4365  -0.4109  -0.3374  -0.2171  -0.1770  -0.0786
    -0.0469   0.0447   0.0840   0.2742   2.9635   3.2680   4.1445   4.3266
     4.6290   4.8561   4.9124   5.1477   5.1702   5.5201   5.5689   5.6974
     5.8508   5.9052   6.0296   6.1032   6.1887   6.2778   6.3575   6.4294
     6.5091   6.6047   6.6285   6.6920   6.7531   6.8561   6.8916   7.0280
     7.1132   7.2190

     occupation numbers 
     1.0000   1.0000   1.0000   1.0000   1.0000   1.0000   1.0000   1.0000
     1.0000   1.0000   1.0000   1.0000   1.0000   1.0000   1.0000   1.0000
     1.0000   1.0000   1.0000   1.0000   1.0000   1.0000   1.0000   1.0000
     1.0000   1.0000   1.0000   1.0000   1.0000   1.0000   1.0000   1.0000
     1.0000   1.0000   1.0000   1.0000   1.0000   1.0000   1.0000   1.0000
     1.0000   1.0000   1.0000   1.0000   1.0000   1.0000   1.0000   1.0000
     1.0000   1.0000   1.0000   1.0000   1.0000   1.0000   1.0000   1.0000
     1.0000   1.0000   1.0000   1.0000   1.0000   1.0000   1.0000   1.0000
     1.0000   1.0000   1.0000   1.0000   1.0000   1.0000   1.0000   1.0000
     1.0000   1.0000   1.0000   1.0000   1.0000   1.0000   1.0000   1.0000
     1.0000   1.0000   1.0000   1.0000   1.0000   1.0000   1.0000   1.0000
     1.0000   1.0000   1.0000   1.0000   1.0000   1.0000   1.0000   1.0000
     1.0000   1.0000   1.0000   1.0000   1.0000   1.0000   1.0000   1.0000
     1.0000   1.0000   1.0000   1.0000   1.0000   1.0000   1.0000   1.0000
     1.0000   1.0000   1.0000   1.0000   1.0000   1.0000   1.0000   1.0000
     1.0000   1.0000   1.0000   1.0000   1.0000   1.0000   1.0000   1.0000
     1.0000   1.0000   1.0000   1.0000   0.9998   0.9980   0.4418   0.1719
     0.0220   0.0042   0.0028   0.0005   0.0004   0.0000   0.0000   0.0000
     0.0000   0.0000   0.0000   0.0000   0.0000   0.0000   0.0000   0.0000
     0.0000   0.0000   0.0000   0.0000   0.0000   0.0000   0.0000   0.0000
     0.0000   0.0000

          k = 0.2500 0.2600 0.0000 ( 35420 PWs)   bands (ev):

   -59.2585 -59.2513 -59.0100 -59.0015 -58.9232 -58.8573 -58.8489 -58.8109
   -58.7440 -58.7352 -58.6230 -58.6089 -29.0863 -29.0248 -28.9449 -28.8893
   -28.8274 -28.7905 -28.7619 -28.7416 -28.7129 -28.7013 -28.6754 -28.6494
   -28.6432 -28.6300 -28.5977 -28.5677 -28.5502 -28.5135 -28.4935 -28.4809
   -28.4681 -28.4412 -28.4133 -28.3949 -28.3539 -28.3485 -28.3257 -28.2989
   -28.2835 -28.2513 -28.2266 -28.1928 -28.1870 -28.1609 -28.1364 -28.1044
   -17.3985 -17.0959 -16.7727 -16.6801 -16.4350 -16.3675 -16.2700 -16.2054
   -16.0573 -16.0330 -15.9184 -15.7538 -15.6414 -15.5630 -15.4978 -15.4369
   -15.4011 -15.3099 -15.1834 -15.1275 -14.5688  -5.2037  -5.0511  -4.8203
    -4.7624  -4.7100  -4.6426  -4.5195  -4.4322  -4.3473  -4.3076  -4.2142
    -4.1069  -4.0211  -3.9705  -3.8758  -3.6536  -3.5408  -3.4246  -3.3669
    -3.3333  -3.2743  -3.2119  -3.1459  -3.0338  -2.9945  -2.9008  -2.7587
    -2.5530  -2.4554  -2.3935  -2.3200  -2.2304  -2.1734  -2.1007  -1.9182
    -1.8335  -1.7927  -1.7538  -1.6408  -1.5862  -1.5160  -1.4456  -1.4149
    -1.3330  -1.2657  -1.1718  -1.0813  -1.0214  -0.9751  -0.9377  -0.7913
    -0.6808  -0.6562  -0.5570  -0.4720  -0.4528  -0.3788  -0.2616  -0.1853
    -0.1364  -0.0295   0.0843   0.2645   3.1459   3.4865   4.0733   4.1267
     4.5930   4.7874   4.8649   5.0852   5.1627   5.2058   5.3503   5.4665
     5.5693   5.7475   5.8208   5.8861   5.9966   6.0584   6.0982   6.3464
     6.4192   6.5922   6.6253   6.7201   6.7404   6.8900   6.9780   7.1051
     7.1894   7.2310

     occupation numbers 
     1.0000   1.0000   1.0000   1.0000   1.0000   1.0000   1.0000   1.0000
     1.0000   1.0000   1.0000   1.0000   1.0000   1.0000   1.0000   1.0000
     1.0000   1.0000   1.0000   1.0000   1.0000   1.0000   1.0000   1.0000
     1.0000   1.0000   1.0000   1.0000   1.0000   1.0000   1.0000   1.0000
     1.0000   1.0000   1.0000   1.0000   1.0000   1.0000   1.0000   1.0000
     1.0000   1.0000   1.0000   1.0000   1.0000   1.0000   1.0000   1.0000
     1.0000   1.0000   1.0000   1.0000   1.0000   1.0000   1.0000   1.0000
     1.0000   1.0000   1.0000   1.0000   1.0000   1.0000   1.0000   1.0000
     1.0000   1.0000   1.0000   1.0000   1.0000   1.0000   1.0000   1.0000
     1.0000   1.0000   1.0000   1.0000   1.0000   1.0000   1.0000   1.0000
     1.0000   1.0000   1.0000   1.0000   1.0000   1.0000   1.0000   1.0000
     1.0000   1.0000   1.0000   1.0000   1.0000   1.0000   1.0000   1.0000
     1.0000   1.0000   1.0000   1.0000   1.0000   1.0000   1.0000   1.0000
     1.0000   1.0000   1.0000   1.0000   1.0000   1.0000   1.0000   1.0000
     1.0000   1.0000   1.0000   1.0000   1.0000   1.0000   1.0000   1.0000
     1.0000   1.0000   1.0000   1.0000   1.0000   1.0000   1.0000   1.0000
     1.0000   1.0000   1.0000   1.0000   0.9992   0.9901   0.5718   0.4744
     0.0285   0.0070   0.0040   0.0008   0.0004   0.0003   0.0001   0.0000
     0.0000   0.0000   0.0000   0.0000   0.0000   0.0000   0.0000   0.0000
     0.0000   0.0000   0.0000   0.0000   0.0000   0.0000   0.0000   0.0000
     0.0000   0.0000

          k = 0.2500-0.5200 0.0000 ( 35366 PWs)   bands (ev):

   -59.2566 -59.2531 -59.0083 -59.0032 -58.9231 -58.8555 -58.8507 -58.8109
   -58.7424 -58.7368 -58.6223 -58.6097 -29.0925 -29.0355 -28.9462 -28.9267
   -28.8076 -28.8045 -28.7679 -28.7490 -28.7119 -28.7037 -28.6785 -28.6611
   -28.6479 -28.6320 -28.6096 -28.5848 -28.5395 -28.5310 -28.5108 -28.4826
   -28.4478 -28.4169 -28.4024 -28.3833 -28.3726 -28.3333 -28.3143 -28.2803
   -28.2723 -28.2571 -28.2234 -28.1812 -28.1717 -28.1470 -28.1372 -28.1272
   -17.1538 -16.8988 -16.7277 -16.7048 -16.4786 -16.4152 -16.3423 -16.2946
   -16.1435 -16.0718 -16.0190 -15.7566 -15.6972 -15.5710 -15.4527 -15.4280
   -15.3398 -15.3052 -15.2063 -15.1706 -14.5006  -5.0738  -5.0353  -4.8393
    -4.6310  -4.5996  -4.5046  -4.3542  -4.3348  -4.2325  -4.1946  -4.1142
    -4.0518  -3.9566  -3.8971  -3.8027  -3.7611  -3.6621  -3.5917  -3.4515
    -3.3648  -3.3349  -3.0219  -2.9816  -2.9201  -2.8127  -2.7450  -2.6790
    -2.6324  -2.4834  -2.3954  -2.3704  -2.3109  -2.2873  -2.2247  -2.0740
    -1.9658  -1.9166  -1.8769  -1.7427  -1.6038  -1.5163  -1.4119  -1.4056
    -1.3337  -1.2503  -1.1997  -1.1189  -1.0456  -1.0072  -0.8828  -0.8615
    -0.7640  -0.6979  -0.6199  -0.5467  -0.5025  -0.4423  -0.2965  -0.2468
    -0.2292  -0.0910   0.0790   0.2417   3.6491   3.7203   4.0391   4.1411
     4.4766   4.4801   4.6595   4.9730   5.0118   5.0855   5.1454   5.2738
     5.3648   5.4349   5.5729   5.6749   5.7580   5.9671   6.0848   6.1584
     6.3397   6.4264   6.6202   6.6948   6.8461   6.9379   7.0094   7.1680
     7.2131   7.2569

     occupation numbers 
     1.0000   1.0000   1.0000   1.0000   1.0000   1.0000   1.0000   1.0000
     1.0000   1.0000   1.0000   1.0000   1.0000   1.0000   1.0000   1.0000
     1.0000   1.0000   1.0000   1.0000   1.0000   1.0000   1.0000   1.0000
     1.0000   1.0000   1.0000   1.0000   1.0000   1.0000   1.0000   1.0000
     1.0000   1.0000   1.0000   1.0000   1.0000   1.0000   1.0000   1.0000
     1.0000   1.0000   1.0000   1.0000   1.0000   1.0000   1.0000   1.0000
     1.0000   1.0000   1.0000   1.0000   1.0000   1.0000   1.0000   1.0000
     1.0000   1.0000   1.0000   1.0000   1.0000   1.0000   1.0000   1.0000
     1.0000   1.0000   1.0000   1.0000   1.0000   1.0000   1.0000   1.0000
     1.0000   1.0000   1.0000   1.0000   1.0000   1.0000   1.0000   1.0000
     1.0000   1.0000   1.0000   1.0000   1.0000   1.0000   1.0000   1.0000
     1.0000   1.0000   1.0000   1.0000   1.0000   1.0000   1.0000   1.0000
     1.0000   1.0000   1.0000   1.0000   1.0000   1.0000   1.0000   1.0000
     1.0000   1.0000   1.0000   1.0000   1.0000   1.0000   1.0000   1.0000
     1.0000   1.0000   1.0000   1.0000   1.0000   1.0000   1.0000   1.0000
     1.0000   1.0000   1.0000   1.0000   1.0000   1.0000   1.0000   1.0000
     1.0000   1.0000   1.0000   1.0000   0.9679   0.9470   0.6320   0.4480
     0.0645   0.0630   0.0177   0.0018   0.0013   0.0008   0.0005   0.0002
     0.0001   0.0001   0.0000   0.0000   0.0000   0.0000   0.0000   0.0000
     0.0000   0.0000   0.0000   0.0000   0.0000   0.0000   0.0000   0.0000
     0.0000   0.0000

          k = 0.2500-0.2600 0.0000 ( 35420 PWs)   bands (ev):

   -59.2585 -59.2513 -59.0100 -59.0015 -58.9232 -58.8573 -58.8489 -58.8108
   -58.7440 -58.7352 -58.6230 -58.6089 -29.0864 -29.0247 -28.9449 -28.8893
   -28.8274 -28.7906 -28.7622 -28.7426 -28.7117 -28.6986 -28.6874 -28.6639
   -28.6439 -28.6317 -28.5984 -28.5884 -28.5519 -28.5135 -28.5038 -28.4814
   -28.4502 -28.4374 -28.4112 -28.3802 -28.3550 -28.3411 -28.3293 -28.3026
   -28.2639 -28.2483 -28.2272 -28.1946 -28.1759 -28.1712 -28.1284 -28.1057
   -17.3990 -17.1069 -16.7921 -16.6806 -16.4442 -16.3728 -16.2790 -16.2223
   -16.0807 -16.0440 -15.9184 -15.7545 -15.6413 -15.5603 -15.4650 -15.4324
   -15.3667 -15.3196 -15.2043 -15.1575 -14.4603  -5.2024  -5.0499  -4.8117
    -4.7621  -4.7217  -4.6514  -4.5069  -4.4269  -4.3624  -4.3046  -4.2136
    -4.1258  -4.0128  -3.9655  -3.8748  -3.6436  -3.5290  -3.4062  -3.3651
    -3.3368  -3.2654  -3.2033  -3.1534  -3.0402  -2.9738  -2.8774  -2.7584
    -2.5651  -2.5120  -2.4062  -2.3355  -2.1956  -2.1491  -2.0740  -1.9675
    -1.9098  -1.8012  -1.7874  -1.6691  -1.6158  -1.5314  -1.4697  -1.4347
    -1.3052  -1.2679  -1.2084  -1.1245  -1.0329  -0.9955  -0.8431  -0.7517
    -0.6756  -0.6091  -0.4877  -0.4481  -0.4242  -0.3900  -0.3122  -0.1675
    -0.1343  -0.0181   0.0980   0.2323   3.3702   3.4869   4.0737   4.3023
     4.4738   4.5932   4.8639   5.1529   5.1955   5.2459   5.4511   5.5246
     5.6483   5.7799   5.8419   5.9113   5.9664   6.0097   6.1712   6.2078
     6.3343   6.4259   6.6127   6.7126   6.7503   6.8718   7.0055   7.0461
     7.1153   7.2020

     occupation numbers 
     1.0000   1.0000   1.0000   1.0000   1.0000   1.0000   1.0000   1.0000
     1.0000   1.0000   1.0000   1.0000   1.0000   1.0000   1.0000   1.0000
     1.0000   1.0000   1.0000   1.0000   1.0000   1.0000   1.0000   1.0000
     1.0000   1.0000   1.0000   1.0000   1.0000   1.0000   1.0000   1.0000
     1.0000   1.0000   1.0000   1.0000   1.0000   1.0000   1.0000   1.0000
     1.0000   1.0000   1.0000   1.0000   1.0000   1.0000   1.0000   1.0000
     1.0000   1.0000   1.0000   1.0000   1.0000   1.0000   1.0000   1.0000
     1.0000   1.0000   1.0000   1.0000   1.0000   1.0000   1.0000   1.0000
     1.0000   1.0000   1.0000   1.0000   1.0000   1.0000   1.0000   1.0000
     1.0000   1.0000   1.0000   1.0000   1.0000   1.0000   1.0000   1.0000
     1.0000   1.0000   1.0000   1.0000   1.0000   1.0000   1.0000   1.0000
     1.0000   1.0000   1.0000   1.0000   1.0000   1.0000   1.0000   1.0000
     1.0000   1.0000   1.0000   1.0000   1.0000   1.0000   1.0000   1.0000
     1.0000   1.0000   1.0000   1.0000   1.0000   1.0000   1.0000   1.0000
     1.0000   1.0000   1.0000   1.0000   1.0000   1.0000   1.0000   1.0000
     1.0000   1.0000   1.0000   1.0000   1.0000   1.0000   1.0000   1.0000
     1.0000   1.0000   1.0000   1.0000   0.9958   0.9900   0.5713   0.1988
     0.0657   0.0284   0.0040   0.0005   0.0003   0.0002   0.0001   0.0000
     0.0000   0.0000   0.0000   0.0000   0.0000   0.0000   0.0000   0.0000
     0.0000   0.0000   0.0000   0.0000   0.0000   0.0000   0.0000   0.0000
     0.0000   0.0000

          k =-0.5000 0.0000 0.0000 ( 35502 PWs)   bands (ev):

   -59.2550 -59.2549 -59.0064 -59.0052 -58.9231 -58.8533 -58.8530 -58.8110
   -58.7411 -58.7382 -58.6218 -58.6101 -29.0048 -29.0045 -28.8819 -28.8817
   -28.7935 -28.7932 -28.7315 -28.7312 -28.6935 -28.6934 -28.6672 -28.6664
   -28.6517 -28.6076 -28.6013 -28.5948 -28.5550 -28.5538 -28.5066 -28.5043
   -28.4512 -28.4442 -28.4252 -28.4162 -28.3937 -28.3674 -28.3269 -28.3107
   -28.3059 -28.2586 -28.2212 -28.2192 -28.1943 -28.1694 -28.1549 -28.1228
   -16.9728 -16.9717 -16.7115 -16.7027 -16.5276 -16.5029 -16.2839 -16.2634
   -16.0238 -16.0103 -15.8049 -15.8043 -15.6002 -15.5997 -15.4854 -15.4828
   -15.4406 -15.3935 -15.3422 -15.3015 -14.5754  -4.8613  -4.8606  -4.6047
    -4.6039  -4.4377  -4.4311  -4.3182  -4.3079  -4.2115  -4.2020  -4.0690
    -4.0201  -3.8995  -3.8948  -3.8077  -3.8051  -3.6891  -3.6710  -3.5663
    -3.5482  -3.4402  -3.4301  -3.3416  -3.3263  -3.1941  -3.1609  -2.7526
    -2.6912  -2.5608  -2.5073  -2.3902  -2.3474  -2.2009  -2.1776  -2.0788
    -1.9895  -1.8307  -1.7799  -1.6724  -1.6370  -1.5535  -1.3857  -1.3590
    -1.2994  -1.2568  -1.1695  -1.1004  -1.0647  -0.9294  -0.7939  -0.7291
    -0.7183  -0.6281  -0.5262  -0.4727  -0.4322  -0.4250  -0.3899  -0.2535
    -0.2274  -0.1350  -0.1151   0.2026   3.3800   3.9855   3.9862   4.0040
     4.6103   5.0137   5.0143   5.1424   5.1773   5.1779   5.3988   5.8336
     5.8350   5.9046   5.9077   6.0236   6.1170   6.1734   6.2626   6.3627
     6.4296   6.5800   6.6382   6.7379   6.7984   6.9786   7.0013   7.0492
     7.0698   7.1058

     occupation numbers 
     1.0000   1.0000   1.0000   1.0000   1.0000   1.0000   1.0000   1.0000
     1.0000   1.0000   1.0000   1.0000   1.0000   1.0000   1.0000   1.0000
     1.0000   1.0000   1.0000   1.0000   1.0000   1.0000   1.0000   1.0000
     1.0000   1.0000   1.0000   1.0000   1.0000   1.0000   1.0000   1.0000
     1.0000   1.0000   1.0000   1.0000   1.0000   1.0000   1.0000   1.0000
     1.0000   1.0000   1.0000   1.0000   1.0000   1.0000   1.0000   1.0000
     1.0000   1.0000   1.0000   1.0000   1.0000   1.0000   1.0000   1.0000
     1.0000   1.0000   1.0000   1.0000   1.0000   1.0000   1.0000   1.0000
     1.0000   1.0000   1.0000   1.0000   1.0000   1.0000   1.0000   1.0000
     1.0000   1.0000   1.0000   1.0000   1.0000   1.0000   1.0000   1.0000
     1.0000   1.0000   1.0000   1.0000   1.0000   1.0000   1.0000   1.0000
     1.0000   1.0000   1.0000   1.0000   1.0000   1.0000   1.0000   1.0000
     1.0000   1.0000   1.0000   1.0000   1.0000   1.0000   1.0000   1.0000
     1.0000   1.0000   1.0000   1.0000   1.0000   1.0000   1.0000   1.0000
     1.0000   1.0000   1.0000   1.0000   1.0000   1.0000   1.0000   1.0000
     1.0000   1.0000   1.0000   1.0000   1.0000   1.0000   1.0000   1.0000
     1.0000   1.0000   1.0000   1.0000   0.9954   0.7181   0.7170   0.6897
     0.0251   0.0013   0.0013   0.0005   0.0004   0.0004   0.0001   0.0000
     0.0000   0.0000   0.0000   0.0000   0.0000   0.0000   0.0000   0.0000
     0.0000   0.0000   0.0000   0.0000   0.0000   0.0000   0.0000   0.0000
     0.0000   0.0000

          k =-0.5000 0.2600 0.0000 ( 35450 PWs)   bands (ev):

   -59.2549 -59.2548 -59.0064 -59.0051 -58.9231 -58.8533 -58.8529 -58.8109
   -58.7411 -58.7381 -58.6219 -58.6102 -29.0602 -29.0599 -28.9335 -28.9334
   -28.8089 -28.8086 -28.7578 -28.7570 -28.7028 -28.6935 -28.6724 -28.6656
   -28.6470 -28.6315 -28.6040 -28.5990 -28.5395 -28.5342 -28.5149 -28.4927
   -28.4499 -28.4147 -28.3963 -28.3846 -28.3670 -28.3423 -28.2985 -28.2802
   -28.2732 -28.2571 -28.2265 -28.1875 -28.1725 -28.1469 -28.1425 -28.1238
   -16.9778 -16.9769 -16.7303 -16.7255 -16.5918 -16.5711 -16.3730 -16.3605
   -16.0812 -16.0715 -15.8343 -15.8333 -15.5766 -15.5727 -15.4474 -15.4289
   -15.3357 -15.3077 -15.2381 -15.2021 -14.5055  -4.9119  -4.9087  -4.5994
    -4.5902  -4.3987  -4.3812  -4.2834  -4.2791  -4.1433  -4.1333  -4.0095
    -3.9686  -3.8820  -3.8696  -3.7660  -3.7538  -3.6814  -3.6563  -3.4959
    -3.4738  -3.2671  -3.2542  -3.1813  -3.1590  -2.9439  -2.9272  -2.7285
    -2.7016  -2.5744  -2.5476  -2.3459  -2.2883  -2.2411  -2.2190  -2.0357
    -2.0135  -1.9830  -1.9086  -1.7623  -1.6967  -1.6179  -1.5739  -1.4276
    -1.3842  -1.2794  -1.2498  -1.1718  -1.0800  -1.0366  -0.9109  -0.8922
    -0.7312  -0.6402  -0.5933  -0.5241  -0.5177  -0.4152  -0.4048  -0.3018
    -0.2650  -0.1205  -0.0728   0.1449   3.5334   3.9038   3.9044   4.1062
     4.4525   4.7940   4.7948   4.9886   4.9902   5.2219   5.4793   5.5089
     5.5442   5.7272   5.7728   5.9174   6.0011   6.0869   6.1460   6.2302
     6.2685   6.3974   6.4968   6.5583   6.7051   6.7693   6.9270   7.0009
     7.0625   7.1412

     occupation numbers 
     1.0000   1.0000   1.0000   1.0000   1.0000   1.0000   1.0000   1.0000
     1.0000   1.0000   1.0000   1.0000   1.0000   1.0000   1.0000   1.0000
     1.0000   1.0000   1.0000   1.0000   1.0000   1.0000   1.0000   1.0000
     1.0000   1.0000   1.0000   1.0000   1.0000   1.0000   1.0000   1.0000
     1.0000   1.0000   1.0000   1.0000   1.0000   1.0000   1.0000   1.0000
     1.0000   1.0000   1.0000   1.0000   1.0000   1.0000   1.0000   1.0000
     1.0000   1.0000   1.0000   1.0000   1.0000   1.0000   1.0000   1.0000
     1.0000   1.0000   1.0000   1.0000   1.0000   1.0000   1.0000   1.0000
     1.0000   1.0000   1.0000   1.0000   1.0000   1.0000   1.0000   1.0000
     1.0000   1.0000   1.0000   1.0000   1.0000   1.0000   1.0000   1.0000
     1.0000   1.0000   1.0000   1.0000   1.0000   1.0000   1.0000   1.0000
     1.0000   1.0000   1.0000   1.0000   1.0000   1.0000   1.0000   1.0000
     1.0000   1.0000   1.0000   1.0000   1.0000   1.0000   1.0000   1.0000
     1.0000   1.0000   1.0000   1.0000   1.0000   1.0000   1.0000   1.0000
     1.0000   1.0000   1.0000   1.0000   1.0000   1.0000   1.0000   1.0000
     1.0000   1.0000   1.0000   1.0000   1.0000   1.0000   1.0000   1.0000
     1.0000   1.0000   1.0000   1.0000   0.9860   0.8228   0.8221   0.5119
     0.0760   0.0066   0.0066   0.0016   0.0016   0.0003   0.0000   0.0000
     0.0000   0.0000   0.0000   0.0000   0.0000   0.0000   0.0000   0.0000
     0.0000   0.0000   0.0000   0.0000   0.0000   0.0000   0.0000   0.0000
     0.0000   0.0000

          k =-0.5000-0.5200 0.0000 ( 35320 PWs)   bands (ev):

   -59.2549 -59.2548 -59.0063 -59.0051 -58.9230 -58.8532 -58.8529 -58.8109
   -58.7411 -58.7381 -58.6219 -58.6102 -29.0999 -29.0996 -28.9804 -28.9803
   -28.8454 -28.8449 -28.7637 -28.7602 -28.7152 -28.7081 -28.6973 -28.6798
   -28.6473 -28.6423 -28.5923 -28.5774 -28.5393 -28.5047 -28.4979 -28.4928
   -28.4383 -28.4080 -28.3714 -28.3511 -28.3481 -28.3389 -28.2681 -28.2640
   -28.2372 -28.2347 -28.2278 -28.1846 -28.1605 -28.1375 -28.1129 -28.1077
   -16.9880 -16.9873 -16.7494 -16.7482 -16.6344 -16.6210 -16.4535 -16.4490
   -16.1387 -16.1235 -15.8662 -15.8647 -15.5424 -15.5398 -15.3861 -15.3729
   -15.2363 -15.2287 -15.1770 -15.1337 -14.4422  -4.7824  -4.7792  -4.5412
    -4.5392  -4.4104  -4.3944  -4.2492  -4.2316  -4.1257  -4.1037  -4.0307
    -4.0265  -3.9168  -3.8920  -3.8596  -3.8508  -3.6713  -3.6206  -3.2773
    -3.2355  -3.0971  -3.0596  -3.0511  -2.9565  -2.8045  -2.8029  -2.7710
    -2.7428  -2.5937  -2.5831  -2.4202  -2.3886  -2.1561  -2.1028  -2.0150
    -1.9795  -1.9282  -1.9082  -1.8429  -1.8260  -1.7382  -1.6706  -1.4601
    -1.3308  -1.3047  -1.2547  -1.2149  -1.1569  -1.0613  -0.9659  -0.8648
    -0.7848  -0.7691  -0.7222  -0.6559  -0.5221  -0.5002  -0.4523  -0.4005
    -0.2808  -0.1828  -0.1578   0.0755   3.7805   3.7905   3.7918   3.9772
     4.4753   4.4756   4.6676   5.0670   5.0735   5.1473   5.2144   5.2255
     5.4006   5.4340   5.4914   5.7491   5.8421   5.9392   5.9698   6.0753
     6.1715   6.2687   6.4531   6.5369   6.6535   6.8041   6.8815   7.0546
     7.1116   7.2622

     occupation numbers 
     1.0000   1.0000   1.0000   1.0000   1.0000   1.0000   1.0000   1.0000
     1.0000   1.0000   1.0000   1.0000   1.0000   1.0000   1.0000   1.0000
     1.0000   1.0000   1.0000   1.0000   1.0000   1.0000   1.0000   1.0000
     1.0000   1.0000   1.0000   1.0000   1.0000   1.0000   1.0000   1.0000
     1.0000   1.0000   1.0000   1.0000   1.0000   1.0000   1.0000   1.0000
     1.0000   1.0000   1.0000   1.0000   1.0000   1.0000   1.0000   1.0000
     1.0000   1.0000   1.0000   1.0000   1.0000   1.0000   1.0000   1.0000
     1.0000   1.0000   1.0000   1.0000   1.0000   1.0000   1.0000   1.0000
     1.0000   1.0000   1.0000   1.0000   1.0000   1.0000   1.0000   1.0000
     1.0000   1.0000   1.0000   1.0000   1.0000   1.0000   1.0000   1.0000
     1.0000   1.0000   1.0000   1.0000   1.0000   1.0000   1.0000   1.0000
     1.0000   1.0000   1.0000   1.0000   1.0000   1.0000   1.0000   1.0000
     1.0000   1.0000   1.0000   1.0000   1.0000   1.0000   1.0000   1.0000
     1.0000   1.0000   1.0000   1.0000   1.0000   1.0000   1.0000   1.0000
     1.0000   1.0000   1.0000   1.0000   1.0000   1.0000   1.0000   1.0000
     1.0000   1.0000   1.0000   1.0000   1.0000   1.0000   1.0000   1.0000
     1.0000   1.0000   1.0000   1.0000   0.9199   0.9143   0.9136   0.7303
     0.0651   0.0649   0.0167   0.0009   0.0009   0.0005   0.0003   0.0003
     0.0001   0.0001   0.0000   0.0000   0.0000   0.0000   0.0000   0.0000
     0.0000   0.0000   0.0000   0.0000   0.0000   0.0000   0.0000   0.0000
     0.0000   0.0000

     the Fermi energy is     4.1127 ev

!    total energy              =   -1853.43777956 Ry
     estimated scf accuracy    <       0.00000009 Ry
     smearing contrib. (-TS)   =      -0.03684592 Ry
     internal energy E=F+TS    =   -1853.40093364 Ry

     The total energy is F=E-TS. E is the sum of the following terms:
     one-electron contribution =  -41354.56323149 Ry
     hartree contribution      =   20704.30550468 Ry
     xc contribution           =    -289.30584117 Ry
     ewald contribution        =   19086.16310620 Ry
     electric field correction =      -0.00047187 Ry

     convergence has been achieved in  10 iterations

     Forces acting on atoms (cartesian axes, Ry/au):

     atom    1 type  1   force =     0.01547296   -0.01583675    0.07295573
     atom    2 type  1   force =     0.00024296   -0.00181607    0.00920957
     atom    3 type  1   force =     0.00366948   -0.00398566    0.00659934
     atom    4 type  1   force =     0.01553456    0.01580232    0.07294873
     atom    5 type  1   force =     0.00059618    0.00166177    0.00917588
     atom    6 type  1   force =    -0.00094162    0.01185058    0.01629343
     atom    7 type  1   force =    -0.00385857    0.00868578    0.01218290
     atom    8 type  1   force =    -0.00024281    0.00093698    0.00797902
     atom    9 type  1   force =     0.03054865    0.06826502   -0.02642662
     atom   10 type  1   force =    -0.00361799   -0.00880064    0.01215035
     atom   11 type  1   force =     0.00011074   -0.00097572    0.00899623
     atom   12 type  1   force =    -0.07282886   -0.04114937   -0.02000336
     atom   13 type  2   force =    -0.01626678    0.02014662   -0.02471592
     atom   14 type  2   force =    -0.00067530    0.00126226   -0.00373715
     atom   15 type  2   force =     0.01285475   -0.01393428    0.00915928
     atom   16 type  2   force =    -0.01616287   -0.02010934   -0.02491198
     atom   17 type  2   force =    -0.00045471   -0.00111032   -0.00376811
     atom   18 type  2   force =     0.00844646    0.01330478   -0.00815187
     atom   19 type  2   force =     0.00396623   -0.00229265   -0.05995597
     atom   20 type  2   force =     0.00054962   -0.00002123   -0.00448599
     atom   21 type  2   force =    -0.00500138   -0.01399845    0.02495869
     atom   22 type  2   force =     0.00077129    0.00301534   -0.00177502
     atom   23 type  2   force =     0.00139015    0.00128841   -0.00407595
     atom   24 type  2   force =     0.00070636   -0.00297664   -0.00151575
     atom   25 type  2   force =     0.00038775   -0.00064439   -0.00395900
     atom   26 type  2   force =     0.01480516   -0.00412759   -0.02409254
     atom   27 type  2   force =     0.00396921    0.00226486   -0.05994454
     atom   28 type  2   force =    -0.00065584   -0.00007208   -0.00691312
     atom   29 type  2   force =     0.00052827    0.00000979   -0.00441764
     atom   30 type  2   force =    -0.00086862    0.00001388   -0.00129445
     atom   31 type  2   force =     0.00960544   -0.01783338    0.03041673
     atom   32 type  2   force =    -0.00065722    0.00024403   -0.00679245
     atom   33 type  2   force =    -0.00192366    0.00093214   -0.00208847
     The non-local contrib.  to forces
     atom    1 type  1   force =    -0.01954768    0.01743966   -0.07721220
     atom    2 type  1   force =    -0.03044010    0.06475440    0.03330258
     atom    3 type  1   force =    -0.03323577    0.06786618    0.04140818
     atom    4 type  1   force =    -0.01940577   -0.01736151   -0.07726733
     atom    5 type  1   force =    -0.03078421   -0.06478467    0.03328692
     atom    6 type  1   force =    -0.03113506   -0.07072297    0.03175339
     atom    7 type  1   force =     0.03185824   -0.07181069    0.01841114
     atom    8 type  1   force =     0.03039716   -0.06390652    0.03409886
     atom    9 type  1   force =     0.02528754   -0.12148406    0.17438567
     atom   10 type  1   force =     0.03195410    0.07180875    0.01843323
     atom   11 type  1   force =     0.03051267    0.06415359    0.03438221
     atom   12 type  1   force =     0.09862745   -0.00388188    0.19628971
     atom   13 type  2   force =    -0.08630075    0.07680923    0.03826518
     atom   14 type  2   force =    -0.05373390    0.04727352    0.03271163
     atom   15 type  2   force =    -0.03932000    0.02580282    0.03167364
     atom   16 type  2   force =    -0.08568793   -0.07630984    0.03783220
     atom   17 type  2   force =    -0.05300012   -0.04660566    0.03261965
     atom   18 type  2   force =    -0.03973562   -0.02019999    0.01677022
     atom   19 type  2   force =    -0.04578679   -0.15010514   -0.04198590
     atom   20 type  2   force =    -0.05228837   -0.14664683    0.00667582
     atom   21 type  2   force =    -0.06596748   -0.17190272    0.03827203
     atom   22 type  2   force =     0.05481852    0.04890627    0.03755203
     atom   23 type  2   force =     0.05450679    0.04715589    0.03190548
     atom   24 type  2   force =     0.05495953   -0.04919060    0.03749084
     atom   25 type  2   force =     0.05302309   -0.04647621    0.03120342
     atom   26 type  2   force =     0.15051392   -0.19136957   -0.36305472
     atom   27 type  2   force =    -0.04572258    0.15005879   -0.04198346
     atom   28 type  2   force =     0.05241042    0.14633082    0.00082150
     atom   29 type  2   force =    -0.05246077    0.14651034    0.00683032
     atom   30 type  2   force =     0.05268187    0.14663860    0.01128308
     atom   31 type  2   force =    -0.03465409    0.12764624    0.03303254
     atom   32 type  2   force =     0.05241852   -0.14651515    0.00093821
     atom   33 type  2   force =     0.04995143   -0.14498418    0.01054696
     The ionic contribution  to forces
     atom    1 type  1   force =    -1.52878958    1.02840407 -240.42201754
     atom    2 type  1   force =    -1.80748041   -2.70620094  -48.24362257
     atom    3 type  1   force =    -2.05808989   -2.57341238  146.47606017
     atom    4 type  1   force =    -1.52591264   -1.02735536 -240.42245501
     atom    5 type  1   force =    -1.80330507    2.70473165  -48.24244148
     atom    6 type  1   force =    -1.52547748    2.80349966  147.53081783
     atom    7 type  1   force =     1.80519040    2.50027018 -145.86144955
     atom    8 type  1   force =     1.77839006    2.71545527   49.33315478
     atom    9 type  1   force =    -3.53011253   -1.06930042  236.26841152
     atom   10 type  1   force =     1.81768714   -2.50024666 -145.85921179
     atom   11 type  1   force =     1.82927189   -2.71484939   49.34197290
     atom   12 type  1   force =     5.93077402   -1.02963611  236.52807778
     atom   13 type  2   force =     0.85452859    0.36071844 -108.75467327
     atom   14 type  2   force =     0.86493810    0.79733012  -12.09478831
     atom   15 type  2   force =     0.15649810    0.64105944   85.56528372
     atom   16 type  2   force =     0.85580302   -0.36221576 -108.73851800
     atom   17 type  2   force =     0.86804674   -0.79908860  -12.07794480
     atom   18 type  2   force =     1.48395791   -0.99988851   85.25271431
     atom   19 type  2   force =     0.37643206    2.31165841  -98.24365196
     atom   20 type  2   force =     0.36453702    2.42157866   -0.00356994
     atom   21 type  2   force =     0.77936225    2.59534270   97.55587402
     atom   22 type  2   force =    -0.86356850    0.78164680  -60.83121724
     atom   23 type  2   force =    -0.86322117    0.79300980   36.74221755
     atom   24 type  2   force =    -0.86708204   -0.77987082  -60.83447316
     atom   25 type  2   force =    -0.86838792   -0.80493023   36.67562326
     atom   26 type  2   force =    -1.85971763    1.64931157  123.57886324
     atom   27 type  2   force =     0.37578430   -2.31348498  -98.24529097
     atom   28 type  2   force =    -0.36310563   -2.41323723  -48.81952507
     atom   29 type  2   force =     0.36115761   -2.42149268   -0.00169296
     atom   30 type  2   force =    -0.39409298   -2.40064876   48.81680868
     atom   31 type  2   force =     0.04812128   -2.03944113   98.08255493
     atom   32 type  2   force =    -0.36232423    2.41551964  -48.81950162
     atom   33 type  2   force =    -0.32981280    2.43576355   48.76761056
     The local contribution  to forces
     atom    1 type  1   force =     1.56380848   -1.06166206  240.57168681
     atom    2 type  1   force =     1.83816593    2.63963222   48.21944838
     atom    3 type  1   force =     2.09490844    2.50161640 -146.51169205
     atom    4 type  1   force =     1.56085135    1.06049898  240.57217232
     atom    5 type  1   force =     1.83468663   -2.63828832   48.21824808
     atom    6 type  1   force =     1.55573554   -2.72100786 -147.54704984
     atom    7 type  1   force =    -1.84090575   -2.41977583  145.85478267
     atom    8 type  1   force =    -1.80903021   -2.65062577  -49.35974547
     atom    9 type  1   force =     3.53532580    1.25912023 -236.46949586
     atom   10 type  1   force =    -1.85325799    2.41963739  145.85249017
     atom   11 type  1   force =    -1.85966803    2.64973568  -49.36785198
     atom   12 type  1   force =    -6.10227535    0.99231274 -236.74463527
     atom   13 type  2   force =    -0.78449818   -0.41737584  108.69136786
     atom   14 type  2   force =    -0.81187488   -0.84335030   12.05831994
     atom   15 type  2   force =    -0.10433906   -0.68081812  -85.58817295
     atom   16 type  2   force =    -0.78628125    0.41840937  108.67544917
     atom   17 type  2   force =    -0.81549828    0.84459111   12.04153724
     atom   18 type  2   force =    -1.43574981    1.03340784  -85.27796556
     atom   19 type  2   force =    -0.32667179   -2.16384987   98.22533817
     atom   20 type  2   force =    -0.31170060   -2.27495795   -0.00765324
     atom   21 type  2   force =    -0.71837582   -2.43743683  -97.56947264
     atom   22 type  2   force =     0.80952107   -0.82754059   60.79173048
     atom   23 type  2   force =     0.81012934   -0.83887797  -36.77863571
     atom   24 type  2   force =     0.81282892    0.82608570   60.79530710
     atom   25 type  2   force =     0.81574036    0.85075967  -36.71121695
     atom   26 type  2   force =     1.72412637   -1.46203112 -123.23997174
     atom   27 type  2   force =    -0.32608527    2.16569318   98.22698615
     atom   28 type  2   force =     0.31004126    2.26683128   48.81170630
     atom   29 type  2   force =    -0.30816822    2.27499406   -0.00961495
     atom   30 type  2   force =     0.34055734    2.25402847  -48.82988606
     atom   31 type  2   force =    -0.00389123    1.89396849  -98.08540972
     atom   32 type  2   force =     0.30925069   -2.26875913   48.81168655
     atom   33 type  2   force =     0.27792047   -2.28985355  -48.78077568
     The core correction contribution to forces
     atom    1 type  1   force =     0.00000000    0.00000000    0.00000000
     atom    2 type  1   force =     0.00000000    0.00000000    0.00000000
     atom    3 type  1   force =     0.00000000    0.00000000    0.00000000
     atom    4 type  1   force =     0.00000000    0.00000000    0.00000000
     atom    5 type  1   force =     0.00000000    0.00000000    0.00000000
     atom    6 type  1   force =     0.00000000    0.00000000    0.00000000
     atom    7 type  1   force =     0.00000000    0.00000000    0.00000000
     atom    8 type  1   force =     0.00000000    0.00000000    0.00000000
     atom    9 type  1   force =     0.00000000    0.00000000    0.00000000
     atom   10 type  1   force =     0.00000000    0.00000000    0.00000000
     atom   11 type  1   force =     0.00000000    0.00000000    0.00000000
     atom   12 type  1   force =     0.00000000    0.00000000    0.00000000
     atom   13 type  2   force =     0.00000000    0.00000000    0.00000000
     atom   14 type  2   force =     0.00000000    0.00000000    0.00000000
     atom   15 type  2   force =     0.00000000    0.00000000    0.00000000
     atom   16 type  2   force =     0.00000000    0.00000000    0.00000000
     atom   17 type  2   force =     0.00000000    0.00000000    0.00000000
     atom   18 type  2   force =     0.00000000    0.00000000    0.00000000
     atom   19 type  2   force =     0.00000000    0.00000000    0.00000000
     atom   20 type  2   force =     0.00000000    0.00000000    0.00000000
     atom   21 type  2   force =     0.00000000    0.00000000    0.00000000
     atom   22 type  2   force =     0.00000000    0.00000000    0.00000000
     atom   23 type  2   force =     0.00000000    0.00000000    0.00000000
     atom   24 type  2   force =     0.00000000    0.00000000    0.00000000
     atom   25 type  2   force =     0.00000000    0.00000000    0.00000000
     atom   26 type  2   force =     0.00000000    0.00000000    0.00000000
     atom   27 type  2   force =     0.00000000    0.00000000    0.00000000
     atom   28 type  2   force =     0.00000000    0.00000000    0.00000000
     atom   29 type  2   force =     0.00000000    0.00000000    0.00000000
     atom   30 type  2   force =     0.00000000    0.00000000    0.00000000
     atom   31 type  2   force =     0.00000000    0.00000000    0.00000000
     atom   32 type  2   force =     0.00000000    0.00000000    0.00000000
     atom   33 type  2   force =     0.00000000    0.00000000    0.00000000
     The Hubbard contrib.    to forces
     atom    1 type  1   force =     0.00000000    0.00000000    0.00000000
     atom    2 type  1   force =     0.00000000    0.00000000    0.00000000
     atom    3 type  1   force =     0.00000000    0.00000000    0.00000000
     atom    4 type  1   force =     0.00000000    0.00000000    0.00000000
     atom    5 type  1   force =     0.00000000    0.00000000    0.00000000
     atom    6 type  1   force =     0.00000000    0.00000000    0.00000000
     atom    7 type  1   force =     0.00000000    0.00000000    0.00000000
     atom    8 type  1   force =     0.00000000    0.00000000    0.00000000
     atom    9 type  1   force =     0.00000000    0.00000000    0.00000000
     atom   10 type  1   force =     0.00000000    0.00000000    0.00000000
     atom   11 type  1   force =     0.00000000    0.00000000    0.00000000
     atom   12 type  1   force =     0.00000000    0.00000000    0.00000000
     atom   13 type  2   force =     0.00000000    0.00000000    0.00000000
     atom   14 type  2   force =     0.00000000    0.00000000    0.00000000
     atom   15 type  2   force =     0.00000000    0.00000000    0.00000000
     atom   16 type  2   force =     0.00000000    0.00000000    0.00000000
     atom   17 type  2   force =     0.00000000    0.00000000    0.00000000
     atom   18 type  2   force =     0.00000000    0.00000000    0.00000000
     atom   19 type  2   force =     0.00000000    0.00000000    0.00000000
     atom   20 type  2   force =     0.00000000    0.00000000    0.00000000
     atom   21 type  2   force =     0.00000000    0.00000000    0.00000000
     atom   22 type  2   force =     0.00000000    0.00000000    0.00000000
     atom   23 type  2   force =     0.00000000    0.00000000    0.00000000
     atom   24 type  2   force =     0.00000000    0.00000000    0.00000000
     atom   25 type  2   force =     0.00000000    0.00000000    0.00000000
     atom   26 type  2   force =     0.00000000    0.00000000    0.00000000
     atom   27 type  2   force =     0.00000000    0.00000000    0.00000000
     atom   28 type  2   force =     0.00000000    0.00000000    0.00000000
     atom   29 type  2   force =     0.00000000    0.00000000    0.00000000
     atom   30 type  2   force =     0.00000000    0.00000000    0.00000000
     atom   31 type  2   force =     0.00000000    0.00000000    0.00000000
     atom   32 type  2   force =     0.00000000    0.00000000    0.00000000
     atom   33 type  2   force =     0.00000000    0.00000000    0.00000000
     The SCF correction term to forces
     atom    1 type  1   force =     0.00000000    0.00000000    0.00000000
     atom    2 type  1   force =     0.00000000    0.00000000    0.00000000
     atom    3 type  1   force =     0.00000000    0.00000000    0.00000000
     atom    4 type  1   force =     0.00000000    0.00000000    0.00000000
     atom    5 type  1   force =     0.00000000    0.00000000    0.00000000
     atom    6 type  1   force =     0.00000000    0.00000000    0.00000000
     atom    7 type  1   force =     0.00000000    0.00000000    0.00000000
     atom    8 type  1   force =     0.00000000    0.00000000    0.00000000
     atom    9 type  1   force =     0.00000000    0.00000000    0.00000000
     atom   10 type  1   force =     0.00000000    0.00000000    0.00000000
     atom   11 type  1   force =     0.00000000    0.00000000    0.00000000
     atom   12 type  1   force =     0.00000000    0.00000000    0.00000000
     atom   13 type  2   force =     0.00000000    0.00000000    0.00000000
     atom   14 type  2   force =     0.00000000    0.00000000    0.00000000
     atom   15 type  2   force =     0.00000000    0.00000000    0.00000000
     atom   16 type  2   force =     0.00000000    0.00000000    0.00000000
     atom   17 type  2   force =     0.00000000    0.00000000    0.00000000
     atom   18 type  2   force =     0.00000000    0.00000000    0.00000000
     atom   19 type  2   force =     0.00000000    0.00000000    0.00000000
     atom   20 type  2   force =     0.00000000    0.00000000    0.00000000
     atom   21 type  2   force =     0.00000000    0.00000000    0.00000000
     atom   22 type  2   force =     0.00000000    0.00000000    0.00000000
     atom   23 type  2   force =     0.00000000    0.00000000    0.00000000
     atom   24 type  2   force =     0.00000000    0.00000000    0.00000000
     atom   25 type  2   force =     0.00000000    0.00000000    0.00000000
     atom   26 type  2   force =    -0.00011561   -0.00003936   -0.00009972
     atom   27 type  2   force =     0.00000000    0.00000000    0.00000000
     atom   28 type  2   force =     0.00000000    0.00000000    0.00000000
     atom   29 type  2   force =     0.00000000    0.00000000    0.00000000
     atom   30 type  2   force =     0.00000000    0.00000000    0.00000000
     atom   31 type  2   force =     0.00000000    0.00000000    0.00000000
     atom   32 type  2   force =     0.00000000    0.00000000    0.00000000
     atom   33 type  2   force =     0.00000000    0.00000000    0.00000000

     Total force =     0.028578     Total SCF correction =     0.000158
     Energy error            =      1.5E-03
     Gradient error          =      2.4E-02

     number of scf cycles    =   3
     number of bfgs steps    =   2

     energy   old            =   -1853.4362914318 Ry
     energy   new            =   -1853.4377795619 Ry

     CASE: energy  _new < energy  _old

     new trust radius        =       0.0693555268 bohr
     new conv_thr            =       0.0000001000 Ry


ATOMIC_POSITIONS (angstrom)
Hf            4.0076390000        3.7813620000        6.1529890000    0   0   0
Hf            4.0076390000        3.7813620000       11.0753320000    0   0   0
Hf            4.0076390000        3.7813620000       15.9976750000    0   0   0
Hf            1.4522770000        1.1321830000        6.1529770000    0   0   0
Hf            1.4522770000        1.1321830000       11.0753200000    0   0   0
Hf            1.4522770000        1.1321830000       15.9976630000    0   0   0
Hf            3.6579980000        1.1322110000        8.6140330000    0   0   0
Hf            3.6579980000        1.1322110000       13.5363760000    0   0   0
Hf            3.6579980000        1.1322110000       18.4587190000    0   0   0
Hf            1.1027520000        3.7813090000        8.6141070000    0   0   0
Hf            1.1027520000        3.7813090000       13.5364490000    0   0   0
Hf            1.1027520000        3.7813090000       18.4587920000    0   0   0
O             3.1707970000        2.0862730000        6.8074440000    0   0   0
O             3.1707970000        2.0862730000       11.7297860000    0   0   0
O             3.1707970000        2.0862730000       16.6521290000    0   0   0
O             0.6152330000        2.8266930000        6.8083890000    0   0   0
O             0.6152330000        2.8266930000       11.7307320000    0   0   0
O             0.6152330000        2.8266930000       16.6530750000    0   0   0
O             5.0530890000        0.2074550000        7.3799440000    0   0   0
O             5.0530890000        0.2074550000       12.3022870000    0   0   0
O             5.0530890000        0.2074550000       17.2246300000    0   0   0
O             1.9399660000        2.0865810000        9.2696970000    0   0   0
O             1.9399660000        2.0865810000       14.1920390000    0   0   0
O             4.4952530000        2.8267400000        9.2692970000    0   0   0
O             4.4952530000        2.8267400000       14.1916400000    0   0   0
O             4.5395043516        2.8173285442       19.0439278841
O             2.4978700000       -0.2075440000        7.3798460000    0   0   0
O             2.6124080000       -0.2081150000        9.8410840000    0   0   0
O             2.4978700000       -0.2075440000       12.3021890000    0   0   0
O             2.6124080000       -0.2081150000       14.7634270000    0   0   0
O             2.4978700000       -0.2075440000       17.2245320000    0   0   0
O             5.1675430000        0.2075860000        9.8410300000    0   0   0
O             5.1675430000        0.2075860000       14.7633720000    0   0   0



     Writing output data file ./hfo2.save/
     NEW-OLD atomic charge density approx. for the potential

     negative rho (up, down):  4.038E-04 0.000E+00
 
     Adding external electric field

     Computed dipole along edir(3) : 
        Elec. dipole         -2.7557 Ry au,         -7.0043 Debye
        Ion. dipole          -2.7547 Ry au,         -7.0018 Debye
        Dipole                0.4657 Ry au,          1.1838 Debye
        Dipole field          0.0010 Ry au, 
 
        E field amplitude [Ha a.u.]:  1.0000E-03
        Potential amp.        0.0017 Ry
        Total length         62.8334 bohr
 

     total cpu time spent up to now is      243.8 secs

     Self-consistent Calculation

     iteration #  1     ecut=    50.00 Ry     beta= 0.30
     Davidson diagonalization with overlap
     ethr =  1.00E-06,  avg # of iterations =  6.6

     negative rho (up, down):  2.582E-04 0.000E+00
 
     Adding external electric field

     Computed dipole along edir(3) : 
        Elec. dipole         -2.7557 Ry au,         -7.0043 Debye
        Ion. dipole          -2.7547 Ry au,         -7.0018 Debye
        Dipole                0.4654 Ry au,          1.1830 Debye
        Dipole field          0.0010 Ry au, 
 
        E field amplitude [Ha a.u.]:  1.0000E-03
        Potential amp.        0.0017 Ry
        Total length         62.8334 bohr
 

     total cpu time spent up to now is      251.9 secs

     total energy              =   -1853.43949325 Ry
     estimated scf accuracy    <       0.00200200 Ry

     iteration #  2     ecut=    50.00 Ry     beta= 0.30
     Davidson diagonalization with overlap
     ethr =  7.41E-07,  avg # of iterations =  1.0

     negative rho (up, down):  1.528E-04 0.000E+00
 
     Adding external electric field

     Computed dipole along edir(3) : 
        Elec. dipole         -2.7557 Ry au,         -7.0043 Debye
        Ion. dipole          -2.7547 Ry au,         -7.0018 Debye
        Dipole                0.4654 Ry au,          1.1830 Debye
        Dipole field          0.0010 Ry au, 
 
        E field amplitude [Ha a.u.]:  1.0000E-03
        Potential amp.        0.0017 Ry
        Total length         62.8334 bohr
 

     total cpu time spent up to now is      262.1 secs

     total energy              =   -1853.43941335 Ry
     estimated scf accuracy    <       0.00059099 Ry

     iteration #  3     ecut=    50.00 Ry     beta= 0.30
     Davidson diagonalization with overlap
     ethr =  2.19E-07,  avg # of iterations =  2.2

     negative rho (up, down):  7.642E-05 0.000E+00
 
     Adding external electric field

     Computed dipole along edir(3) : 
        Elec. dipole         -2.7557 Ry au,         -7.0043 Debye
        Ion. dipole          -2.7547 Ry au,         -7.0018 Debye
        Dipole                0.4659 Ry au,          1.1843 Debye
        Dipole field          0.0010 Ry au, 
 
        E field amplitude [Ha a.u.]:  1.0000E-03
        Potential amp.        0.0016 Ry
        Total length         62.8334 bohr
 

     total cpu time spent up to now is      265.7 secs

     total energy              =   -1853.43935713 Ry
     estimated scf accuracy    <       0.00016189 Ry

     iteration #  4     ecut=    50.00 Ry     beta= 0.30
     Davidson diagonalization with overlap
     ethr =  6.00E-08,  avg # of iterations =  4.9

     negative rho (up, down):  3.556E-05 0.000E+00
 
     Adding external electric field

     Computed dipole along edir(3) : 
        Elec. dipole         -2.7557 Ry au,         -7.0043 Debye
        Ion. dipole          -2.7547 Ry au,         -7.0018 Debye
        Dipole                0.4666 Ry au,          1.1859 Debye
        Dipole field          0.0010 Ry au, 
 
        E field amplitude [Ha a.u.]:  1.0000E-03
        Potential amp.        0.0014 Ry
        Total length         62.8334 bohr
 

     total cpu time spent up to now is      269.0 secs

     total energy              =   -1853.43937804 Ry
     estimated scf accuracy    <       0.00001853 Ry

     iteration #  5     ecut=    50.00 Ry     beta= 0.30
     Davidson diagonalization with overlap
     ethr =  6.86E-09,  avg # of iterations =  3.0

     negative rho (up, down):  1.404E-05 0.000E+00
 
     Adding external electric field

     Computed dipole along edir(3) : 
        Elec. dipole         -2.7557 Ry au,         -7.0043 Debye
        Ion. dipole          -2.7547 Ry au,         -7.0018 Debye
        Dipole                0.4672 Ry au,          1.1874 Debye
        Dipole field          0.0010 Ry au, 
 
        E field amplitude [Ha a.u.]:  1.0000E-03
        Potential amp.        0.0013 Ry
        Total length         62.8334 bohr
 

     total cpu time spent up to now is      272.0 secs

     total energy              =   -1853.43937822 Ry
     estimated scf accuracy    <       0.00001034 Ry

     iteration #  6     ecut=    50.00 Ry     beta= 0.30
     Davidson diagonalization with overlap
     ethr =  3.83E-09,  avg # of iterations =  3.0

     negative rho (up, down):  6.706E-06 0.000E+00
 
     Adding external electric field

     Computed dipole along edir(3) : 
        Elec. dipole         -2.7557 Ry au,         -7.0043 Debye
        Ion. dipole          -2.7547 Ry au,         -7.0018 Debye
        Dipole                0.4682 Ry au,          1.1902 Debye
        Dipole field          0.0010 Ry au, 
 
        E field amplitude [Ha a.u.]:  1.0000E-03
        Potential amp.        0.0010 Ry
        Total length         62.8334 bohr
 

     total cpu time spent up to now is      274.8 secs

     total energy              =   -1853.43937800 Ry
     estimated scf accuracy    <       0.00000911 Ry

     iteration #  7     ecut=    50.00 Ry     beta= 0.30
     Davidson diagonalization with overlap
     ethr =  3.38E-09,  avg # of iterations =  2.0

     negative rho (up, down):  3.406E-06 0.000E+00
 
     Adding external electric field

     Computed dipole along edir(3) : 
        Elec. dipole         -2.7557 Ry au,         -7.0043 Debye
        Ion. dipole          -2.7547 Ry au,         -7.0018 Debye
        Dipole                0.4688 Ry au,          1.1915 Debye
        Dipole field          0.0010 Ry au, 
 
        E field amplitude [Ha a.u.]:  1.0000E-03
        Potential amp.        0.0008 Ry
        Total length         62.8334 bohr
 

     total cpu time spent up to now is      277.6 secs

     total energy              =   -1853.43937813 Ry
     estimated scf accuracy    <       0.00000271 Ry

     iteration #  8     ecut=    50.00 Ry     beta= 0.30
     Davidson diagonalization with overlap
     ethr =  1.00E-09,  avg # of iterations =  2.6

     negative rho (up, down):  7.016E-06 0.000E+00
 
     Adding external electric field

     Computed dipole along edir(3) : 
        Elec. dipole         -2.7557 Ry au,         -7.0043 Debye
        Ion. dipole          -2.7547 Ry au,         -7.0018 Debye
        Dipole                0.4694 Ry au,          1.1931 Debye
        Dipole field          0.0010 Ry au, 
 
        E field amplitude [Ha a.u.]:  1.0000E-03
        Potential amp.        0.0007 Ry
        Total length         62.8334 bohr
 

     total cpu time spent up to now is      286.6 secs

     total energy              =   -1853.43937816 Ry
     estimated scf accuracy    <       0.00000109 Ry

     iteration #  9     ecut=    50.00 Ry     beta= 0.30
     Davidson diagonalization with overlap
     ethr =  4.05E-10,  avg # of iterations =  3.8

     negative rho (up, down):  7.721E-06 0.000E+00
 
     Adding external electric field

     Computed dipole along edir(3) : 
        Elec. dipole         -2.7557 Ry au,         -7.0043 Debye
        Ion. dipole          -2.7547 Ry au,         -7.0018 Debye
        Dipole                0.4692 Ry au,          1.1926 Debye
        Dipole field          0.0010 Ry au, 
 
        E field amplitude [Ha a.u.]:  1.0000E-03
        Potential amp.        0.0007 Ry
        Total length         62.8334 bohr
 

     total cpu time spent up to now is      304.9 secs

     total energy              =   -1853.43937829 Ry
     estimated scf accuracy    <       0.00000027 Ry

     iteration # 10     ecut=    50.00 Ry     beta= 0.30
     Davidson diagonalization with overlap
     ethr =  1.02E-10,  avg # of iterations =  4.3

     negative rho (up, down):  7.305E-06 0.000E+00
 
     Adding external electric field

     Computed dipole along edir(3) : 
        Elec. dipole         -2.7557 Ry au,         -7.0043 Debye
        Ion. dipole          -2.7547 Ry au,         -7.0018 Debye
        Dipole                0.4690 Ry au,          1.1921 Debye
        Dipole field          0.0010 Ry au, 
 
        E field amplitude [Ha a.u.]:  1.0000E-03
        Potential amp.        0.0008 Ry
        Total length         62.8334 bohr
 

     total cpu time spent up to now is      314.9 secs

     total energy              =   -1853.43937837 Ry
     estimated scf accuracy    <       0.00000046 Ry

     iteration # 11     ecut=    50.00 Ry     beta= 0.30
     Davidson diagonalization with overlap
     ethr =  1.02E-10,  avg # of iterations =  2.0

     negative rho (up, down):  3.322E-06 0.000E+00
 
     Adding external electric field

     Computed dipole along edir(3) : 
        Elec. dipole         -2.7557 Ry au,         -7.0043 Debye
        Ion. dipole          -2.7547 Ry au,         -7.0018 Debye
        Dipole                0.4687 Ry au,          1.1914 Debye
        Dipole field          0.0010 Ry au, 
 
        E field amplitude [Ha a.u.]:  1.0000E-03
        Potential amp.        0.0009 Ry
        Total length         62.8334 bohr
 

     total cpu time spent up to now is      330.2 secs

     total energy              =   -1853.43937839 Ry
     estimated scf accuracy    <       0.00000035 Ry

     iteration # 12     ecut=    50.00 Ry     beta= 0.30
     Davidson diagonalization with overlap
     ethr =  1.02E-10,  avg # of iterations =  1.1
 
     Adding external electric field

     Computed dipole along edir(3) : 
        Elec. dipole         -2.7557 Ry au,         -7.0044 Debye
        Ion. dipole          -2.7547 Ry au,         -7.0018 Debye
        Dipole                0.4717 Ry au,          1.1991 Debye
        Dipole field          0.0010 Ry au, 
 
        E field amplitude [Ha a.u.]:  1.0000E-03
        Potential amp.        0.0001 Ry
        Total length         62.8334 bohr
 

     total cpu time spent up to now is      332.0 secs

     End of self-consistent calculation

          k = 0.0000 0.0000 0.0000 ( 35385 PWs)   bands (ev):

   -59.2588 -59.2454 -59.0088 -58.9933 -58.8841 -58.8527 -58.8373 -58.8121
   -58.7353 -58.7199 -58.6115 -58.5923 -29.1060 -29.0468 -28.9622 -28.8832
   -28.8383 -28.7766 -28.7753 -28.7504 -28.7111 -28.6834 -28.6551 -28.6523
   -28.6357 -28.6159 -28.5843 -28.5418 -28.5381 -28.5311 -28.4799 -28.4460
   -28.4391 -28.3986 -28.3890 -28.3802 -28.3356 -28.3347 -28.3134 -28.2930
   -28.2587 -28.2212 -28.2151 -28.1797 -28.1636 -28.1355 -28.1037 -28.0821
   -17.8476 -17.4465 -16.9370 -16.6609 -16.4058 -16.3687 -16.2327 -16.1478
   -16.0630 -16.0450 -15.9073 -15.7332 -15.5578 -15.4067 -15.4041 -15.2782
   -15.2657 -15.1510 -15.1048 -15.0418 -14.5099  -5.4637  -5.4391  -5.2751
    -5.2284  -5.0812  -4.9958  -4.6778  -4.6312  -4.4534  -4.4092  -4.2850
    -4.2401  -4.1421  -3.9197  -3.8220  -3.6528  -3.6228  -3.4544  -3.4067
    -3.3511  -3.1495  -3.0896  -2.8557  -2.8190  -2.7896  -2.6768  -2.6049
    -2.5073  -2.4488  -2.3015  -2.1758  -2.1369  -1.9947  -1.9915  -1.9623
    -1.8690  -1.7659  -1.7384  -1.7204  -1.6875  -1.6303  -1.5999  -1.2759
    -1.2384  -1.1970  -1.0612  -0.8992  -0.8833  -0.8278  -0.7213  -0.6525
    -0.5977  -0.5439  -0.3701  -0.2262  -0.1974  -0.1188   0.0563   0.0998
     0.2251   0.2429   0.3518   0.4656   2.6944   2.9311   4.1436   4.3641
     4.4242   4.8109   5.0338   5.0658   5.3059   5.4769   5.5547   5.8263
     5.9379   6.0046   6.0349   6.1833   6.2382   6.2767   6.3984   6.4554
     6.4636   6.6093   6.6430   6.6989   6.8438   6.8828   6.9843   7.0086
     7.0299   7.1871

     occupation numbers 
     1.0000   1.0000   1.0000   1.0000   1.0000   1.0000   1.0000   1.0000
     1.0000   1.0000   1.0000   1.0000   1.0000   1.0000   1.0000   1.0000
     1.0000   1.0000   1.0000   1.0000   1.0000   1.0000   1.0000   1.0000
     1.0000   1.0000   1.0000   1.0000   1.0000   1.0000   1.0000   1.0000
     1.0000   1.0000   1.0000   1.0000   1.0000   1.0000   1.0000   1.0000
     1.0000   1.0000   1.0000   1.0000   1.0000   1.0000   1.0000   1.0000
     1.0000   1.0000   1.0000   1.0000   1.0000   1.0000   1.0000   1.0000
     1.0000   1.0000   1.0000   1.0000   1.0000   1.0000   1.0000   1.0000
     1.0000   1.0000   1.0000   1.0000   1.0000   1.0000   1.0000   1.0000
     1.0000   1.0000   1.0000   1.0000   1.0000   1.0000   1.0000   1.0000
     1.0000   1.0000   1.0000   1.0000   1.0000   1.0000   1.0000   1.0000
     1.0000   1.0000   1.0000   1.0000   1.0000   1.0000   1.0000   1.0000
     1.0000   1.0000   1.0000   1.0000   1.0000   1.0000   1.0000   1.0000
     1.0000   1.0000   1.0000   1.0000   1.0000   1.0000   1.0000   1.0000
     1.0000   1.0000   1.0000   1.0000   1.0000   1.0000   1.0000   1.0000
     1.0000   1.0000   1.0000   1.0000   1.0000   1.0000   1.0000   1.0000
     1.0000   1.0000   1.0000   1.0000   1.0000   0.9998   0.4486   0.1386
     0.0937   0.0060   0.0012   0.0009   0.0002   0.0000   0.0000   0.0000
     0.0000   0.0000   0.0000   0.0000   0.0000   0.0000   0.0000   0.0000
     0.0000   0.0000   0.0000   0.0000   0.0000   0.0000   0.0000   0.0000
     0.0000   0.0000

          k = 0.0000 0.2600 0.0000 ( 35369 PWs)   bands (ev):

   -59.2571 -59.2470 -59.0071 -58.9950 -58.8838 -58.8509 -58.8390 -58.8123
   -58.7336 -58.7215 -58.6105 -58.5935 -29.0894 -28.9953 -28.9367 -28.8773
   -28.8118 -28.7889 -28.7558 -28.7293 -28.6975 -28.6894 -28.6679 -28.6566
   -28.6461 -28.6028 -28.5806 -28.5574 -28.5320 -28.5270 -28.5097 -28.4593
   -28.4352 -28.4232 -28.4131 -28.3902 -28.3713 -28.3244 -28.2964 -28.2850
   -28.2796 -28.2519 -28.2236 -28.1949 -28.1628 -28.1376 -28.1190 -28.1059
   -17.5850 -17.2354 -16.8222 -16.5999 -16.3820 -16.2980 -16.1617 -16.1025
   -16.0473 -16.0081 -15.9605 -15.7607 -15.6194 -15.5690 -15.4704 -15.4235
   -15.3703 -15.2518 -15.1669 -15.1241 -14.5598  -5.4091  -5.2772  -5.0976
    -4.9761  -4.9423  -4.7223  -4.6107  -4.5643  -4.5241  -4.3817  -4.3156
    -4.2000  -3.9563  -3.8927  -3.7152  -3.6643  -3.5806  -3.4966  -3.4004
    -3.3370  -3.2766  -3.2465  -3.0422  -2.9439  -2.8315  -2.7190  -2.6572
    -2.5485  -2.4380  -2.3557  -2.3003  -2.2167  -2.1747  -2.0575  -2.0198
    -1.9182  -1.8283  -1.6789  -1.5650  -1.4978  -1.4493  -1.3529  -1.2247
    -1.2161  -1.1244  -0.9795  -0.9124  -0.8729  -0.8231  -0.7717  -0.7432
    -0.6732  -0.5894  -0.5027  -0.4136  -0.3081  -0.2670  -0.2317  -0.1967
     0.0715   0.2018   0.2950   0.4139   3.0574   3.2948   4.2295   4.2369
     4.3748   4.8479   4.9082   5.1390   5.2042   5.2386   5.3379   5.4339
     5.6613   5.7112   5.8420   5.8681   5.9653   6.1142   6.1444   6.3524
     6.5399   6.5870   6.6793   6.7345   6.9201   6.9837   7.0571   7.1554
     7.2255   7.2975

     occupation numbers 
     1.0000   1.0000   1.0000   1.0000   1.0000   1.0000   1.0000   1.0000
     1.0000   1.0000   1.0000   1.0000   1.0000   1.0000   1.0000   1.0000
     1.0000   1.0000   1.0000   1.0000   1.0000   1.0000   1.0000   1.0000
     1.0000   1.0000   1.0000   1.0000   1.0000   1.0000   1.0000   1.0000
     1.0000   1.0000   1.0000   1.0000   1.0000   1.0000   1.0000   1.0000
     1.0000   1.0000   1.0000   1.0000   1.0000   1.0000   1.0000   1.0000
     1.0000   1.0000   1.0000   1.0000   1.0000   1.0000   1.0000   1.0000
     1.0000   1.0000   1.0000   1.0000   1.0000   1.0000   1.0000   1.0000
     1.0000   1.0000   1.0000   1.0000   1.0000   1.0000   1.0000   1.0000
     1.0000   1.0000   1.0000   1.0000   1.0000   1.0000   1.0000   1.0000
     1.0000   1.0000   1.0000   1.0000   1.0000   1.0000   1.0000   1.0000
     1.0000   1.0000   1.0000   1.0000   1.0000   1.0000   1.0000   1.0000
     1.0000   1.0000   1.0000   1.0000   1.0000   1.0000   1.0000   1.0000
     1.0000   1.0000   1.0000   1.0000   1.0000   1.0000   1.0000   1.0000
     1.0000   1.0000   1.0000   1.0000   1.0000   1.0000   1.0000   1.0000
     1.0000   1.0000   1.0000   1.0000   1.0000   1.0000   1.0000   1.0000
     1.0000   1.0000   1.0000   1.0000   0.9996   0.9976   0.3020   0.2905
     0.1295   0.0046   0.0029   0.0005   0.0003   0.0003   0.0001   0.0001
     0.0000   0.0000   0.0000   0.0000   0.0000   0.0000   0.0000   0.0000
     0.0000   0.0000   0.0000   0.0000   0.0000   0.0000   0.0000   0.0000
     0.0000   0.0000

          k = 0.0000-0.5200 0.0000 ( 35392 PWs)   bands (ev):

   -59.2546 -59.2495 -59.0045 -58.9975 -58.8836 -58.8484 -58.8415 -58.8125
   -58.7312 -58.7239 -58.6093 -58.5949 -29.0704 -28.9257 -28.8888 -28.8879
   -28.7901 -28.7848 -28.7634 -28.7311 -28.7015 -28.6805 -28.6708 -28.6427
   -28.6314 -28.6113 -28.5887 -28.5641 -28.5426 -28.5271 -28.4998 -28.4728
   -28.4714 -28.4327 -28.4285 -28.3933 -28.3763 -28.3575 -28.3274 -28.3062
   -28.2839 -28.2582 -28.2049 -28.1894 -28.1729 -28.1603 -28.1402 -28.1145
   -17.2071 -16.9244 -16.6709 -16.5362 -16.3522 -16.2230 -16.1868 -16.0837
   -16.0637 -16.0218 -15.9694 -15.9570 -15.8076 -15.6475 -15.6309 -15.4533
   -15.4327 -15.3160 -15.2201 -15.2044 -14.6073  -5.2069  -5.1395  -5.0044
    -4.8104  -4.6462  -4.5658  -4.4735  -4.4630  -4.2960  -4.2544  -4.2388
    -4.1683  -4.0705  -3.9622  -3.8932  -3.8419  -3.7763  -3.5977  -3.5610
    -3.2888  -3.2362  -3.1497  -3.0981  -2.8925  -2.8684  -2.7744  -2.6524
    -2.6124  -2.4354  -2.3721  -2.2941  -2.2324  -2.0729  -2.0205  -1.9524
    -1.8499  -1.6557  -1.6046  -1.5431  -1.4673  -1.4589  -1.3403  -1.3105
    -1.2679  -1.1891  -1.1779  -1.1196  -1.0453  -0.9637  -0.9002  -0.8403
    -0.7663  -0.6177  -0.5723  -0.5671  -0.4351  -0.3137  -0.2371  -0.2249
     0.0284   0.1453   0.2912   0.3721   3.6250   3.7951   4.0790   4.1341
     4.3636   4.5202   4.5738   5.0125   5.0913   5.2294   5.2423   5.2735
     5.4545   5.4985   5.5556   5.6718   5.7263   5.9676   6.1509   6.2940
     6.4132   6.4585   6.5741   6.7769   6.9810   7.0995   7.1186   7.1805
     7.2606   7.2680

     occupation numbers 
     1.0000   1.0000   1.0000   1.0000   1.0000   1.0000   1.0000   1.0000
     1.0000   1.0000   1.0000   1.0000   1.0000   1.0000   1.0000   1.0000
     1.0000   1.0000   1.0000   1.0000   1.0000   1.0000   1.0000   1.0000
     1.0000   1.0000   1.0000   1.0000   1.0000   1.0000   1.0000   1.0000
     1.0000   1.0000   1.0000   1.0000   1.0000   1.0000   1.0000   1.0000
     1.0000   1.0000   1.0000   1.0000   1.0000   1.0000   1.0000   1.0000
     1.0000   1.0000   1.0000   1.0000   1.0000   1.0000   1.0000   1.0000
     1.0000   1.0000   1.0000   1.0000   1.0000   1.0000   1.0000   1.0000
     1.0000   1.0000   1.0000   1.0000   1.0000   1.0000   1.0000   1.0000
     1.0000   1.0000   1.0000   1.0000   1.0000   1.0000   1.0000   1.0000
     1.0000   1.0000   1.0000   1.0000   1.0000   1.0000   1.0000   1.0000
     1.0000   1.0000   1.0000   1.0000   1.0000   1.0000   1.0000   1.0000
     1.0000   1.0000   1.0000   1.0000   1.0000   1.0000   1.0000   1.0000
     1.0000   1.0000   1.0000   1.0000   1.0000   1.0000   1.0000   1.0000
     1.0000   1.0000   1.0000   1.0000   1.0000   1.0000   1.0000   1.0000
     1.0000   1.0000   1.0000   1.0000   1.0000   1.0000   1.0000   1.0000
     1.0000   1.0000   1.0000   1.0000   0.9735   0.9133   0.5667   0.4658
     0.1390   0.0486   0.0333   0.0014   0.0008   0.0003   0.0003   0.0002
     0.0001   0.0000   0.0000   0.0000   0.0000   0.0000   0.0000   0.0000
     0.0000   0.0000   0.0000   0.0000   0.0000   0.0000   0.0000   0.0000
     0.0000   0.0000

          k = 0.2500 0.0000 0.0000 ( 35470 PWs)   bands (ev):

   -59.2568 -59.2474 -59.0065 -58.9956 -58.8838 -58.8504 -58.8395 -58.8124
   -58.7331 -58.7220 -58.6101 -58.5938 -29.0686 -29.0143 -28.9311 -28.8710
   -28.8004 -28.7936 -28.7679 -28.7306 -28.6906 -28.6706 -28.6581 -28.6553
   -28.6333 -28.6275 -28.5909 -28.5644 -28.5452 -28.5322 -28.4983 -28.4427
   -28.4311 -28.4276 -28.4160 -28.3962 -28.3578 -28.3278 -28.3107 -28.2900
   -28.2745 -28.2477 -28.2252 -28.1942 -28.1623 -28.1361 -28.1235 -28.1066
   -17.5757 -17.2232 -16.8029 -16.6614 -16.3730 -16.3527 -16.2445 -16.1673
   -16.0319 -16.0253 -15.8565 -15.7918 -15.5703 -15.5511 -15.4313 -15.4099
   -15.3376 -15.2816 -15.1900 -15.1405 -14.5636  -5.2173  -5.0934  -4.9570
    -4.9065  -4.8067  -4.6807  -4.5842  -4.5442  -4.3705  -4.3152  -4.2037
    -4.1081  -4.0427  -4.0145  -3.9360  -3.8192  -3.7439  -3.5479  -3.3990
    -3.3538  -3.2638  -3.2215  -3.0537  -3.0317  -2.8502  -2.7836  -2.5801
    -2.5311  -2.3984  -2.3395  -2.3004  -2.2295  -2.1543  -2.0373  -1.9228
    -1.8840  -1.7903  -1.7425  -1.6406  -1.5953  -1.5609  -1.5412  -1.3976
    -1.3693  -1.2704  -1.1695  -1.1090  -0.9886  -0.8813  -0.8006  -0.6642
    -0.5869  -0.5509  -0.4368  -0.4074  -0.3414  -0.2103  -0.1705  -0.0679
    -0.0371   0.0561   0.0976   0.2896   2.9630   3.2708   4.1536   4.3296
     4.6319   4.8596   4.9162   5.1522   5.1738   5.5276   5.5765   5.7059
     5.8555   5.9100   6.0388   6.1119   6.1954   6.2889   6.3606   6.4454
     6.5200   6.6136   6.6353   6.7039   6.7613   6.8665   6.9056   7.0428
     7.1293   7.2320

     occupation numbers 
     1.0000   1.0000   1.0000   1.0000   1.0000   1.0000   1.0000   1.0000
     1.0000   1.0000   1.0000   1.0000   1.0000   1.0000   1.0000   1.0000
     1.0000   1.0000   1.0000   1.0000   1.0000   1.0000   1.0000   1.0000
     1.0000   1.0000   1.0000   1.0000   1.0000   1.0000   1.0000   1.0000
     1.0000   1.0000   1.0000   1.0000   1.0000   1.0000   1.0000   1.0000
     1.0000   1.0000   1.0000   1.0000   1.0000   1.0000   1.0000   1.0000
     1.0000   1.0000   1.0000   1.0000   1.0000   1.0000   1.0000   1.0000
     1.0000   1.0000   1.0000   1.0000   1.0000   1.0000   1.0000   1.0000
     1.0000   1.0000   1.0000   1.0000   1.0000   1.0000   1.0000   1.0000
     1.0000   1.0000   1.0000   1.0000   1.0000   1.0000   1.0000   1.0000
     1.0000   1.0000   1.0000   1.0000   1.0000   1.0000   1.0000   1.0000
     1.0000   1.0000   1.0000   1.0000   1.0000   1.0000   1.0000   1.0000
     1.0000   1.0000   1.0000   1.0000   1.0000   1.0000   1.0000   1.0000
     1.0000   1.0000   1.0000   1.0000   1.0000   1.0000   1.0000   1.0000
     1.0000   1.0000   1.0000   1.0000   1.0000   1.0000   1.0000   1.0000
     1.0000   1.0000   1.0000   1.0000   1.0000   1.0000   1.0000   1.0000
     1.0000   1.0000   1.0000   1.0000   0.9998   0.9980   0.4303   0.1717
     0.0220   0.0042   0.0028   0.0005   0.0004   0.0000   0.0000   0.0000
     0.0000   0.0000   0.0000   0.0000   0.0000   0.0000   0.0000   0.0000
     0.0000   0.0000   0.0000   0.0000   0.0000   0.0000   0.0000   0.0000
     0.0000   0.0000

          k = 0.2500 0.2600 0.0000 ( 35420 PWs)   bands (ev):

   -59.2556 -59.2485 -59.0053 -58.9967 -58.8836 -58.8491 -58.8407 -58.8125
   -58.7319 -58.7232 -58.6096 -58.5945 -29.0827 -29.0211 -28.9398 -28.8836
   -28.8215 -28.7846 -28.7562 -28.7340 -28.7072 -28.6871 -28.6611 -28.6418
   -28.6365 -28.6229 -28.5929 -28.5580 -28.5412 -28.5071 -28.4851 -28.4696
   -28.4601 -28.4334 -28.4024 -28.3846 -28.3462 -28.3384 -28.3132 -28.2876
   -28.2676 -28.2379 -28.2135 -28.1810 -28.1747 -28.1495 -28.1254 -28.0907
   -17.3923 -17.0849 -16.7622 -16.6760 -16.4257 -16.3596 -16.2574 -16.1926
   -16.0449 -16.0206 -15.9142 -15.7490 -15.6355 -15.5536 -15.4860 -15.4293
   -15.3889 -15.2987 -15.1702 -15.1073 -14.6114  -5.1959  -5.0447  -4.8119
    -4.7558  -4.6995  -4.6339  -4.5102  -4.4219  -4.3390  -4.3009  -4.2056
    -4.0980  -4.0116  -3.9609  -3.8646  -3.6461  -3.5342  -3.4171  -3.3568
    -3.3249  -3.2680  -3.2038  -3.1393  -3.0248  -2.9879  -2.8906  -2.7530
    -2.5433  -2.4523  -2.3868  -2.3161  -2.2277  -2.1667  -2.0942  -1.9095
    -1.8237  -1.7862  -1.7449  -1.6320  -1.5791  -1.5076  -1.4382  -1.4068
    -1.3269  -1.2586  -1.1607  -1.0763  -1.0199  -0.9766  -0.9364  -0.7869
    -0.6800  -0.6519  -0.5536  -0.4634  -0.4496  -0.3858  -0.2609  -0.1756
    -0.1277  -0.0198   0.0961   0.2784   3.1513   3.4894   4.0763   4.1291
     4.5963   4.7860   4.8683   5.0701   5.1667   5.2103   5.3588   5.4728
     5.5737   5.7560   5.8289   5.8949   6.0057   6.0713   6.1152   6.3553
     6.4235   6.6010   6.6535   6.7303   6.7496   6.9031   6.9864   7.1150
     7.1983   7.2391

     occupation numbers 
     1.0000   1.0000   1.0000   1.0000   1.0000   1.0000   1.0000   1.0000
     1.0000   1.0000   1.0000   1.0000   1.0000   1.0000   1.0000   1.0000
     1.0000   1.0000   1.0000   1.0000   1.0000   1.0000   1.0000   1.0000
     1.0000   1.0000   1.0000   1.0000   1.0000   1.0000   1.0000   1.0000
     1.0000   1.0000   1.0000   1.0000   1.0000   1.0000   1.0000   1.0000
     1.0000   1.0000   1.0000   1.0000   1.0000   1.0000   1.0000   1.0000
     1.0000   1.0000   1.0000   1.0000   1.0000   1.0000   1.0000   1.0000
     1.0000   1.0000   1.0000   1.0000   1.0000   1.0000   1.0000   1.0000
     1.0000   1.0000   1.0000   1.0000   1.0000   1.0000   1.0000   1.0000
     1.0000   1.0000   1.0000   1.0000   1.0000   1.0000   1.0000   1.0000
     1.0000   1.0000   1.0000   1.0000   1.0000   1.0000   1.0000   1.0000
     1.0000   1.0000   1.0000   1.0000   1.0000   1.0000   1.0000   1.0000
     1.0000   1.0000   1.0000   1.0000   1.0000   1.0000   1.0000   1.0000
     1.0000   1.0000   1.0000   1.0000   1.0000   1.0000   1.0000   1.0000
     1.0000   1.0000   1.0000   1.0000   1.0000   1.0000   1.0000   1.0000
     1.0000   1.0000   1.0000   1.0000   1.0000   1.0000   1.0000   1.0000
     1.0000   1.0000   1.0000   1.0000   0.9992   0.9901   0.5716   0.4751
     0.0284   0.0072   0.0039   0.0009   0.0004   0.0003   0.0001   0.0000
     0.0000   0.0000   0.0000   0.0000   0.0000   0.0000   0.0000   0.0000
     0.0000   0.0000   0.0000   0.0000   0.0000   0.0000   0.0000   0.0000
     0.0000   0.0000

          k = 0.2500-0.5200 0.0000 ( 35366 PWs)   bands (ev):

   -59.2538 -59.2502 -59.0035 -58.9985 -58.8835 -58.8473 -58.8425 -58.8125
   -58.7303 -58.7248 -58.6090 -58.5953 -29.0889 -29.0318 -28.9409 -28.9218
   -28.8003 -28.7971 -28.7613 -28.7456 -28.7014 -28.6920 -28.6694 -28.6556
   -28.6340 -28.6214 -28.6046 -28.5788 -28.5338 -28.5241 -28.5034 -28.4735
   -28.4387 -28.4064 -28.3924 -28.3734 -28.3611 -28.3229 -28.3008 -28.2686
   -28.2604 -28.2413 -28.2115 -28.1710 -28.1576 -28.1360 -28.1250 -28.1144
   -17.1486 -16.8883 -16.7236 -16.6942 -16.4715 -16.4055 -16.3316 -16.2804
   -16.1356 -16.0605 -16.0101 -15.7491 -15.6931 -15.5619 -15.4462 -15.4170
   -15.3288 -15.2912 -15.1933 -15.1516 -14.5387  -5.0659  -5.0296  -4.8298
    -4.6219  -4.5897  -4.4956  -4.3484  -4.3268  -4.2236  -4.1844  -4.1037
    -4.0450  -3.9486  -3.8864  -3.7965  -3.7527  -3.6518  -3.5802  -3.4410
    -3.3573  -3.3241  -3.0156  -2.9739  -2.9117  -2.8053  -2.7390  -2.6721
    -2.6220  -2.4745  -2.3971  -2.3658  -2.3008  -2.2780  -2.2197  -2.0618
    -1.9578  -1.9083  -1.8693  -1.7349  -1.5983  -1.5091  -1.4055  -1.3964
    -1.3323  -1.2452  -1.1950  -1.1222  -1.0394  -0.9990  -0.8805  -0.8571
    -0.7548  -0.7050  -0.6123  -0.5522  -0.4976  -0.4400  -0.2955  -0.2395
    -0.2250  -0.0816   0.0884   0.2573   3.6582   3.7233   4.0420   4.1351
     4.4753   4.4806   4.6625   4.9765   5.0175   5.0909   5.1531   5.2855
     5.3724   5.4468   5.5842   5.6843   5.7609   5.9756   6.0966   6.1671
     6.3554   6.4446   6.6361   6.7019   6.8542   6.9458   7.0178   7.1765
     7.2208   7.2669

     occupation numbers 
     1.0000   1.0000   1.0000   1.0000   1.0000   1.0000   1.0000   1.0000
     1.0000   1.0000   1.0000   1.0000   1.0000   1.0000   1.0000   1.0000
     1.0000   1.0000   1.0000   1.0000   1.0000   1.0000   1.0000   1.0000
     1.0000   1.0000   1.0000   1.0000   1.0000   1.0000   1.0000   1.0000
     1.0000   1.0000   1.0000   1.0000   1.0000   1.0000   1.0000   1.0000
     1.0000   1.0000   1.0000   1.0000   1.0000   1.0000   1.0000   1.0000
     1.0000   1.0000   1.0000   1.0000   1.0000   1.0000   1.0000   1.0000
     1.0000   1.0000   1.0000   1.0000   1.0000   1.0000   1.0000   1.0000
     1.0000   1.0000   1.0000   1.0000   1.0000   1.0000   1.0000   1.0000
     1.0000   1.0000   1.0000   1.0000   1.0000   1.0000   1.0000   1.0000
     1.0000   1.0000   1.0000   1.0000   1.0000   1.0000   1.0000   1.0000
     1.0000   1.0000   1.0000   1.0000   1.0000   1.0000   1.0000   1.0000
     1.0000   1.0000   1.0000   1.0000   1.0000   1.0000   1.0000   1.0000
     1.0000   1.0000   1.0000   1.0000   1.0000   1.0000   1.0000   1.0000
     1.0000   1.0000   1.0000   1.0000   1.0000   1.0000   1.0000   1.0000
     1.0000   1.0000   1.0000   1.0000   1.0000   1.0000   1.0000   1.0000
     1.0000   1.0000   1.0000   1.0000   0.9665   0.9470   0.6318   0.4640
     0.0663   0.0639   0.0176   0.0018   0.0013   0.0008   0.0005   0.0002
     0.0001   0.0001   0.0000   0.0000   0.0000   0.0000   0.0000   0.0000
     0.0000   0.0000   0.0000   0.0000   0.0000   0.0000   0.0000   0.0000
     0.0000   0.0000

          k = 0.2500-0.2600 0.0000 ( 35420 PWs)   bands (ev):

   -59.2556 -59.2485 -59.0053 -58.9967 -58.8837 -58.8491 -58.8407 -58.8124
   -58.7319 -58.7232 -58.6096 -58.5945 -29.0828 -29.0211 -28.9398 -28.8836
   -28.8215 -28.7847 -28.7564 -28.7350 -28.7071 -28.6869 -28.6732 -28.6537
   -28.6393 -28.6254 -28.5932 -28.5778 -28.5456 -28.5068 -28.4928 -28.4733
   -28.4412 -28.4274 -28.4011 -28.3690 -28.3455 -28.3304 -28.3172 -28.2839
   -28.2511 -28.2366 -28.2155 -28.1830 -28.1628 -28.1601 -28.1169 -28.0931
   -17.3929 -17.0964 -16.7832 -16.6766 -16.4361 -16.3661 -16.2684 -16.2114
   -16.0675 -16.0341 -15.9143 -15.7499 -15.6355 -15.5512 -15.4523 -15.4235
   -15.3480 -15.3071 -15.1921 -15.1423 -14.4961  -5.1944  -5.0435  -4.8029
    -4.7554  -4.7110  -4.6424  -4.4961  -4.4168  -4.3538  -4.2968  -4.2041
    -4.1160  -4.0043  -3.9546  -3.8623  -3.6353  -3.5216  -3.3970  -3.3549
    -3.3291  -3.2573  -3.1939  -3.1473  -3.0322  -2.9639  -2.8639  -2.7528
    -2.5594  -2.5132  -2.4004  -2.3296  -2.1892  -2.1420  -2.0668  -1.9671
    -1.9048  -1.7957  -1.7783  -1.6643  -1.6075  -1.5269  -1.4620  -1.4270
    -1.2984  -1.2628  -1.1997  -1.1174  -1.0269  -0.9906  -0.8385  -0.7589
    -0.6672  -0.6032  -0.4875  -0.4484  -0.4254  -0.3983  -0.3043  -0.1635
    -0.1287  -0.0078   0.1108   0.2512   3.3672   3.4897   4.0766   4.3136
     4.4728   4.5965   4.8674   5.1591   5.2033   5.2631   5.4610   5.5375
     5.6610   5.7897   5.8523   5.9200   5.9710   6.0176   6.1785   6.2183
     6.3493   6.4440   6.6195   6.7189   6.7590   6.8829   7.0132   7.0567
     7.1289   7.2075

     occupation numbers 
     1.0000   1.0000   1.0000   1.0000   1.0000   1.0000   1.0000   1.0000
     1.0000   1.0000   1.0000   1.0000   1.0000   1.0000   1.0000   1.0000
     1.0000   1.0000   1.0000   1.0000   1.0000   1.0000   1.0000   1.0000
     1.0000   1.0000   1.0000   1.0000   1.0000   1.0000   1.0000   1.0000
     1.0000   1.0000   1.0000   1.0000   1.0000   1.0000   1.0000   1.0000
     1.0000   1.0000   1.0000   1.0000   1.0000   1.0000   1.0000   1.0000
     1.0000   1.0000   1.0000   1.0000   1.0000   1.0000   1.0000   1.0000
     1.0000   1.0000   1.0000   1.0000   1.0000   1.0000   1.0000   1.0000
     1.0000   1.0000   1.0000   1.0000   1.0000   1.0000   1.0000   1.0000
     1.0000   1.0000   1.0000   1.0000   1.0000   1.0000   1.0000   1.0000
     1.0000   1.0000   1.0000   1.0000   1.0000   1.0000   1.0000   1.0000
     1.0000   1.0000   1.0000   1.0000   1.0000   1.0000   1.0000   1.0000
     1.0000   1.0000   1.0000   1.0000   1.0000   1.0000   1.0000   1.0000
     1.0000   1.0000   1.0000   1.0000   1.0000   1.0000   1.0000   1.0000
     1.0000   1.0000   1.0000   1.0000   1.0000   1.0000   1.0000   1.0000
     1.0000   1.0000   1.0000   1.0000   1.0000   1.0000   1.0000   1.0000
     1.0000   1.0000   1.0000   1.0000   0.9959   0.9900   0.5710   0.1890
     0.0675   0.0283   0.0040   0.0005   0.0003   0.0002   0.0001   0.0000
     0.0000   0.0000   0.0000   0.0000   0.0000   0.0000   0.0000   0.0000
     0.0000   0.0000   0.0000   0.0000   0.0000   0.0000   0.0000   0.0000
     0.0000   0.0000

          k =-0.5000 0.0000 0.0000 ( 35502 PWs)   bands (ev):

   -59.2521 -59.2520 -59.0016 -59.0004 -58.8835 -58.8451 -58.8448 -58.8127
   -58.7290 -58.7262 -58.6085 -58.5956 -29.0014 -29.0011 -28.8772 -28.8770
   -28.7889 -28.7886 -28.7247 -28.7244 -28.6895 -28.6894 -28.6598 -28.6596
   -28.6262 -28.5966 -28.5916 -28.5853 -28.5488 -28.5480 -28.4979 -28.4962
   -28.4404 -28.4350 -28.4151 -28.4097 -28.3815 -28.3602 -28.3079 -28.2960
   -28.2950 -28.2480 -28.2120 -28.2070 -28.1829 -28.1514 -28.1427 -28.1134
   -16.9678 -16.9667 -16.7005 -16.6927 -16.5158 -16.4929 -16.2734 -16.2540
   -16.0116 -15.9986 -15.8010 -15.8005 -15.5938 -15.5934 -15.4753 -15.4729
   -15.4279 -15.3774 -15.3290 -15.2800 -14.6187  -4.8536  -4.8530  -4.5991
    -4.5982  -4.4298  -4.4217  -4.3071  -4.2976  -4.2046  -4.1947  -4.0620
    -4.0066  -3.8903  -3.8852  -3.8007  -3.7964  -3.6829  -3.6638  -3.5569
    -3.5398  -3.4326  -3.4222  -3.3303  -3.3146  -3.1889  -3.1518  -2.7498
    -2.6865  -2.5548  -2.4956  -2.3831  -2.3358  -2.1979  -2.1696  -2.0766
    -1.9794  -1.8327  -1.7730  -1.6693  -1.6282  -1.5462  -1.3695  -1.3600
    -1.2933  -1.2528  -1.1580  -1.0928  -1.0547  -0.9306  -0.7907  -0.7235
    -0.7137  -0.6207  -0.5351  -0.4635  -0.4233  -0.4143  -0.3990  -0.2442
    -0.2178  -0.1272  -0.1039   0.2118   3.3790   3.9883   3.9890   3.9987
     4.6151   5.0167   5.0173   5.1277   5.1806   5.1810   5.4075   5.8416
     5.8425   5.9112   5.9149   6.0289   6.1264   6.1786   6.2822   6.3759
     6.4480   6.5903   6.6526   6.7494   6.8068   6.9920   7.0125   7.0613
     7.0774   7.1164

     occupation numbers 
     1.0000   1.0000   1.0000   1.0000   1.0000   1.0000   1.0000   1.0000
     1.0000   1.0000   1.0000   1.0000   1.0000   1.0000   1.0000   1.0000
     1.0000   1.0000   1.0000   1.0000   1.0000   1.0000   1.0000   1.0000
     1.0000   1.0000   1.0000   1.0000   1.0000   1.0000   1.0000   1.0000
     1.0000   1.0000   1.0000   1.0000   1.0000   1.0000   1.0000   1.0000
     1.0000   1.0000   1.0000   1.0000   1.0000   1.0000   1.0000   1.0000
     1.0000   1.0000   1.0000   1.0000   1.0000   1.0000   1.0000   1.0000
     1.0000   1.0000   1.0000   1.0000   1.0000   1.0000   1.0000   1.0000
     1.0000   1.0000   1.0000   1.0000   1.0000   1.0000   1.0000   1.0000
     1.0000   1.0000   1.0000   1.0000   1.0000   1.0000   1.0000   1.0000
     1.0000   1.0000   1.0000   1.0000   1.0000   1.0000   1.0000   1.0000
     1.0000   1.0000   1.0000   1.0000   1.0000   1.0000   1.0000   1.0000
     1.0000   1.0000   1.0000   1.0000   1.0000   1.0000   1.0000   1.0000
     1.0000   1.0000   1.0000   1.0000   1.0000   1.0000   1.0000   1.0000
     1.0000   1.0000   1.0000   1.0000   1.0000   1.0000   1.0000   1.0000
     1.0000   1.0000   1.0000   1.0000   1.0000   1.0000   1.0000   1.0000
     1.0000   1.0000   1.0000   1.0000   0.9956   0.7181   0.7171   0.7023
     0.0248   0.0013   0.0013   0.0006   0.0004   0.0004   0.0001   0.0000
     0.0000   0.0000   0.0000   0.0000   0.0000   0.0000   0.0000   0.0000
     0.0000   0.0000   0.0000   0.0000   0.0000   0.0000   0.0000   0.0000
     0.0000   0.0000

          k =-0.5000 0.2600 0.0000 ( 35450 PWs)   bands (ev):

   -59.2521 -59.2520 -59.0016 -59.0004 -58.8834 -58.8451 -58.8447 -58.8126
   -58.7290 -58.7261 -58.6085 -58.5956 -29.0566 -29.0563 -28.9284 -28.9283
   -28.8022 -28.8020 -28.7513 -28.7509 -28.6898 -28.6861 -28.6629 -28.6592
   -28.6348 -28.6212 -28.5975 -28.5916 -28.5332 -28.5286 -28.5069 -28.4837
   -28.4415 -28.4046 -28.3872 -28.3751 -28.3562 -28.3309 -28.2837 -28.2667
   -28.2612 -28.2438 -28.2165 -28.1754 -28.1589 -28.1350 -28.1277 -28.1139
   -16.9731 -16.9722 -16.7204 -16.7160 -16.5800 -16.5599 -16.3627 -16.3507
   -16.0700 -16.0604 -15.8297 -15.8286 -15.5694 -15.5653 -15.4380 -15.4183
   -15.3247 -15.2937 -15.2252 -15.1827 -14.5436  -4.9043  -4.9012  -4.5920
    -4.5825  -4.3915  -4.3726  -4.2739  -4.2695  -4.1351  -4.1247  -4.0023
    -3.9565  -3.8744  -3.8595  -3.7592  -3.7458  -3.6729  -3.6473  -3.4872
    -3.4637  -3.2604  -3.2461  -3.1684  -3.1467  -2.9355  -2.9177  -2.7224
    -2.6935  -2.5680  -2.5405  -2.3415  -2.2808  -2.2352  -2.2095  -2.0310
    -2.0036  -1.9801  -1.9007  -1.7617  -1.6899  -1.6104  -1.5634  -1.4232
    -1.3758  -1.2784  -1.2426  -1.1728  -1.0753  -1.0321  -0.9061  -0.8839
    -0.7287  -0.6364  -0.5877  -0.5294  -0.5115  -0.4107  -0.4040  -0.2982
    -0.2575  -0.1117  -0.0626   0.1576   3.5363   3.9066   3.9073   4.1042
     4.4506   4.7972   4.7980   4.9924   4.9940   5.2207   5.4897   5.5130
     5.5535   5.7371   5.7807   5.9297   6.0067   6.1012   6.1575   6.2368
     6.2790   6.4172   6.5090   6.5711   6.7134   6.7796   6.9419   7.0114
     7.0716   7.1508

     occupation numbers 
     1.0000   1.0000   1.0000   1.0000   1.0000   1.0000   1.0000   1.0000
     1.0000   1.0000   1.0000   1.0000   1.0000   1.0000   1.0000   1.0000
     1.0000   1.0000   1.0000   1.0000   1.0000   1.0000   1.0000   1.0000
     1.0000   1.0000   1.0000   1.0000   1.0000   1.0000   1.0000   1.0000
     1.0000   1.0000   1.0000   1.0000   1.0000   1.0000   1.0000   1.0000
     1.0000   1.0000   1.0000   1.0000   1.0000   1.0000   1.0000   1.0000
     1.0000   1.0000   1.0000   1.0000   1.0000   1.0000   1.0000   1.0000
     1.0000   1.0000   1.0000   1.0000   1.0000   1.0000   1.0000   1.0000
     1.0000   1.0000   1.0000   1.0000   1.0000   1.0000   1.0000   1.0000
     1.0000   1.0000   1.0000   1.0000   1.0000   1.0000   1.0000   1.0000
     1.0000   1.0000   1.0000   1.0000   1.0000   1.0000   1.0000   1.0000
     1.0000   1.0000   1.0000   1.0000   1.0000   1.0000   1.0000   1.0000
     1.0000   1.0000   1.0000   1.0000   1.0000   1.0000   1.0000   1.0000
     1.0000   1.0000   1.0000   1.0000   1.0000   1.0000   1.0000   1.0000
     1.0000   1.0000   1.0000   1.0000   1.0000   1.0000   1.0000   1.0000
     1.0000   1.0000   1.0000   1.0000   1.0000   1.0000   1.0000   1.0000
     1.0000   1.0000   1.0000   1.0000   0.9860   0.8227   0.8220   0.5208
     0.0785   0.0066   0.0066   0.0016   0.0016   0.0003   0.0000   0.0000
     0.0000   0.0000   0.0000   0.0000   0.0000   0.0000   0.0000   0.0000
     0.0000   0.0000   0.0000   0.0000   0.0000   0.0000   0.0000   0.0000
     0.0000   0.0000

          k =-0.5000-0.5200 0.0000 ( 35320 PWs)   bands (ev):

   -59.2520 -59.2519 -59.0016 -59.0004 -58.8834 -58.8450 -58.8447 -58.8126
   -58.7290 -58.7261 -58.6086 -58.5957 -29.0963 -29.0960 -28.9752 -28.9751
   -28.8375 -28.8370 -28.7542 -28.7524 -28.7043 -28.7017 -28.6842 -28.6704
   -28.6427 -28.6353 -28.5861 -28.5704 -28.5319 -28.4975 -28.4930 -28.4848
   -28.4299 -28.3974 -28.3586 -28.3418 -28.3397 -28.3270 -28.2547 -28.2478
   -28.2266 -28.2226 -28.2165 -28.1733 -28.1437 -28.1289 -28.1004 -28.0944
   -16.9835 -16.9829 -16.7409 -16.7398 -16.6211 -16.6089 -16.4458 -16.4369
   -16.1308 -16.1111 -15.8611 -15.8591 -15.5352 -15.5325 -15.3770 -15.3632
   -15.2249 -15.2175 -15.1639 -15.1136 -14.4765  -4.7748  -4.7716  -4.5348
    -4.5329  -4.4005  -4.3842  -4.2387  -4.2205  -4.1183  -4.0954  -4.0218
    -4.0174  -3.9077  -3.8813  -3.8517  -3.8398  -3.6617  -3.6111  -3.2689
    -3.2246  -3.0941  -3.0534  -3.0445  -2.9433  -2.7977  -2.7958  -2.7645
    -2.7332  -2.5864  -2.5754  -2.4126  -2.3787  -2.1514  -2.0932  -2.0058
    -1.9680  -1.9222  -1.9003  -1.8340  -1.8165  -1.7327  -1.6595  -1.4733
    -1.3227  -1.2998  -1.2476  -1.2099  -1.1480  -1.0659  -0.9671  -0.8614
    -0.7815  -0.7660  -0.7225  -0.6500  -0.5122  -0.4985  -0.4543  -0.3914
    -0.2876  -0.1710  -0.1524   0.0902   3.7842   3.7934   3.7947   3.9828
     4.4786   4.4789   4.6542   5.0702   5.0781   5.1456   5.2219   5.2341
     5.4121   5.4586   5.4981   5.7534   5.8538   5.9492   6.0170   6.0816
     6.1826   6.2886   6.4651   6.5473   6.6563   6.8110   6.8872   7.0609
     7.1175   7.2714

     occupation numbers 
     1.0000   1.0000   1.0000   1.0000   1.0000   1.0000   1.0000   1.0000
     1.0000   1.0000   1.0000   1.0000   1.0000   1.0000   1.0000   1.0000
     1.0000   1.0000   1.0000   1.0000   1.0000   1.0000   1.0000   1.0000
     1.0000   1.0000   1.0000   1.0000   1.0000   1.0000   1.0000   1.0000
     1.0000   1.0000   1.0000   1.0000   1.0000   1.0000   1.0000   1.0000
     1.0000   1.0000   1.0000   1.0000   1.0000   1.0000   1.0000   1.0000
     1.0000   1.0000   1.0000   1.0000   1.0000   1.0000   1.0000   1.0000
     1.0000   1.0000   1.0000   1.0000   1.0000   1.0000   1.0000   1.0000
     1.0000   1.0000   1.0000   1.0000   1.0000   1.0000   1.0000   1.0000
     1.0000   1.0000   1.0000   1.0000   1.0000   1.0000   1.0000   1.0000
     1.0000   1.0000   1.0000   1.0000   1.0000   1.0000   1.0000   1.0000
     1.0000   1.0000   1.0000   1.0000   1.0000   1.0000   1.0000   1.0000
     1.0000   1.0000   1.0000   1.0000   1.0000   1.0000   1.0000   1.0000
     1.0000   1.0000   1.0000   1.0000   1.0000   1.0000   1.0000   1.0000
     1.0000   1.0000   1.0000   1.0000   1.0000   1.0000   1.0000   1.0000
     1.0000   1.0000   1.0000   1.0000   1.0000   1.0000   1.0000   1.0000
     1.0000   1.0000   1.0000   1.0000   0.9195   0.9143   0.9135   0.7262
     0.0648   0.0647   0.0187   0.0009   0.0008   0.0005   0.0003   0.0003
     0.0001   0.0001   0.0000   0.0000   0.0000   0.0000   0.0000   0.0000
     0.0000   0.0000   0.0000   0.0000   0.0000   0.0000   0.0000   0.0000
     0.0000   0.0000

     the Fermi energy is     4.1155 ev

!    total energy              =   -1853.43937831 Ry
     estimated scf accuracy    <       0.00000007 Ry
     smearing contrib. (-TS)   =      -0.03683212 Ry
     internal energy E=F+TS    =   -1853.40254619 Ry

     The total energy is F=E-TS. E is the sum of the following terms:
     one-electron contribution =  -41369.30898576 Ry
     hartree contribution      =   20711.76404035 Ry
     xc contribution           =    -289.32088767 Ry
     ewald contribution        =   19093.46375885 Ry
     electric field correction =      -0.00047195 Ry

     convergence has been achieved in  12 iterations

     Forces acting on atoms (cartesian axes, Ry/au):

     atom    1 type  1   force =     0.01547472   -0.01585622    0.07305276
     atom    2 type  1   force =     0.00024308   -0.00182891    0.00939453
     atom    3 type  1   force =     0.00440758   -0.00430203    0.00722201
     atom    4 type  1   force =     0.01553660    0.01582587    0.07304580
     atom    5 type  1   force =     0.00059987    0.00167841    0.00936243
     atom    6 type  1   force =    -0.00145962    0.01244052    0.01600552
     atom    7 type  1   force =    -0.00385798    0.00870313    0.01239150
     atom    8 type  1   force =    -0.00025339    0.00097617    0.00817117
     atom    9 type  1   force =     0.03056906    0.06529305   -0.02973139
     atom   10 type  1   force =    -0.00361734   -0.00881369    0.01235881
     atom   11 type  1   force =     0.00011166   -0.00103625    0.00934996
     atom   12 type  1   force =    -0.06781642   -0.03937868   -0.02266910
     atom   13 type  2   force =    -0.01628244    0.02016261   -0.02476298
     atom   14 type  2   force =    -0.00069415    0.00130055   -0.00387072
     atom   15 type  2   force =     0.01232134   -0.01431174    0.00906914
     atom   16 type  2   force =    -0.01617849   -0.02012116   -0.02495966
     atom   17 type  2   force =    -0.00047839   -0.00114625   -0.00389866
     atom   18 type  2   force =     0.00974989    0.01302568   -0.01085297
     atom   19 type  2   force =     0.00397526   -0.00229545   -0.06000661
     atom   20 type  2   force =     0.00056414   -0.00002781   -0.00461044
     atom   21 type  2   force =    -0.00495121   -0.01289694    0.02461998
     atom   22 type  2   force =     0.00078811    0.00304679   -0.00188074
     atom   23 type  2   force =     0.00144396    0.00122636   -0.00425019
     atom   24 type  2   force =     0.00072279   -0.00300379   -0.00162165
     atom   25 type  2   force =     0.00032005   -0.00069396   -0.00408314
     atom   26 type  2   force =     0.00780327   -0.00483981   -0.01494307
     atom   27 type  2   force =     0.00397830    0.00227188   -0.05999502
     atom   28 type  2   force =    -0.00067162   -0.00006297   -0.00702681
     atom   29 type  2   force =     0.00054350    0.00001741   -0.00454631
     atom   30 type  2   force =    -0.00084120    0.00000405   -0.00143571
     atom   31 type  2   force =     0.01060476   -0.01656381    0.03021053
     atom   32 type  2   force =    -0.00067263    0.00023911   -0.00690604
     atom   33 type  2   force =    -0.00198304    0.00096785   -0.00220293
     The non-local contrib.  to forces
     atom    1 type  1   force =    -0.01954733    0.01743375   -0.07727854
     atom    2 type  1   force =    -0.03043436    0.06475933    0.03305218
     atom    3 type  1   force =    -0.03357413    0.06802299    0.04117482
     atom    4 type  1   force =    -0.01940532   -0.01735559   -0.07733369
     atom    5 type  1   force =    -0.03078041   -0.06478874    0.03303440
     atom    6 type  1   force =    -0.03080117   -0.07106966    0.03177994
     atom    7 type  1   force =     0.03185464   -0.07181256    0.01823729
     atom    8 type  1   force =     0.03041040   -0.06392283    0.03383255
     atom    9 type  1   force =     0.02286541   -0.12039123    0.17823798
     atom   10 type  1   force =     0.03195040    0.07181068    0.01825941
     atom   11 type  1   force =     0.03050741    0.06417502    0.03406195
     atom   12 type  1   force =     0.10332524    0.00036800    0.19596196
     atom   13 type  2   force =    -0.08630893    0.07682380    0.03813721
     atom   14 type  2   force =    -0.05374682    0.04729822    0.03240279
     atom   15 type  2   force =    -0.04025755    0.02530056    0.03137819
     atom   16 type  2   force =    -0.08569612   -0.07632444    0.03770412
     atom   17 type  2   force =    -0.05302092   -0.04663348    0.03231262
     atom   18 type  2   force =    -0.03732606   -0.01961553    0.01319776
     atom   19 type  2   force =    -0.04578020   -0.15010761   -0.04214017
     atom   20 type  2   force =    -0.05227608   -0.14665663    0.00635982
     atom   21 type  2   force =    -0.06592371   -0.17039577    0.03796321
     atom   22 type  2   force =     0.05483382    0.04892983    0.03729819
     atom   23 type  2   force =     0.05459358    0.04701945    0.03152655
     atom   24 type  2   force =     0.05497453   -0.04921368    0.03723656
     atom   25 type  2   force =     0.05286856   -0.04646739    0.03088602
     atom   26 type  2   force =     0.15603112   -0.18279221   -0.34828060
     atom   27 type  2   force =    -0.04571603    0.15006125   -0.04213778
     atom   28 type  2   force =     0.05239832    0.14633665    0.00053708
     atom   29 type  2   force =    -0.05244719    0.14651475    0.00650932
     atom   30 type  2   force =     0.05274566    0.14662246    0.01098650
     atom   31 type  2   force =    -0.03302554    0.12951690    0.03278660
     atom   32 type  2   force =     0.05240633   -0.14652092    0.00065443
     atom   33 type  2   force =     0.04989078   -0.14495309    0.01026741
     The ionic contribution  to forces
     atom    1 type  1   force =    -1.52878969    1.02840413 -240.43983814
     atom    2 type  1   force =    -1.80752652   -2.70617109  -48.26146664
     atom    3 type  1   force =    -2.08016690   -2.55341207  146.44803213
     atom    4 type  1   force =    -1.52591253   -1.02735541 -240.44027549
     atom    5 type  1   force =    -1.80325974    2.70470518  -48.26023207
     atom    6 type  1   force =    -1.50976407    2.79267214  147.52541273
     atom    7 type  1   force =     1.80518803    2.50026901 -145.87926943
     atom    8 type  1   force =     1.77742042    2.71481741   49.31568297
     atom    9 type  1   force =    -3.63977017   -1.12285524  236.48961285
     atom   10 type  1   force =     1.81768953   -2.50024540 -145.87703271
     atom   11 type  1   force =     1.83030653   -2.71417887   49.32396988
     atom   12 type  1   force =     6.14338200   -0.87340498  236.66926921
     atom   13 type  2   force =     0.85452849    0.36071840 -108.76358352
     atom   14 type  2   force =     0.86489335    0.79730673  -12.10368864
     atom   15 type  2   force =     0.13376672    0.63241796   85.56518095
     atom   16 type  2   force =     0.85580312   -0.36221575 -108.74742842
     atom   17 type  2   force =     0.86809206   -0.79908286  -12.08692390
     atom   18 type  2   force =     1.51653527   -0.99638179   85.20486746
     atom   19 type  2   force =     0.37643209    2.31165842  -98.25256236
     atom   20 type  2   force =     0.36454556    2.42158215   -0.01251250
     atom   21 type  2   force =     0.77780180    2.59766232   97.56863101
     atom   22 type  2   force =    -0.86356699    0.78164578  -60.84012633
     atom   23 type  2   force =    -0.86254720    0.79254754   36.73380367
     atom   24 type  2   force =    -0.86708355   -0.77987057  -60.84338714
     atom   25 type  2   force =    -0.86909645   -0.80477891   36.66478145
     atom   26 type  2   force =    -1.96778115    1.53639147  123.53480572
     atom   27 type  2   force =     0.37578427   -2.31348491  -98.25420088
     atom   28 type  2   force =    -0.36310683   -2.41323561  -48.82842759
     atom   29 type  2   force =     0.36114900   -2.42145725   -0.01043828
     atom   30 type  2   force =    -0.39446927   -2.39999347   48.81108104
     atom   31 type  2   force =     0.05128081   -2.03606753   98.11603101
     atom   32 type  2   force =    -0.36232303    2.41551977  -48.82841399
     atom   33 type  2   force =    -0.32943495    2.43587331   48.75864596
     The local contribution  to forces
     atom    1 type  1   force =     1.56381980   -1.06173245  240.59000408
     atom    2 type  1   force =     1.83820716    2.63958094   48.23768201
     atom    3 type  1   force =     2.11815478    2.48108315 -146.48257007
     atom    4 type  1   force =     1.56086260    1.06056920  240.59048957
     atom    5 type  1   force =     1.83464333   -2.63824206   48.23643289
     atom    6 type  1   force =     1.53910957   -2.70916029 -147.54179078
     atom    7 type  1   force =    -1.84089728   -2.41975805  145.87316869
     atom    8 type  1   force =    -1.80808420   -2.64992275  -49.34175994
     atom    9 type  1   force =     3.64746994    1.30848959 -236.69786648
     atom   10 type  1   force =    -1.85325387    2.41961975  145.87087709
     atom   11 type  1   force =    -1.86069848    2.64896468  -49.34909646
     atom   12 type  1   force =    -6.31448981    0.83367856 -236.88819508
     atom   13 type  2   force =    -0.78449677   -0.41738265  108.70052624
     atom   14 type  2   force =    -0.81183705   -0.84331181   12.06728056
     atom   15 type  2   force =    -0.08116906   -0.67204375  -85.58785580
     atom   16 type  2   force =    -0.78628009    0.41841627  108.68460768
     atom   17 type  2   force =    -0.81554609    0.84457155   12.05057800
     atom   18 type  2   force =    -1.46947036    1.02901571  -85.22931022
     atom   19 type  2   force =    -0.32667641   -2.16384754   98.23453494
     atom   20 type  2   force =    -0.31170410   -2.27495864    0.00136791
     atom   21 type  2   force =    -0.71685765   -2.44015129  -97.58229638
     atom   22 type  2   force =     0.80952428   -0.82753153   60.80079514
     atom   23 type  2   force =     0.80940195   -0.83833969  -36.76994702
     atom   24 type  2   force =     0.81283507    0.82607706   60.80437663
     atom   25 type  2   force =     0.81655435    0.85054555  -36.70011950
     atom   26 type  2   force =     1.81952586   -1.35847755 -123.20168114
     atom   27 type  2   force =    -0.32608986    2.16569070   98.23618251
     atom   28 type  2   force =     0.31003903    2.26683326   48.82074054
     atom   29 type  2   force =    -0.30815701    2.27495908   -0.00079075
     atom   30 type  2   force =     0.34088346    2.25337459  -48.82391813
     atom   31 type  2   force =    -0.00762084    1.88999185  -98.11893673
     atom   32 type  2   force =     0.30924642   -2.26876284   48.82072999
     atom   33 type  2   force =     0.27756389   -2.28995585  -48.77153190
     The core correction contribution to forces
     atom    1 type  1   force =     0.00000000    0.00000000    0.00000000
     atom    2 type  1   force =     0.00000000    0.00000000    0.00000000
     atom    3 type  1   force =     0.00000000    0.00000000    0.00000000
     atom    4 type  1   force =     0.00000000    0.00000000    0.00000000
     atom    5 type  1   force =     0.00000000    0.00000000    0.00000000
     atom    6 type  1   force =     0.00000000    0.00000000    0.00000000
     atom    7 type  1   force =     0.00000000    0.00000000    0.00000000
     atom    8 type  1   force =     0.00000000    0.00000000    0.00000000
     atom    9 type  1   force =     0.00000000    0.00000000    0.00000000
     atom   10 type  1   force =     0.00000000    0.00000000    0.00000000
     atom   11 type  1   force =     0.00000000    0.00000000    0.00000000
     atom   12 type  1   force =     0.00000000    0.00000000    0.00000000
     atom   13 type  2   force =     0.00000000    0.00000000    0.00000000
     atom   14 type  2   force =     0.00000000    0.00000000    0.00000000
     atom   15 type  2   force =     0.00000000    0.00000000    0.00000000
     atom   16 type  2   force =     0.00000000    0.00000000    0.00000000
     atom   17 type  2   force =     0.00000000    0.00000000    0.00000000
     atom   18 type  2   force =     0.00000000    0.00000000    0.00000000
     atom   19 type  2   force =     0.00000000    0.00000000    0.00000000
     atom   20 type  2   force =     0.00000000    0.00000000    0.00000000
     atom   21 type  2   force =     0.00000000    0.00000000    0.00000000
     atom   22 type  2   force =     0.00000000    0.00000000    0.00000000
     atom   23 type  2   force =     0.00000000    0.00000000    0.00000000
     atom   24 type  2   force =     0.00000000    0.00000000    0.00000000
     atom   25 type  2   force =     0.00000000    0.00000000    0.00000000
     atom   26 type  2   force =     0.00000000    0.00000000    0.00000000
     atom   27 type  2   force =     0.00000000    0.00000000    0.00000000
     atom   28 type  2   force =     0.00000000    0.00000000    0.00000000
     atom   29 type  2   force =     0.00000000    0.00000000    0.00000000
     atom   30 type  2   force =     0.00000000    0.00000000    0.00000000
     atom   31 type  2   force =     0.00000000    0.00000000    0.00000000
     atom   32 type  2   force =     0.00000000    0.00000000    0.00000000
     atom   33 type  2   force =     0.00000000    0.00000000    0.00000000
     The Hubbard contrib.    to forces
     atom    1 type  1   force =     0.00000000    0.00000000    0.00000000
     atom    2 type  1   force =     0.00000000    0.00000000    0.00000000
     atom    3 type  1   force =     0.00000000    0.00000000    0.00000000
     atom    4 type  1   force =     0.00000000    0.00000000    0.00000000
     atom    5 type  1   force =     0.00000000    0.00000000    0.00000000
     atom    6 type  1   force =     0.00000000    0.00000000    0.00000000
     atom    7 type  1   force =     0.00000000    0.00000000    0.00000000
     atom    8 type  1   force =     0.00000000    0.00000000    0.00000000
     atom    9 type  1   force =     0.00000000    0.00000000    0.00000000
     atom   10 type  1   force =     0.00000000    0.00000000    0.00000000
     atom   11 type  1   force =     0.00000000    0.00000000    0.00000000
     atom   12 type  1   force =     0.00000000    0.00000000    0.00000000
     atom   13 type  2   force =     0.00000000    0.00000000    0.00000000
     atom   14 type  2   force =     0.00000000    0.00000000    0.00000000
     atom   15 type  2   force =     0.00000000    0.00000000    0.00000000
     atom   16 type  2   force =     0.00000000    0.00000000    0.00000000
     atom   17 type  2   force =     0.00000000    0.00000000    0.00000000
     atom   18 type  2   force =     0.00000000    0.00000000    0.00000000
     atom   19 type  2   force =     0.00000000    0.00000000    0.00000000
     atom   20 type  2   force =     0.00000000    0.00000000    0.00000000
     atom   21 type  2   force =     0.00000000    0.00000000    0.00000000
     atom   22 type  2   force =     0.00000000    0.00000000    0.00000000
     atom   23 type  2   force =     0.00000000    0.00000000    0.00000000
     atom   24 type  2   force =     0.00000000    0.00000000    0.00000000
     atom   25 type  2   force =     0.00000000    0.00000000    0.00000000
     atom   26 type  2   force =     0.00000000    0.00000000    0.00000000
     atom   27 type  2   force =     0.00000000    0.00000000    0.00000000
     atom   28 type  2   force =     0.00000000    0.00000000    0.00000000
     atom   29 type  2   force =     0.00000000    0.00000000    0.00000000
     atom   30 type  2   force =     0.00000000    0.00000000    0.00000000
     atom   31 type  2   force =     0.00000000    0.00000000    0.00000000
     atom   32 type  2   force =     0.00000000    0.00000000    0.00000000
     atom   33 type  2   force =     0.00000000    0.00000000    0.00000000
     The SCF correction term to forces
     atom    1 type  1   force =     0.00000000    0.00000000    0.00000000
     atom    2 type  1   force =     0.00000000    0.00000000    0.00000000
     atom    3 type  1   force =     0.00000000    0.00000000    0.00000000
     atom    4 type  1   force =     0.00000000    0.00000000    0.00000000
     atom    5 type  1   force =     0.00000000    0.00000000    0.00000000
     atom    6 type  1   force =     0.00000000    0.00000000    0.00000000
     atom    7 type  1   force =     0.00000000    0.00000000    0.00000000
     atom    8 type  1   force =     0.00000000    0.00000000    0.00000000
     atom    9 type  1   force =     0.00000000    0.00000000    0.00000000
     atom   10 type  1   force =     0.00000000    0.00000000    0.00000000
     atom   11 type  1   force =     0.00000000    0.00000000    0.00000000
     atom   12 type  1   force =     0.00000000    0.00000000    0.00000000
     atom   13 type  2   force =     0.00000000    0.00000000    0.00000000
     atom   14 type  2   force =     0.00000000    0.00000000    0.00000000
     atom   15 type  2   force =     0.00000000    0.00000000    0.00000000
     atom   16 type  2   force =     0.00000000    0.00000000    0.00000000
     atom   17 type  2   force =     0.00000000    0.00000000    0.00000000
     atom   18 type  2   force =     0.00000000    0.00000000    0.00000000
     atom   19 type  2   force =     0.00000000    0.00000000    0.00000000
     atom   20 type  2   force =     0.00000000    0.00000000    0.00000000
     atom   21 type  2   force =     0.00000000    0.00000000    0.00000000
     atom   22 type  2   force =     0.00000000    0.00000000    0.00000000
     atom   23 type  2   force =     0.00000000    0.00000000    0.00000000
     atom   24 type  2   force =     0.00000000    0.00000000    0.00000000
     atom   25 type  2   force =     0.00000000    0.00000000    0.00000000
     atom   26 type  2   force =     0.00003021    0.00003553    0.00017072
     atom   27 type  2   force =     0.00000000    0.00000000    0.00000000
     atom   28 type  2   force =     0.00000000    0.00000000    0.00000000
     atom   29 type  2   force =     0.00000000    0.00000000    0.00000000
     atom   30 type  2   force =     0.00000000    0.00000000    0.00000000
     atom   31 type  2   force =     0.00000000    0.00000000    0.00000000
     atom   32 type  2   force =     0.00000000    0.00000000    0.00000000
     atom   33 type  2   force =     0.00000000    0.00000000    0.00000000

     Total force =     0.017539     Total SCF correction =     0.000177
     Energy error            =      1.6E-03
     Gradient error          =      1.5E-02

     number of scf cycles    =   4
     number of bfgs steps    =   3

     energy   old            =   -1853.4377795619 Ry
     energy   new            =   -1853.4393783108 Ry

     CASE: energy  _new < energy  _old

     new trust radius        =       0.1040332901 bohr
     new conv_thr            =       0.0000001000 Ry


ATOMIC_POSITIONS (angstrom)
Hf            4.0076390000        3.7813620000        6.1529890000    0   0   0
Hf            4.0076390000        3.7813620000       11.0753320000    0   0   0
Hf            4.0076390000        3.7813620000       15.9976750000    0   0   0
Hf            1.4522770000        1.1321830000        6.1529770000    0   0   0
Hf            1.4522770000        1.1321830000       11.0753200000    0   0   0
Hf            1.4522770000        1.1321830000       15.9976630000    0   0   0
Hf            3.6579980000        1.1322110000        8.6140330000    0   0   0
Hf            3.6579980000        1.1322110000       13.5363760000    0   0   0
Hf            3.6579980000        1.1322110000       18.4587190000    0   0   0
Hf            1.1027520000        3.7813090000        8.6141070000    0   0   0
Hf            1.1027520000        3.7813090000       13.5364490000    0   0   0
Hf            1.1027520000        3.7813090000       18.4587920000    0   0   0
O             3.1707970000        2.0862730000        6.8074440000    0   0   0
O             3.1707970000        2.0862730000       11.7297860000    0   0   0
O             3.1707970000        2.0862730000       16.6521290000    0   0   0
O             0.6152330000        2.8266930000        6.8083890000    0   0   0
O             0.6152330000        2.8266930000       11.7307320000    0   0   0
O             0.6152330000        2.8266930000       16.6530750000    0   0   0
O             5.0530890000        0.2074550000        7.3799440000    0   0   0
O             5.0530890000        0.2074550000       12.3022870000    0   0   0
O             5.0530890000        0.2074550000       17.2246300000    0   0   0
O             1.9399660000        2.0865810000        9.2696970000    0   0   0
O             1.9399660000        2.0865810000       14.1920390000    0   0   0
O             4.4952530000        2.8267400000        9.2692970000    0   0   0
O             4.4952530000        2.8267400000       14.1916400000    0   0   0
O             4.5667107899        2.8069569918       18.9972056365
O             2.4978700000       -0.2075440000        7.3798460000    0   0   0
O             2.6124080000       -0.2081150000        9.8410840000    0   0   0
O             2.4978700000       -0.2075440000       12.3021890000    0   0   0
O             2.6124080000       -0.2081150000       14.7634270000    0   0   0
O             2.4978700000       -0.2075440000       17.2245320000    0   0   0
O             5.1675430000        0.2075860000        9.8410300000    0   0   0
O             5.1675430000        0.2075860000       14.7633720000    0   0   0



     Writing output data file ./hfo2.save/
     NEW-OLD atomic charge density approx. for the potential

     negative rho (up, down):  5.848E-04 0.000E+00
 
     Adding external electric field

     Computed dipole along edir(3) : 
        Elec. dipole         -2.7568 Ry au,         -7.0072 Debye
        Ion. dipole          -2.7558 Ry au,         -7.0047 Debye
        Dipole                0.4717 Ry au,          1.1991 Debye
        Dipole field          0.0010 Ry au, 
 
        E field amplitude [Ha a.u.]:  1.0000E-03
        Potential amp.        0.0001 Ry
        Total length         62.8334 bohr
 

     total cpu time spent up to now is      333.4 secs

     Self-consistent Calculation

     iteration #  1     ecut=    50.00 Ry     beta= 0.30
     Davidson diagonalization with overlap
     ethr =  1.00E-06,  avg # of iterations =  9.8

     negative rho (up, down):  3.756E-04 0.000E+00
 
     Adding external electric field

     Computed dipole along edir(3) : 
        Elec. dipole         -2.7568 Ry au,         -7.0072 Debye
        Ion. dipole          -2.7558 Ry au,         -7.0047 Debye
        Dipole                0.4710 Ry au,          1.1971 Debye
        Dipole field          0.0010 Ry au, 
 
        E field amplitude [Ha a.u.]:  1.0000E-03
        Potential amp.        0.0003 Ry
        Total length         62.8334 bohr
 

     total cpu time spent up to now is      341.9 secs

     total energy              =   -1853.44055213 Ry
     estimated scf accuracy    <       0.00667994 Ry

     iteration #  2     ecut=    50.00 Ry     beta= 0.30
     Davidson diagonalization with overlap
     ethr =  2.47E-06,  avg # of iterations =  1.0

     negative rho (up, down):  2.237E-04 0.000E+00
 
     Adding external electric field

     Computed dipole along edir(3) : 
        Elec. dipole         -2.7568 Ry au,         -7.0072 Debye
        Ion. dipole          -2.7558 Ry au,         -7.0047 Debye
        Dipole                0.4705 Ry au,          1.1959 Debye
        Dipole field          0.0010 Ry au, 
 
        E field amplitude [Ha a.u.]:  1.0000E-03
        Potential amp.        0.0004 Ry
        Total length         62.8334 bohr
 

     total cpu time spent up to now is      352.0 secs

     total energy              =   -1853.44038596 Ry
     estimated scf accuracy    <       0.00158464 Ry

     iteration #  3     ecut=    50.00 Ry     beta= 0.30
     Davidson diagonalization with overlap
     ethr =  5.87E-07,  avg # of iterations =  2.0

     negative rho (up, down):  1.111E-04 0.000E+00
 
     Adding external electric field

     Computed dipole along edir(3) : 
        Elec. dipole         -2.7568 Ry au,         -7.0072 Debye
        Ion. dipole          -2.7558 Ry au,         -7.0047 Debye
        Dipole                0.4705 Ry au,          1.1958 Debye
        Dipole field          0.0010 Ry au, 
 
        E field amplitude [Ha a.u.]:  1.0000E-03
        Potential amp.        0.0004 Ry
        Total length         62.8334 bohr
 

     total cpu time spent up to now is      355.5 secs

     total energy              =   -1853.44025574 Ry
     estimated scf accuracy    <       0.00037283 Ry

     iteration #  4     ecut=    50.00 Ry     beta= 0.30
     Davidson diagonalization with overlap
     ethr =  1.38E-07,  avg # of iterations =  4.4

     negative rho (up, down):  5.195E-05 0.000E+00
 
     Adding external electric field

     Computed dipole along edir(3) : 
        Elec. dipole         -2.7568 Ry au,         -7.0072 Debye
        Ion. dipole          -2.7558 Ry au,         -7.0047 Debye
        Dipole                0.4709 Ry au,          1.1969 Debye
        Dipole field          0.0010 Ry au, 
 
        E field amplitude [Ha a.u.]:  1.0000E-03
        Potential amp.        0.0003 Ry
        Total length         62.8334 bohr
 

     total cpu time spent up to now is      358.7 secs

     total energy              =   -1853.44030252 Ry
     estimated scf accuracy    <       0.00003744 Ry

     iteration #  5     ecut=    50.00 Ry     beta= 0.30
     Davidson diagonalization with overlap
     ethr =  1.39E-08,  avg # of iterations =  3.7

     negative rho (up, down):  2.111E-05 0.000E+00
 
     Adding external electric field

     Computed dipole along edir(3) : 
        Elec. dipole         -2.7568 Ry au,         -7.0072 Debye
        Ion. dipole          -2.7558 Ry au,         -7.0047 Debye
        Dipole                0.4714 Ry au,          1.1981 Debye
        Dipole field          0.0010 Ry au, 
 
        E field amplitude [Ha a.u.]:  1.0000E-03
        Potential amp.        0.0002 Ry
        Total length         62.8334 bohr
 

     total cpu time spent up to now is      361.5 secs

     total energy              =   -1853.44030345 Ry
     estimated scf accuracy    <       0.00002136 Ry

     iteration #  6     ecut=    50.00 Ry     beta= 0.30
     Davidson diagonalization with overlap
     ethr =  7.91E-09,  avg # of iterations =  2.4

     negative rho (up, down):  9.095E-06 0.000E+00
 
     Adding external electric field

     Computed dipole along edir(3) : 
        Elec. dipole         -2.7569 Ry au,         -7.0072 Debye
        Ion. dipole          -2.7558 Ry au,         -7.0047 Debye
        Dipole                0.4725 Ry au,          1.2010 Debye
        Dipole field          0.0010 Ry au, 
 
        E field amplitude [Ha a.u.]:  1.0000E-03
        Potential amp.       -0.0001 Ry
        Total length         62.8334 bohr
 

     total cpu time spent up to now is      364.3 secs

     total energy              =   -1853.44030291 Ry
     estimated scf accuracy    <       0.00001814 Ry

     iteration #  7     ecut=    50.00 Ry     beta= 0.30
     Davidson diagonalization with overlap
     ethr =  6.72E-09,  avg # of iterations =  2.1

     negative rho (up, down):  7.640E-06 0.000E+00
 
     Adding external electric field

     Computed dipole along edir(3) : 
        Elec. dipole         -2.7569 Ry au,         -7.0072 Debye
        Ion. dipole          -2.7558 Ry au,         -7.0047 Debye
        Dipole                0.4735 Ry au,          1.2035 Debye
        Dipole field          0.0010 Ry au, 
 
        E field amplitude [Ha a.u.]:  1.0000E-03
        Potential amp.       -0.0004 Ry
        Total length         62.8334 bohr
 

     total cpu time spent up to now is      367.1 secs

     total energy              =   -1853.44030297 Ry
     estimated scf accuracy    <       0.00000712 Ry

     iteration #  8     ecut=    50.00 Ry     beta= 0.30
     Davidson diagonalization with overlap
     ethr =  2.64E-09,  avg # of iterations =  3.5

     negative rho (up, down):  8.687E-06 0.000E+00
 
     Adding external electric field

     Computed dipole along edir(3) : 
        Elec. dipole         -2.7569 Ry au,         -7.0072 Debye
        Ion. dipole          -2.7558 Ry au,         -7.0047 Debye
        Dipole                0.4741 Ry au,          1.2052 Debye
        Dipole field          0.0010 Ry au, 
 
        E field amplitude [Ha a.u.]:  1.0000E-03
        Potential amp.       -0.0006 Ry
        Total length         62.8334 bohr
 

     total cpu time spent up to now is      370.6 secs

     total energy              =   -1853.44030324 Ry
     estimated scf accuracy    <       0.00000162 Ry

     iteration #  9     ecut=    50.00 Ry     beta= 0.30
     Davidson diagonalization with overlap
     ethr =  5.98E-10,  avg # of iterations =  4.1

     negative rho (up, down):  1.433E-05 0.000E+00
 
     Adding external electric field

     Computed dipole along edir(3) : 
        Elec. dipole         -2.7569 Ry au,         -7.0072 Debye
        Ion. dipole          -2.7558 Ry au,         -7.0047 Debye
        Dipole                0.4741 Ry au,          1.2050 Debye
        Dipole field          0.0010 Ry au, 
 
        E field amplitude [Ha a.u.]:  1.0000E-03
        Potential amp.       -0.0006 Ry
        Total length         62.8334 bohr
 

     total cpu time spent up to now is      384.4 secs

     total energy              =   -1853.44030341 Ry
     estimated scf accuracy    <       0.00000046 Ry

     iteration # 10     ecut=    50.00 Ry     beta= 0.30
     Davidson diagonalization with overlap
     ethr =  1.69E-10,  avg # of iterations =  3.9

     negative rho (up, down):  1.020E-05 0.000E+00
 
     Adding external electric field

     Computed dipole along edir(3) : 
        Elec. dipole         -2.7569 Ry au,         -7.0072 Debye
        Ion. dipole          -2.7558 Ry au,         -7.0047 Debye
        Dipole                0.4740 Ry au,          1.2047 Debye
        Dipole field          0.0010 Ry au, 
 
        E field amplitude [Ha a.u.]:  1.0000E-03
        Potential amp.       -0.0005 Ry
        Total length         62.8334 bohr
 

     total cpu time spent up to now is      404.6 secs

     total energy              =   -1853.44030347 Ry
     estimated scf accuracy    <       0.00000054 Ry

     iteration # 11     ecut=    50.00 Ry     beta= 0.30
     Davidson diagonalization with overlap
     ethr =  1.69E-10,  avg # of iterations =  2.0

     negative rho (up, down):  4.967E-06 0.000E+00
 
     Adding external electric field

     Computed dipole along edir(3) : 
        Elec. dipole         -2.7569 Ry au,         -7.0072 Debye
        Ion. dipole          -2.7558 Ry au,         -7.0047 Debye
        Dipole                0.4736 Ry au,          1.2037 Debye
        Dipole field          0.0010 Ry au, 
 
        E field amplitude [Ha a.u.]:  1.0000E-03
        Potential amp.       -0.0004 Ry
        Total length         62.8334 bohr
 

     total cpu time spent up to now is      409.5 secs

     total energy              =   -1853.44030350 Ry
     estimated scf accuracy    <       0.00000047 Ry

     iteration # 12     ecut=    50.00 Ry     beta= 0.30
     Davidson diagonalization with overlap
     ethr =  1.69E-10,  avg # of iterations =  2.0

     negative rho (up, down):  2.898E-06 0.000E+00
 
     Adding external electric field

     Computed dipole along edir(3) : 
        Elec. dipole         -2.7569 Ry au,         -7.0072 Debye
        Ion. dipole          -2.7558 Ry au,         -7.0047 Debye
        Dipole                0.4735 Ry au,          1.2034 Debye
        Dipole field          0.0010 Ry au, 
 
        E field amplitude [Ha a.u.]:  1.0000E-03
        Potential amp.       -0.0004 Ry
        Total length         62.8334 bohr
 

     total cpu time spent up to now is      413.5 secs

     total energy              =   -1853.44030352 Ry
     estimated scf accuracy    <       0.00000010 Ry

     iteration # 13     ecut=    50.00 Ry     beta= 0.30
     Davidson diagonalization with overlap
     ethr =  3.82E-11,  avg # of iterations =  2.0
 
     Adding external electric field

     Computed dipole along edir(3) : 
        Elec. dipole         -2.7569 Ry au,         -7.0072 Debye
        Ion. dipole          -2.7558 Ry au,         -7.0047 Debye
        Dipole                0.4748 Ry au,          1.2069 Debye
        Dipole field          0.0010 Ry au, 
 
        E field amplitude [Ha a.u.]:  1.0000E-03
        Potential amp.       -0.0008 Ry
        Total length         62.8334 bohr
 

     total cpu time spent up to now is      415.5 secs

     End of self-consistent calculation

          k = 0.0000 0.0000 0.0000 ( 35385 PWs)   bands (ev):

   -59.2561 -59.2427 -59.0026 -58.9872 -58.8413 -58.8313 -58.8259 -58.8084
   -58.7182 -58.7028 -58.5918 -58.5711 -29.1017 -29.0423 -28.9551 -28.8760
   -28.8300 -28.7716 -28.7662 -28.7383 -28.7002 -28.6677 -28.6488 -28.6391
   -28.6240 -28.6074 -28.5794 -28.5336 -28.5264 -28.5152 -28.4736 -28.4352
   -28.4276 -28.3767 -28.3736 -28.3672 -28.3244 -28.3175 -28.2970 -28.2746
   -28.2417 -28.1988 -28.1899 -28.1675 -28.1468 -28.1167 -28.0827 -28.0625
   -17.8379 -17.4321 -16.9252 -16.6561 -16.3956 -16.3586 -16.2173 -16.1332
   -16.0480 -16.0243 -15.9012 -15.7294 -15.5485 -15.3994 -15.3880 -15.2603
   -15.2532 -15.1326 -15.0823 -15.0112 -14.5606  -5.4540  -5.4316  -5.2618
    -5.2163  -5.0677  -4.9771  -4.6680  -4.6148  -4.4368  -4.4008  -4.2746
    -4.2291  -4.1257  -3.9052  -3.8081  -3.6419  -3.6070  -3.4431  -3.3956
    -3.3429  -3.1377  -3.0769  -2.8475  -2.8045  -2.7779  -2.6671  -2.5930
    -2.4895  -2.4351  -2.2938  -2.2228  -2.1285  -1.9874  -1.9847  -1.9584
    -1.8563  -1.7555  -1.7265  -1.7042  -1.6762  -1.6160  -1.5967  -1.2696
    -1.2392  -1.1844  -1.0656  -0.8918  -0.8673  -0.8196  -0.7120  -0.6507
    -0.5815  -0.5725  -0.3716  -0.2296  -0.1937  -0.1099   0.0705   0.1085
     0.2436   0.2581   0.3735   0.5019   2.6956   2.9339   4.1619   4.3670
     4.4272   4.8153   5.0403   5.0858   5.3381   5.4948   5.5669   5.8334
     5.9517   6.0184   6.0522   6.1934   6.2507   6.2837   6.4136   6.4580
     6.4668   6.6214   6.6498   6.7090   6.8580   6.8973   7.0029   7.0271
     7.0402   7.2091

     occupation numbers 
     1.0000   1.0000   1.0000   1.0000   1.0000   1.0000   1.0000   1.0000
     1.0000   1.0000   1.0000   1.0000   1.0000   1.0000   1.0000   1.0000
     1.0000   1.0000   1.0000   1.0000   1.0000   1.0000   1.0000   1.0000
     1.0000   1.0000   1.0000   1.0000   1.0000   1.0000   1.0000   1.0000
     1.0000   1.0000   1.0000   1.0000   1.0000   1.0000   1.0000   1.0000
     1.0000   1.0000   1.0000   1.0000   1.0000   1.0000   1.0000   1.0000
     1.0000   1.0000   1.0000   1.0000   1.0000   1.0000   1.0000   1.0000
     1.0000   1.0000   1.0000   1.0000   1.0000   1.0000   1.0000   1.0000
     1.0000   1.0000   1.0000   1.0000   1.0000   1.0000   1.0000   1.0000
     1.0000   1.0000   1.0000   1.0000   1.0000   1.0000   1.0000   1.0000
     1.0000   1.0000   1.0000   1.0000   1.0000   1.0000   1.0000   1.0000
     1.0000   1.0000   1.0000   1.0000   1.0000   1.0000   1.0000   1.0000
     1.0000   1.0000   1.0000   1.0000   1.0000   1.0000   1.0000   1.0000
     1.0000   1.0000   1.0000   1.0000   1.0000   1.0000   1.0000   1.0000
     1.0000   1.0000   1.0000   1.0000   1.0000   1.0000   1.0000   1.0000
     1.0000   1.0000   1.0000   1.0000   1.0000   1.0000   1.0000   1.0000
     1.0000   1.0000   1.0000   1.0000   1.0000   0.9998   0.4205   0.1384
     0.0935   0.0059   0.0011   0.0008   0.0001   0.0000   0.0000   0.0000
     0.0000   0.0000   0.0000   0.0000   0.0000   0.0000   0.0000   0.0000
     0.0000   0.0000   0.0000   0.0000   0.0000   0.0000   0.0000   0.0000
     0.0000   0.0000

          k = 0.0000 0.2600 0.0000 ( 35369 PWs)   bands (ev):

   -59.2544 -59.2443 -59.0009 -58.9889 -58.8395 -58.8306 -58.8276 -58.8091
   -58.7165 -58.7045 -58.5909 -58.5722 -29.0854 -28.9908 -28.9299 -28.8717
   -28.8048 -28.7785 -28.7500 -28.7204 -28.6937 -28.6722 -28.6543 -28.6433
   -28.6369 -28.5893 -28.5753 -28.5445 -28.5232 -28.5183 -28.4951 -28.4441
   -28.4223 -28.4129 -28.3963 -28.3778 -28.3580 -28.3071 -28.2746 -28.2703
   -28.2631 -28.2303 -28.2028 -28.1810 -28.1437 -28.1165 -28.1013 -28.0853
   -17.5760 -17.2206 -16.8094 -16.5952 -16.3700 -16.2884 -16.1462 -16.0858
   -16.0303 -15.9894 -15.9555 -15.7545 -15.6117 -15.5585 -15.4527 -15.4031
   -15.3589 -15.2378 -15.1458 -15.0932 -14.6146  -5.4010  -5.2652  -5.0846
    -4.9661  -4.9278  -4.7073  -4.6010  -4.5504  -4.5130  -4.3659  -4.3025
    -4.1851  -3.9444  -3.8838  -3.7037  -3.6548  -3.5704  -3.4830  -3.3923
    -3.3257  -3.2629  -3.2379  -3.0317  -2.9313  -2.8192  -2.7052  -2.6471
    -2.5387  -2.4323  -2.3439  -2.2925  -2.2127  -2.1606  -2.0521  -2.0301
    -1.9128  -1.8282  -1.6719  -1.5511  -1.4867  -1.4359  -1.3409  -1.2128
    -1.2080  -1.1122  -0.9728  -0.9215  -0.8656  -0.8174  -0.7678  -0.7307
    -0.6646  -0.5785  -0.5239  -0.4024  -0.3162  -0.2493  -0.2194  -0.1905
     0.0800   0.2153   0.3150   0.4459   3.0591   3.2976   4.2360   4.2494
     4.3779   4.8436   4.9127   5.1459   5.2199   5.2510   5.3480   5.4426
     5.6743   5.7191   5.8493   5.8776   5.9785   6.1250   6.1578   6.3617
     6.5483   6.6193   6.6921   6.7427   6.9362   6.9935   7.0721   7.1640
     7.2407   7.3316

     occupation numbers 
     1.0000   1.0000   1.0000   1.0000   1.0000   1.0000   1.0000   1.0000
     1.0000   1.0000   1.0000   1.0000   1.0000   1.0000   1.0000   1.0000
     1.0000   1.0000   1.0000   1.0000   1.0000   1.0000   1.0000   1.0000
     1.0000   1.0000   1.0000   1.0000   1.0000   1.0000   1.0000   1.0000
     1.0000   1.0000   1.0000   1.0000   1.0000   1.0000   1.0000   1.0000
     1.0000   1.0000   1.0000   1.0000   1.0000   1.0000   1.0000   1.0000
     1.0000   1.0000   1.0000   1.0000   1.0000   1.0000   1.0000   1.0000
     1.0000   1.0000   1.0000   1.0000   1.0000   1.0000   1.0000   1.0000
     1.0000   1.0000   1.0000   1.0000   1.0000   1.0000   1.0000   1.0000
     1.0000   1.0000   1.0000   1.0000   1.0000   1.0000   1.0000   1.0000
     1.0000   1.0000   1.0000   1.0000   1.0000   1.0000   1.0000   1.0000
     1.0000   1.0000   1.0000   1.0000   1.0000   1.0000   1.0000   1.0000
     1.0000   1.0000   1.0000   1.0000   1.0000   1.0000   1.0000   1.0000
     1.0000   1.0000   1.0000   1.0000   1.0000   1.0000   1.0000   1.0000
     1.0000   1.0000   1.0000   1.0000   1.0000   1.0000   1.0000   1.0000
     1.0000   1.0000   1.0000   1.0000   1.0000   1.0000   1.0000   1.0000
     1.0000   1.0000   1.0000   1.0000   0.9996   0.9976   0.2961   0.2760
     0.1291   0.0048   0.0029   0.0005   0.0003   0.0002   0.0001   0.0001
     0.0000   0.0000   0.0000   0.0000   0.0000   0.0000   0.0000   0.0000
     0.0000   0.0000   0.0000   0.0000   0.0000   0.0000   0.0000   0.0000
     0.0000   0.0000

          k = 0.0000-0.5200 0.0000 ( 35392 PWs)   bands (ev):

   -59.2518 -59.2468 -58.9984 -58.9913 -58.8370 -58.8301 -58.8297 -58.8098
   -58.7141 -58.7068 -58.5898 -58.5735 -29.0665 -28.9212 -28.8849 -28.8806
   -28.7845 -28.7792 -28.7569 -28.7198 -28.6952 -28.6761 -28.6474 -28.6324
   -28.6232 -28.5971 -28.5760 -28.5539 -28.5256 -28.5136 -28.4912 -28.4604
   -28.4548 -28.4226 -28.4157 -28.3783 -28.3650 -28.3434 -28.3080 -28.2909
   -28.2677 -28.2263 -28.1932 -28.1735 -28.1518 -28.1409 -28.1231 -28.0924
   -17.1998 -16.9091 -16.6564 -16.5318 -16.3385 -16.2142 -16.1813 -16.0681
   -16.0436 -16.0058 -15.9566 -15.9387 -15.7920 -15.6315 -15.6267 -15.4347
   -15.4247 -15.3026 -15.1991 -15.1739 -14.6662  -5.1999  -5.1288  -4.9912
    -4.7962  -4.6344  -4.5527  -4.4665  -4.4530  -4.2782  -4.2462  -4.2259
    -4.1560  -4.0567  -3.9478  -3.8817  -3.8292  -3.7681  -3.5851  -3.5484
    -3.2873  -3.2240  -3.1346  -3.0902  -2.8863  -2.8557  -2.7645  -2.6405
    -2.6016  -2.4276  -2.3666  -2.2808  -2.2197  -2.0782  -2.0108  -1.9523
    -1.8397  -1.6462  -1.5885  -1.5315  -1.4614  -1.4498  -1.3290  -1.3060
    -1.2595  -1.1752  -1.1663  -1.1054  -1.0333  -0.9557  -0.8946  -0.8303
    -0.7578  -0.6362  -0.5734  -0.5512  -0.4322  -0.3104  -0.2323  -0.2219
     0.0372   0.1599   0.3110   0.3967   3.6362   3.7982   4.0663   4.1373
     4.3666   4.5144   4.5774   5.0254   5.1029   5.2355   5.2473   5.2831
     5.4636   5.5048   5.5582   5.6810   5.7420   5.9717   6.1606   6.3043
     6.4381   6.4811   6.5792   6.8379   6.9849   7.1059   7.1354   7.1886
     7.2720   7.2832

     occupation numbers 
     1.0000   1.0000   1.0000   1.0000   1.0000   1.0000   1.0000   1.0000
     1.0000   1.0000   1.0000   1.0000   1.0000   1.0000   1.0000   1.0000
     1.0000   1.0000   1.0000   1.0000   1.0000   1.0000   1.0000   1.0000
     1.0000   1.0000   1.0000   1.0000   1.0000   1.0000   1.0000   1.0000
     1.0000   1.0000   1.0000   1.0000   1.0000   1.0000   1.0000   1.0000
     1.0000   1.0000   1.0000   1.0000   1.0000   1.0000   1.0000   1.0000
     1.0000   1.0000   1.0000   1.0000   1.0000   1.0000   1.0000   1.0000
     1.0000   1.0000   1.0000   1.0000   1.0000   1.0000   1.0000   1.0000
     1.0000   1.0000   1.0000   1.0000   1.0000   1.0000   1.0000   1.0000
     1.0000   1.0000   1.0000   1.0000   1.0000   1.0000   1.0000   1.0000
     1.0000   1.0000   1.0000   1.0000   1.0000   1.0000   1.0000   1.0000
     1.0000   1.0000   1.0000   1.0000   1.0000   1.0000   1.0000   1.0000
     1.0000   1.0000   1.0000   1.0000   1.0000   1.0000   1.0000   1.0000
     1.0000   1.0000   1.0000   1.0000   1.0000   1.0000   1.0000   1.0000
     1.0000   1.0000   1.0000   1.0000   1.0000   1.0000   1.0000   1.0000
     1.0000   1.0000   1.0000   1.0000   1.0000   1.0000   1.0000   1.0000
     1.0000   1.0000   1.0000   1.0000   0.9719   0.9131   0.5942   0.4649
     0.1388   0.0516   0.0331   0.0013   0.0007   0.0003   0.0002   0.0002
     0.0001   0.0000   0.0000   0.0000   0.0000   0.0000   0.0000   0.0000
     0.0000   0.0000   0.0000   0.0000   0.0000   0.0000   0.0000   0.0000
     0.0000   0.0000

          k = 0.2500 0.0000 0.0000 ( 35470 PWs)   bands (ev):

   -59.2541 -59.2446 -59.0004 -58.9894 -58.8390 -58.8304 -58.8282 -58.8093
   -58.7160 -58.7050 -58.5905 -58.5725 -29.0645 -29.0102 -28.9244 -28.8641
   -28.7922 -28.7899 -28.7593 -28.7186 -28.6813 -28.6632 -28.6513 -28.6389
   -28.6178 -28.6115 -28.5845 -28.5573 -28.5287 -28.5209 -28.4901 -28.4315
   -28.4198 -28.4155 -28.3986 -28.3812 -28.3457 -28.3102 -28.2915 -28.2759
   -28.2509 -28.2315 -28.2037 -28.1780 -28.1450 -28.1159 -28.1014 -28.0888
   -17.5667 -17.2083 -16.7901 -16.6567 -16.3632 -16.3409 -16.2280 -16.1508
   -16.0125 -16.0098 -15.8511 -15.7873 -15.5614 -15.5417 -15.4163 -15.3955
   -15.3195 -15.2618 -15.1716 -15.1101 -14.6181  -5.2076  -5.0821  -4.9489
    -4.8946  -4.7934  -4.6667  -4.5710  -4.5276  -4.3573  -4.3063  -4.1944
    -4.0916  -4.0346  -4.0010  -3.9249  -3.8100  -3.7254  -3.5352  -3.3892
    -3.3430  -3.2519  -3.2079  -3.0400  -3.0246  -2.8393  -2.7719  -2.5748
    -2.5194  -2.3914  -2.3408  -2.2902  -2.2265  -2.1461  -2.0376  -1.9152
    -1.8748  -1.7834  -1.7317  -1.6313  -1.5842  -1.5559  -1.5324  -1.3887
    -1.3581  -1.2676  -1.1532  -1.1052  -0.9731  -0.8725  -0.7990  -0.6561
    -0.6046  -0.5478  -0.4359  -0.4015  -0.3425  -0.1992  -0.1616  -0.0523
    -0.0230   0.0730   0.1174   0.3178   2.9618   3.2736   4.1665   4.3326
     4.6349   4.8635   4.9160   5.1594   5.1782   5.5374   5.5845   5.7177
     5.8611   5.9160   6.0521   6.1240   6.2049   6.3044   6.3621   6.4709
     6.5368   6.6255   6.6450   6.7226   6.7729   6.8809   6.9252   7.0639
     7.1509   7.2494

     occupation numbers 
     1.0000   1.0000   1.0000   1.0000   1.0000   1.0000   1.0000   1.0000
     1.0000   1.0000   1.0000   1.0000   1.0000   1.0000   1.0000   1.0000
     1.0000   1.0000   1.0000   1.0000   1.0000   1.0000   1.0000   1.0000
     1.0000   1.0000   1.0000   1.0000   1.0000   1.0000   1.0000   1.0000
     1.0000   1.0000   1.0000   1.0000   1.0000   1.0000   1.0000   1.0000
     1.0000   1.0000   1.0000   1.0000   1.0000   1.0000   1.0000   1.0000
     1.0000   1.0000   1.0000   1.0000   1.0000   1.0000   1.0000   1.0000
     1.0000   1.0000   1.0000   1.0000   1.0000   1.0000   1.0000   1.0000
     1.0000   1.0000   1.0000   1.0000   1.0000   1.0000   1.0000   1.0000
     1.0000   1.0000   1.0000   1.0000   1.0000   1.0000   1.0000   1.0000
     1.0000   1.0000   1.0000   1.0000   1.0000   1.0000   1.0000   1.0000
     1.0000   1.0000   1.0000   1.0000   1.0000   1.0000   1.0000   1.0000
     1.0000   1.0000   1.0000   1.0000   1.0000   1.0000   1.0000   1.0000
     1.0000   1.0000   1.0000   1.0000   1.0000   1.0000   1.0000   1.0000
     1.0000   1.0000   1.0000   1.0000   1.0000   1.0000   1.0000   1.0000
     1.0000   1.0000   1.0000   1.0000   1.0000   1.0000   1.0000   1.0000
     1.0000   1.0000   1.0000   1.0000   0.9998   0.9980   0.4121   0.1714
     0.0219   0.0042   0.0028   0.0005   0.0004   0.0000   0.0000   0.0000
     0.0000   0.0000   0.0000   0.0000   0.0000   0.0000   0.0000   0.0000
     0.0000   0.0000   0.0000   0.0000   0.0000   0.0000   0.0000   0.0000
     0.0000   0.0000

          k = 0.2500 0.2600 0.0000 ( 35420 PWs)   bands (ev):

   -59.2529 -59.2457 -58.9991 -58.9906 -58.8378 -58.8298 -58.8293 -58.8097
   -58.7148 -58.7061 -58.5900 -58.5731 -29.0788 -29.0169 -28.9333 -28.8762
   -28.8141 -28.7772 -28.7496 -28.7229 -28.7022 -28.6698 -28.6406 -28.6343
   -28.6241 -28.6123 -28.5868 -28.5476 -28.5257 -28.4990 -28.4738 -28.4550
   -28.4482 -28.4227 -28.3881 -28.3714 -28.3353 -28.3240 -28.2957 -28.2736
   -28.2432 -28.2192 -28.1951 -28.1624 -28.1539 -28.1306 -28.1070 -28.0699
   -17.3842 -17.0694 -16.7476 -16.6710 -16.4128 -16.3486 -16.2396 -16.1741
   -16.0276 -16.0030 -15.9089 -15.7431 -15.6277 -15.5404 -15.4689 -15.4190
   -15.3713 -15.2833 -15.1515 -15.0790 -14.6684  -5.1852  -5.0364  -4.8006
    -4.7469  -4.6851  -4.6221  -4.4973  -4.4073  -4.3280  -4.2920  -4.1941
    -4.0861  -3.9983  -3.9472  -3.8492  -3.6363  -3.5254  -3.4075  -3.3429
    -3.3135  -3.2598  -3.1927  -3.1305  -3.0130  -2.9796  -2.8764  -2.7459
    -2.5301  -2.4521  -2.3779  -2.3114  -2.2224  -2.1577  -2.0853  -1.8979
    -1.8112  -1.7775  -1.7328  -1.6202  -1.5706  -1.4953  -1.4308  -1.3961
    -1.3160  -1.2478  -1.1451  -1.0699  -1.0232  -0.9772  -0.9334  -0.7833
    -0.6795  -0.6429  -0.5496  -0.4530  -0.4446  -0.3931  -0.2545  -0.1609
    -0.1141  -0.0059   0.1139   0.3044   3.1583   3.4922   4.0793   4.1323
     4.5998   4.7783   4.8719   5.0463   5.1715   5.2161   5.3703   5.4815
     5.5793   5.7673   5.8401   5.9066   6.0180   6.0890   6.1398   6.3673
     6.4296   6.6101   6.6921   6.7498   6.7671   6.9237   6.9983   7.1288
     7.2102   7.2513

     occupation numbers 
     1.0000   1.0000   1.0000   1.0000   1.0000   1.0000   1.0000   1.0000
     1.0000   1.0000   1.0000   1.0000   1.0000   1.0000   1.0000   1.0000
     1.0000   1.0000   1.0000   1.0000   1.0000   1.0000   1.0000   1.0000
     1.0000   1.0000   1.0000   1.0000   1.0000   1.0000   1.0000   1.0000
     1.0000   1.0000   1.0000   1.0000   1.0000   1.0000   1.0000   1.0000
     1.0000   1.0000   1.0000   1.0000   1.0000   1.0000   1.0000   1.0000
     1.0000   1.0000   1.0000   1.0000   1.0000   1.0000   1.0000   1.0000
     1.0000   1.0000   1.0000   1.0000   1.0000   1.0000   1.0000   1.0000
     1.0000   1.0000   1.0000   1.0000   1.0000   1.0000   1.0000   1.0000
     1.0000   1.0000   1.0000   1.0000   1.0000   1.0000   1.0000   1.0000
     1.0000   1.0000   1.0000   1.0000   1.0000   1.0000   1.0000   1.0000
     1.0000   1.0000   1.0000   1.0000   1.0000   1.0000   1.0000   1.0000
     1.0000   1.0000   1.0000   1.0000   1.0000   1.0000   1.0000   1.0000
     1.0000   1.0000   1.0000   1.0000   1.0000   1.0000   1.0000   1.0000
     1.0000   1.0000   1.0000   1.0000   1.0000   1.0000   1.0000   1.0000
     1.0000   1.0000   1.0000   1.0000   1.0000   1.0000   1.0000   1.0000
     1.0000   1.0000   1.0000   1.0000   0.9991   0.9901   0.5711   0.4741
     0.0282   0.0078   0.0039   0.0011   0.0004   0.0003   0.0001   0.0000
     0.0000   0.0000   0.0000   0.0000   0.0000   0.0000   0.0000   0.0000
     0.0000   0.0000   0.0000   0.0000   0.0000   0.0000   0.0000   0.0000
     0.0000   0.0000

          k = 0.2500-0.5200 0.0000 ( 35366 PWs)   bands (ev):

   -59.2511 -59.2475 -58.9974 -58.9923 -58.8360 -58.8311 -58.8295 -58.8100
   -58.7132 -58.7077 -58.5895 -58.5738 -29.0850 -29.0277 -28.9339 -28.9155
   -28.7909 -28.7872 -28.7525 -28.7419 -28.6922 -28.6759 -28.6559 -28.6489
   -28.6169 -28.6035 -28.5974 -28.5705 -28.5268 -28.5157 -28.4934 -28.4613
   -28.4264 -28.3923 -28.3789 -28.3603 -28.3444 -28.3081 -28.2826 -28.2525
   -28.2430 -28.2178 -28.1937 -28.1544 -28.1360 -28.1200 -28.1056 -28.0924
   -17.1420 -16.8736 -16.7187 -16.6793 -16.4619 -16.3922 -16.3167 -16.2600
   -16.1251 -16.0446 -15.9976 -15.7389 -15.6883 -15.5494 -15.4374 -15.4014
   -15.3133 -15.2714 -15.1751 -15.1233 -14.5898  -5.0552  -5.0221  -4.8166
    -4.6091  -4.5759  -4.4834  -4.3407  -4.3158  -4.2115  -4.1703  -4.0894
    -4.0358  -3.9376  -3.8716  -3.7881  -3.7413  -3.6373  -3.5647  -3.4263
    -3.3475  -3.3087  -3.0076  -2.9635  -2.9006  -2.7958  -2.7312  -2.6629
    -2.6076  -2.4622  -2.4086  -2.3538  -2.2859  -2.2643  -2.2121  -2.0452
    -1.9471  -1.8967  -1.8593  -1.7246  -1.5909  -1.4999  -1.3971  -1.3835
    -1.3324  -1.2393  -1.1915  -1.1264  -1.0323  -0.9881  -0.8850  -0.8471
    -0.7432  -0.7168  -0.6014  -0.5568  -0.4907  -0.4351  -0.2909  -0.2281
    -0.2162  -0.0674   0.1042   0.2854   3.6703   3.7264   4.0450   4.1243
     4.4661   4.4838   4.6657   4.9805   5.0247   5.0977   5.1629   5.3022
     5.3825   5.4613   5.6008   5.6968   5.7670   5.9868   6.1116   6.1793
     6.3716   6.4752   6.6647   6.7115   6.8667   6.9568   7.0308   7.1883
     7.2306   7.2803

     occupation numbers 
     1.0000   1.0000   1.0000   1.0000   1.0000   1.0000   1.0000   1.0000
     1.0000   1.0000   1.0000   1.0000   1.0000   1.0000   1.0000   1.0000
     1.0000   1.0000   1.0000   1.0000   1.0000   1.0000   1.0000   1.0000
     1.0000   1.0000   1.0000   1.0000   1.0000   1.0000   1.0000   1.0000
     1.0000   1.0000   1.0000   1.0000   1.0000   1.0000   1.0000   1.0000
     1.0000   1.0000   1.0000   1.0000   1.0000   1.0000   1.0000   1.0000
     1.0000   1.0000   1.0000   1.0000   1.0000   1.0000   1.0000   1.0000
     1.0000   1.0000   1.0000   1.0000   1.0000   1.0000   1.0000   1.0000
     1.0000   1.0000   1.0000   1.0000   1.0000   1.0000   1.0000   1.0000
     1.0000   1.0000   1.0000   1.0000   1.0000   1.0000   1.0000   1.0000
     1.0000   1.0000   1.0000   1.0000   1.0000   1.0000   1.0000   1.0000
     1.0000   1.0000   1.0000   1.0000   1.0000   1.0000   1.0000   1.0000
     1.0000   1.0000   1.0000   1.0000   1.0000   1.0000   1.0000   1.0000
     1.0000   1.0000   1.0000   1.0000   1.0000   1.0000   1.0000   1.0000
     1.0000   1.0000   1.0000   1.0000   1.0000   1.0000   1.0000   1.0000
     1.0000   1.0000   1.0000   1.0000   1.0000   1.0000   1.0000   1.0000
     1.0000   1.0000   1.0000   1.0000   0.9642   0.9468   0.6313   0.4887
     0.0720   0.0637   0.0176   0.0018   0.0013   0.0007   0.0005   0.0002
     0.0001   0.0001   0.0000   0.0000   0.0000   0.0000   0.0000   0.0000
     0.0000   0.0000   0.0000   0.0000   0.0000   0.0000   0.0000   0.0000
     0.0000   0.0000

          k = 0.2500-0.2600 0.0000 ( 35420 PWs)   bands (ev):

   -59.2529 -59.2457 -58.9991 -58.9906 -58.8378 -58.8301 -58.8293 -58.8095
   -58.7148 -58.7061 -58.5900 -58.5731 -29.0788 -29.0169 -28.9333 -28.8762
   -28.8140 -28.7773 -28.7497 -28.7240 -28.7024 -28.6737 -28.6572 -28.6381
   -28.6313 -28.6167 -28.5870 -28.5639 -28.5368 -28.4987 -28.4776 -28.4618
   -28.4288 -28.4135 -28.3856 -28.3540 -28.3329 -28.3156 -28.2997 -28.2569
   -28.2311 -28.2192 -28.1985 -28.1694 -28.1447 -28.1377 -28.0981 -28.0733
   -17.3847 -17.0818 -16.7711 -16.6718 -16.4252 -16.3572 -16.2536 -16.1964
   -16.0483 -16.0202 -15.9092 -15.7440 -15.6278 -15.5387 -15.4363 -15.4096
   -15.3219 -15.2880 -15.1745 -15.1194 -14.5447  -5.1836  -5.0350  -4.7908
    -4.7465  -4.6959  -4.6297  -4.4809  -4.4027  -4.3421  -4.2862  -4.1906
    -4.1024  -3.9928  -3.9391  -3.8446  -3.6239  -3.5115  -3.3845  -3.3413
    -3.3186  -3.2461  -3.1806  -3.1393  -3.0214  -2.9502  -2.8449  -2.7458
    -2.5574  -2.5133  -2.3932  -2.3225  -2.1806  -2.1326  -2.0587  -1.9675
    -1.8968  -1.7891  -1.7651  -1.6581  -1.5961  -1.5211  -1.4522  -1.4167
    -1.2890  -1.2568  -1.1879  -1.1082  -1.0187  -0.9841  -0.8347  -0.7743
    -0.6553  -0.5949  -0.4925  -0.4487  -0.4270  -0.3961  -0.2926  -0.1570
    -0.1198   0.0067   0.1299   0.2846   3.3611   3.4926   4.0796   4.3278
     4.4704   4.6000   4.8713   5.1658   5.2120   5.2881   5.4741   5.5551
     5.6780   5.8026   5.8648   5.9305   5.9761   6.0311   6.1888   6.2373
     6.3685   6.4748   6.6291   6.7273   6.7715   6.8989   7.0240   7.0724
     7.1497   7.2151

     occupation numbers 
     1.0000   1.0000   1.0000   1.0000   1.0000   1.0000   1.0000   1.0000
     1.0000   1.0000   1.0000   1.0000   1.0000   1.0000   1.0000   1.0000
     1.0000   1.0000   1.0000   1.0000   1.0000   1.0000   1.0000   1.0000
     1.0000   1.0000   1.0000   1.0000   1.0000   1.0000   1.0000   1.0000
     1.0000   1.0000   1.0000   1.0000   1.0000   1.0000   1.0000   1.0000
     1.0000   1.0000   1.0000   1.0000   1.0000   1.0000   1.0000   1.0000
     1.0000   1.0000   1.0000   1.0000   1.0000   1.0000   1.0000   1.0000
     1.0000   1.0000   1.0000   1.0000   1.0000   1.0000   1.0000   1.0000
     1.0000   1.0000   1.0000   1.0000   1.0000   1.0000   1.0000   1.0000
     1.0000   1.0000   1.0000   1.0000   1.0000   1.0000   1.0000   1.0000
     1.0000   1.0000   1.0000   1.0000   1.0000   1.0000   1.0000   1.0000
     1.0000   1.0000   1.0000   1.0000   1.0000   1.0000   1.0000   1.0000
     1.0000   1.0000   1.0000   1.0000   1.0000   1.0000   1.0000   1.0000
     1.0000   1.0000   1.0000   1.0000   1.0000   1.0000   1.0000   1.0000
     1.0000   1.0000   1.0000   1.0000   1.0000   1.0000   1.0000   1.0000
     1.0000   1.0000   1.0000   1.0000   1.0000   1.0000   1.0000   1.0000
     1.0000   1.0000   1.0000   1.0000   0.9962   0.9900   0.5705   0.1765
     0.0699   0.0282   0.0039   0.0005   0.0003   0.0002   0.0000   0.0000
     0.0000   0.0000   0.0000   0.0000   0.0000   0.0000   0.0000   0.0000
     0.0000   0.0000   0.0000   0.0000   0.0000   0.0000   0.0000   0.0000
     0.0000   0.0000

          k =-0.5000 0.0000 0.0000 ( 35502 PWs)   bands (ev):

   -59.2494 -59.2493 -58.9955 -58.9943 -58.8337 -58.8334 -58.8293 -58.8103
   -58.7118 -58.7092 -58.5891 -58.5741 -28.9976 -28.9973 -28.8714 -28.8712
   -28.7833 -28.7830 -28.7160 -28.7159 -28.6846 -28.6845 -28.6504 -28.6503
   -28.5928 -28.5819 -28.5773 -28.5713 -28.5408 -28.5400 -28.4860 -28.4844
   -28.4273 -28.4219 -28.4026 -28.4005 -28.3650 -28.3487 -28.2869 -28.2807
   -28.2713 -28.2302 -28.1978 -28.1884 -28.1641 -28.1248 -28.1234 -28.0975
   -16.9614 -16.9604 -16.6852 -16.6789 -16.4988 -16.4790 -16.2584 -16.2411
   -15.9939 -15.9822 -15.7964 -15.7958 -15.5854 -15.5849 -15.4612 -15.4590
   -15.4091 -15.3554 -15.3097 -15.2487 -14.6776  -4.8434  -4.8425  -4.5918
    -4.5907  -4.4195  -4.4085  -4.2923  -4.2832  -4.1950  -4.1847  -4.0530
    -3.9877  -3.8778  -3.8719  -3.7913  -3.7841  -3.6751  -3.6538  -3.5438
    -3.5288  -3.4222  -3.4115  -3.3145  -3.2989  -3.1821  -3.1391  -2.7472
    -2.6828  -2.5471  -2.4799  -2.3738  -2.3194  -2.1952  -2.1587  -2.0749
    -1.9652  -1.8370  -1.7638  -1.6651  -1.6158  -1.5350  -1.3664  -1.3441
    -1.2852  -1.2480  -1.1414  -1.0821  -1.0406  -0.9293  -0.7833  -0.7164
    -0.7075  -0.6204  -0.5508  -0.4512  -0.4107  -0.4037  -0.3951  -0.2306
    -0.2035  -0.1158  -0.0867   0.2323   3.3775   3.9888   3.9914   3.9928
     4.6225   5.0199   5.0205   5.0989   5.1843   5.1847   5.4206   5.8518
     5.8530   5.9199   5.9246   6.0306   6.1400   6.1839   6.3125   6.3935
     6.4816   6.6045   6.6754   6.7653   6.8188   7.0089   7.0272   7.0738
     7.0885   7.1212

     occupation numbers 
     1.0000   1.0000   1.0000   1.0000   1.0000   1.0000   1.0000   1.0000
     1.0000   1.0000   1.0000   1.0000   1.0000   1.0000   1.0000   1.0000
     1.0000   1.0000   1.0000   1.0000   1.0000   1.0000   1.0000   1.0000
     1.0000   1.0000   1.0000   1.0000   1.0000   1.0000   1.0000   1.0000
     1.0000   1.0000   1.0000   1.0000   1.0000   1.0000   1.0000   1.0000
     1.0000   1.0000   1.0000   1.0000   1.0000   1.0000   1.0000   1.0000
     1.0000   1.0000   1.0000   1.0000   1.0000   1.0000   1.0000   1.0000
     1.0000   1.0000   1.0000   1.0000   1.0000   1.0000   1.0000   1.0000
     1.0000   1.0000   1.0000   1.0000   1.0000   1.0000   1.0000   1.0000
     1.0000   1.0000   1.0000   1.0000   1.0000   1.0000   1.0000   1.0000
     1.0000   1.0000   1.0000   1.0000   1.0000   1.0000   1.0000   1.0000
     1.0000   1.0000   1.0000   1.0000   1.0000   1.0000   1.0000   1.0000
     1.0000   1.0000   1.0000   1.0000   1.0000   1.0000   1.0000   1.0000
     1.0000   1.0000   1.0000   1.0000   1.0000   1.0000   1.0000   1.0000
     1.0000   1.0000   1.0000   1.0000   1.0000   1.0000   1.0000   1.0000
     1.0000   1.0000   1.0000   1.0000   1.0000   1.0000   1.0000   1.0000
     1.0000   1.0000   1.0000   1.0000   0.9957   0.7214   0.7175   0.7154
     0.0240   0.0013   0.0013   0.0007   0.0004   0.0004   0.0001   0.0000
     0.0000   0.0000   0.0000   0.0000   0.0000   0.0000   0.0000   0.0000
     0.0000   0.0000   0.0000   0.0000   0.0000   0.0000   0.0000   0.0000
     0.0000   0.0000

          k =-0.5000 0.2600 0.0000 ( 35450 PWs)   bands (ev):

   -59.2494 -59.2493 -58.9955 -58.9942 -58.8337 -58.8334 -58.8293 -58.8102
   -58.7118 -58.7091 -58.5891 -58.5742 -29.0526 -29.0523 -28.9218 -28.9218
   -28.7937 -28.7934 -28.7431 -28.7428 -28.6783 -28.6765 -28.6511 -28.6481
   -28.6199 -28.6042 -28.5892 -28.5793 -28.5254 -28.5215 -28.4959 -28.4711
   -28.4302 -28.3910 -28.3748 -28.3624 -28.3417 -28.3149 -28.2645 -28.2482
   -28.2436 -28.2223 -28.2011 -28.1557 -28.1391 -28.1174 -28.1061 -28.0949
   -16.9672 -16.9663 -16.7069 -16.7031 -16.5633 -16.5439 -16.3491 -16.3363
   -16.0554 -16.0439 -15.8240 -15.8227 -15.5598 -15.5554 -15.4247 -15.4038
   -15.3089 -15.2741 -15.2064 -15.1546 -14.5945  -4.8941  -4.8910  -4.5820
    -4.5721  -4.3818  -4.3607  -4.2609  -4.2561  -4.1240  -4.1126  -3.9931
    -3.9399  -3.8642  -3.8455  -3.7502  -3.7346  -3.6611  -3.6348  -3.4755
    -3.4496  -3.2517  -3.2351  -3.1502  -3.1291  -2.9240  -2.9048  -2.7147
    -2.6828  -2.5600  -2.5315  -2.3364  -2.2713  -2.2281  -2.1962  -2.0277
    -1.9899  -1.9743  -1.8901  -1.7617  -1.6816  -1.6001  -1.5485  -1.4184
    -1.3648  -1.2798  -1.2333  -1.1728  -1.0706  -1.0236  -0.9004  -0.8717
    -0.7279  -0.6363  -0.5845  -0.5368  -0.4983  -0.4091  -0.3932  -0.2907
    -0.2445  -0.0982  -0.0470   0.1838   3.5401   3.9095   3.9101   4.0987
     4.4461   4.8005   4.8013   4.9969   4.9985   5.2143   5.5040   5.5197
     5.5659   5.7513   5.7915   5.9471   6.0131   6.1172   6.1754   6.2453
     6.2955   6.4442   6.5267   6.5933   6.7257   6.7958   6.9635   7.0274
     7.0846   7.1650

     occupation numbers 
     1.0000   1.0000   1.0000   1.0000   1.0000   1.0000   1.0000   1.0000
     1.0000   1.0000   1.0000   1.0000   1.0000   1.0000   1.0000   1.0000
     1.0000   1.0000   1.0000   1.0000   1.0000   1.0000   1.0000   1.0000
     1.0000   1.0000   1.0000   1.0000   1.0000   1.0000   1.0000   1.0000
     1.0000   1.0000   1.0000   1.0000   1.0000   1.0000   1.0000   1.0000
     1.0000   1.0000   1.0000   1.0000   1.0000   1.0000   1.0000   1.0000
     1.0000   1.0000   1.0000   1.0000   1.0000   1.0000   1.0000   1.0000
     1.0000   1.0000   1.0000   1.0000   1.0000   1.0000   1.0000   1.0000
     1.0000   1.0000   1.0000   1.0000   1.0000   1.0000   1.0000   1.0000
     1.0000   1.0000   1.0000   1.0000   1.0000   1.0000   1.0000   1.0000
     1.0000   1.0000   1.0000   1.0000   1.0000   1.0000   1.0000   1.0000
     1.0000   1.0000   1.0000   1.0000   1.0000   1.0000   1.0000   1.0000
     1.0000   1.0000   1.0000   1.0000   1.0000   1.0000   1.0000   1.0000
     1.0000   1.0000   1.0000   1.0000   1.0000   1.0000   1.0000   1.0000
     1.0000   1.0000   1.0000   1.0000   1.0000   1.0000   1.0000   1.0000
     1.0000   1.0000   1.0000   1.0000   1.0000   1.0000   1.0000   1.0000
     1.0000   1.0000   1.0000   1.0000   0.9859   0.8226   0.8219   0.5358
     0.0824   0.0066   0.0066   0.0016   0.0015   0.0003   0.0000   0.0000
     0.0000   0.0000   0.0000   0.0000   0.0000   0.0000   0.0000   0.0000
     0.0000   0.0000   0.0000   0.0000   0.0000   0.0000   0.0000   0.0000
     0.0000   0.0000

          k =-0.5000-0.5200 0.0000 ( 35320 PWs)   bands (ev):

   -59.2493 -59.2492 -58.9954 -58.9942 -58.8337 -58.8333 -58.8292 -58.8102
   -58.7118 -58.7091 -58.5892 -58.5742 -29.0922 -29.0919 -28.9685 -28.9685
   -28.8267 -28.8263 -28.7436 -28.7423 -28.6937 -28.6924 -28.6666 -28.6553
   -28.6375 -28.6247 -28.5787 -28.5608 -28.5219 -28.4894 -28.4867 -28.4721
   -28.4185 -28.3830 -28.3429 -28.3294 -28.3279 -28.3084 -28.2381 -28.2226
   -28.2105 -28.2054 -28.1992 -28.1556 -28.1186 -28.1155 -28.0802 -28.0739
   -16.9779 -16.9773 -16.7293 -16.7282 -16.6020 -16.5921 -16.4360 -16.4193
   -16.1206 -16.0932 -15.8547 -15.8517 -15.5256 -15.5227 -15.3639 -15.3500
   -15.2084 -15.2022 -15.1447 -15.0844 -14.5215  -4.7644  -4.7613  -4.5264
    -4.5246  -4.3866  -4.3699  -4.2242  -4.2052  -4.1081  -4.0840  -4.0094
    -4.0047  -3.8950  -3.8673  -3.8405  -3.8235  -3.6480  -3.5981  -3.2584
    -3.2095  -3.0897  -3.0452  -3.0354  -2.9245  -2.7886  -2.7862  -2.7556
    -2.7196  -2.5765  -2.5649  -2.4024  -2.3650  -2.1453  -2.0799  -1.9935
    -1.9528  -1.9145  -1.8895  -1.8218  -1.8036  -1.7258  -1.6438  -1.4974
    -1.3119  -1.2928  -1.2378  -1.2033  -1.1380  -1.0730  -0.9736  -0.8611
    -0.7786  -0.7639  -0.7202  -0.6397  -0.5014  -0.4942  -0.4527  -0.3786
    -0.2924  -0.1548  -0.1422   0.1212   3.7879   3.7964   3.7976   3.9896
     4.4821   4.4824   4.6304   5.0737   5.0835   5.1412   5.2323   5.2453
     5.4238   5.4952   5.5092   5.7614   5.8666   5.9629   6.0796   6.0919
     6.2005   6.3244   6.4836   6.5615   6.6619   6.8205   6.8954   7.0693
     7.1251   7.2844

     occupation numbers 
     1.0000   1.0000   1.0000   1.0000   1.0000   1.0000   1.0000   1.0000
     1.0000   1.0000   1.0000   1.0000   1.0000   1.0000   1.0000   1.0000
     1.0000   1.0000   1.0000   1.0000   1.0000   1.0000   1.0000   1.0000
     1.0000   1.0000   1.0000   1.0000   1.0000   1.0000   1.0000   1.0000
     1.0000   1.0000   1.0000   1.0000   1.0000   1.0000   1.0000   1.0000
     1.0000   1.0000   1.0000   1.0000   1.0000   1.0000   1.0000   1.0000
     1.0000   1.0000   1.0000   1.0000   1.0000   1.0000   1.0000   1.0000
     1.0000   1.0000   1.0000   1.0000   1.0000   1.0000   1.0000   1.0000
     1.0000   1.0000   1.0000   1.0000   1.0000   1.0000   1.0000   1.0000
     1.0000   1.0000   1.0000   1.0000   1.0000   1.0000   1.0000   1.0000
     1.0000   1.0000   1.0000   1.0000   1.0000   1.0000   1.0000   1.0000
     1.0000   1.0000   1.0000   1.0000   1.0000   1.0000   1.0000   1.0000
     1.0000   1.0000   1.0000   1.0000   1.0000   1.0000   1.0000   1.0000
     1.0000   1.0000   1.0000   1.0000   1.0000   1.0000   1.0000   1.0000
     1.0000   1.0000   1.0000   1.0000   1.0000   1.0000   1.0000   1.0000
     1.0000   1.0000   1.0000   1.0000   1.0000   1.0000   1.0000   1.0000
     1.0000   1.0000   1.0000   1.0000   0.9189   0.9141   0.9134   0.7201
     0.0645   0.0644   0.0226   0.0009   0.0008   0.0005   0.0003   0.0003
     0.0001   0.0000   0.0000   0.0000   0.0000   0.0000   0.0000   0.0000
     0.0000   0.0000   0.0000   0.0000   0.0000   0.0000   0.0000   0.0000
     0.0000   0.0000

     the Fermi energy is     4.1182 ev

!    total energy              =   -1853.44030349 Ry
     estimated scf accuracy    <       0.00000003 Ry
     smearing contrib. (-TS)   =      -0.03681505 Ry
     internal energy E=F+TS    =   -1853.40348844 Ry

     The total energy is F=E-TS. E is the sum of the following terms:
     one-electron contribution =  -41391.56351737 Ry
     hartree contribution      =   20723.00445273 Ry
     xc contribution           =    -289.34417229 Ry
     ewald contribution        =   19104.50022042 Ry
     electric field correction =      -0.00047193 Ry

     convergence has been achieved in  13 iterations

     Forces acting on atoms (cartesian axes, Ry/au):

     atom    1 type  1   force =     0.01547962   -0.01587627    0.07320743
     atom    2 type  1   force =     0.00024727   -0.00185213    0.00984838
     atom    3 type  1   force =     0.00551309   -0.00482664    0.00818855
     atom    4 type  1   force =     0.01554148    0.01584416    0.07320035
     atom    5 type  1   force =     0.00060934    0.00169993    0.00981969
     atom    6 type  1   force =    -0.00224176    0.01336032    0.01555587
     atom    7 type  1   force =    -0.00385241    0.00872649    0.01281582
     atom    8 type  1   force =    -0.00027075    0.00102892    0.00859931
     atom    9 type  1   force =     0.03016416    0.06026771   -0.03430457
     atom   10 type  1   force =    -0.00361165   -0.00883867    0.01278281
     atom   11 type  1   force =     0.00011784   -0.00113283    0.01002596
     atom   12 type  1   force =    -0.05925564   -0.03586652   -0.02673983
     atom   13 type  2   force =    -0.01630600    0.02018731   -0.02490752
     atom   14 type  2   force =    -0.00071495    0.00135020   -0.00412207
     atom   15 type  2   force =     0.01136754   -0.01491423    0.00872488
     atom   16 type  2   force =    -0.01620165   -0.02014750   -0.02510415
     atom   17 type  2   force =    -0.00050844   -0.00120117   -0.00414599
     atom   18 type  2   force =     0.01196535    0.01263422   -0.01530835
     atom   19 type  2   force =     0.00399591   -0.00230581   -0.06015620
     atom   20 type  2   force =     0.00058961   -0.00004282   -0.00484651
     atom   21 type  2   force =    -0.00478305   -0.01132316    0.02410492
     atom   22 type  2   force =     0.00081743    0.00308943   -0.00209731
     atom   23 type  2   force =     0.00153096    0.00111661   -0.00460037
     atom   24 type  2   force =     0.00075179   -0.00304815   -0.00183875
     atom   25 type  2   force =     0.00021806   -0.00077395   -0.00432981
     atom   26 type  2   force =    -0.00329990   -0.00570732   -0.00090376
     atom   27 type  2   force =     0.00399887    0.00228040   -0.06014478
     atom   28 type  2   force =    -0.00069222   -0.00005304   -0.00725440
     atom   29 type  2   force =     0.00057100    0.00002379   -0.00478664
     atom   30 type  2   force =    -0.00078681   -0.00000906   -0.00171831
     atom   31 type  2   force =     0.01181220   -0.01493924    0.03002187
     atom   32 type  2   force =    -0.00069291    0.00022751   -0.00713335
     atom   33 type  2   force =    -0.00207339    0.00102151   -0.00245317
     The non-local contrib.  to forces
     atom    1 type  1   force =    -0.01955154    0.01743143   -0.07739959
     atom    2 type  1   force =    -0.03042586    0.06476688    0.03268451
     atom    3 type  1   force =    -0.03410105    0.06832096    0.04083051
     atom    4 type  1   force =    -0.01940953   -0.01735321   -0.07745480
     atom    5 type  1   force =    -0.03077460   -0.06479494    0.03266308
     atom    6 type  1   force =    -0.03031593   -0.07167663    0.03185541
     atom    7 type  1   force =     0.03184864   -0.07181512    0.01797188
     atom    8 type  1   force =     0.03043653   -0.06394962    0.03343693
     atom    9 type  1   force =     0.01825054   -0.11926821    0.18349140
     atom   10 type  1   force =     0.03194423    0.07181323    0.01799405
     atom   11 type  1   force =     0.03049886    0.06421465    0.03357428
     atom   12 type  1   force =     0.10916179    0.00616731    0.19637104
     atom   13 type  2   force =    -0.08632536    0.07685127    0.03791935
     atom   14 type  2   force =    -0.05376275    0.04733179    0.03195036
     atom   15 type  2   force =    -0.04185534    0.02451737    0.03073678
     atom   16 type  2   force =    -0.08571246   -0.07635190    0.03748634
     atom   17 type  2   force =    -0.05305161   -0.04667233    0.03186292
     atom   18 type  2   force =    -0.03345064   -0.01862914    0.00750403
     atom   19 type  2   force =    -0.04576494   -0.15011385   -0.04240344
     atom   20 type  2   force =    -0.05225850   -0.14667296    0.00589840
     atom   21 type  2   force =    -0.06567130   -0.16835928    0.03748652
     atom   22 type  2   force =     0.05485682    0.04896430    0.03691412
     atom   23 type  2   force =     0.05472583    0.04679291    0.03089964
     atom   24 type  2   force =     0.05499715   -0.04924752    0.03685166
     atom   25 type  2   force =     0.05262411   -0.04645526    0.03038591
     atom   26 type  2   force =     0.16167946   -0.17089456   -0.32459276
     atom   27 type  2   force =    -0.04570074    0.15006743   -0.04240130
     atom   28 type  2   force =     0.05237927    0.14634571    0.00011124
     atom   29 type  2   force =    -0.05242569    0.14652005    0.00604270
     atom   30 type  2   force =     0.05285902    0.14660489    0.01052307
     atom   31 type  2   force =    -0.03108214    0.13193528    0.03268154
     atom   32 type  2   force =     0.05238711   -0.14652985    0.00022934
     atom   33 type  2   force =     0.04978724   -0.14490183    0.00981244
     The ionic contribution  to forces
     atom    1 type  1   force =    -1.52878986    1.02840422 -240.46677761
     atom    2 type  1   force =    -1.80759839   -2.70612261  -48.28843949
     atom    3 type  1   force =    -2.11425091   -2.52105622  146.40769771
     atom    4 type  1   force =    -1.52591236   -1.02735549 -240.46721479
     atom    5 type  1   force =    -1.80318901    2.70466138  -48.28712720
     atom    6 type  1   force =    -1.48512872    2.77476383  147.51700196
     atom    7 type  1   force =     1.80518432    2.50026709 -145.90620789
     atom    8 type  1   force =     1.77590431    2.71376172   49.28922675
     atom    9 type  1   force =    -3.81253982   -1.22348647  236.82165674
     atom   10 type  1   force =     1.81769325   -2.50024336 -145.90397255
     atom   11 type  1   force =     1.83191391   -2.71308973   49.29681222
     atom   12 type  1   force =     6.43798616   -0.63559202  236.90837957
     atom   13 type  2   force =     0.85452833    0.36071833 -108.77705316
     atom   14 type  2   force =     0.86482344    0.79727197  -12.11714646
     atom   15 type  2   force =     0.09763457    0.61988852   85.56404307
     atom   16 type  2   force =     0.85580328   -0.36221573 -108.76089834
     atom   17 type  2   force =     0.86816275   -0.79906979  -12.10050187
     atom   18 type  2   force =     1.56824322   -0.98820188   85.12966698
     atom   19 type  2   force =     0.37643212    2.31165841  -98.26603225
     atom   20 type  2   force =     0.36455872    2.42157933   -0.02602865
     atom   21 type  2   force =     0.77511433    2.59594093   97.59145577
     atom   22 type  2   force =    -0.86356463    0.78164426  -60.85359435
     atom   23 type  2   force =    -0.86149129    0.79186225   36.72103772
     atom   24 type  2   force =    -0.86708592   -0.77987001  -60.85686263
     atom   25 type  2   force =    -0.87020733   -0.80443391   36.64827303
     atom   26 type  2   force =    -2.09843972    1.38655218  123.44105464
     atom   27 type  2   force =     0.37578424   -2.31348481  -98.26766998
     atom   28 type  2   force =    -0.36310869   -2.41323330  -48.84188488
     atom   29 type  2   force =     0.36113584   -2.42140691   -0.02364441
     atom   30 type  2   force =    -0.39503780   -2.39907954   48.80268800
     atom   31 type  2   force =     0.05661731   -2.03238833   98.16874817
     atom   32 type  2   force =    -0.36232117    2.41551963  -48.84188682
     atom   33 type  2   force =    -0.32885449    2.43583606   48.74520101
     The local contribution  to forces
     atom    1 type  1   force =     1.56382676   -1.06174635  240.61758836
     atom    2 type  1   force =     1.83827264    2.63950237   48.26575644
     atom    3 type  1   force =     2.15387110    2.44789816 -146.44059177
     atom    4 type  1   force =     1.56086922    1.06058307  240.61807371
     atom    5 type  1   force =     1.83457425   -2.63816959   48.26443697
     atom    6 type  1   force =     1.51320095   -2.68971974 -147.53355799
     atom    7 type  1   force =    -1.84088425   -2.41972832  145.90121110
     atom    8 type  1   force =    -1.80661367   -2.64878683  -49.31420068
     atom    9 type  1   force =     3.82444479    1.40299589 -237.03946910
     atom   10 type  1   force =    -1.85324801    2.41959013  145.89892060
     atom   11 type  1   force =    -1.86229407    2.64774089  -49.32049488
     atom   12 type  1   force =    -6.60639255    0.59356055 -237.13149041
     atom   13 type  2   force =    -0.78450390   -0.41738786  108.71433443
     atom   14 type  2   force =    -0.81177555   -0.84325847   12.08109907
     atom   15 type  2   force =    -0.04441496   -0.65931554  -85.58622243
     atom   16 type  2   force =    -0.78628756    0.41842161  108.69841630
     atom   17 type  2   force =    -0.81561937    0.84454169   12.06451779
     atom   18 type  2   force =    -1.52282214    1.01946568  -85.15263499
     atom   19 type  2   force =    -0.32667519   -2.16384900   98.24839779
     atom   20 type  2   force =    -0.31171135   -2.27495349    0.01526342
     atom   21 type  2   force =    -0.71422039   -2.43891385  -97.60495084
     atom   22 type  2   force =     0.80952634   -0.82752058   60.81466964
     atom   23 type  2   force =     0.80829718   -0.83753791  -36.75671711
     atom   24 type  2   force =     0.81284175    0.82606646   60.81825880
     atom   25 type  2   force =     0.81780365    0.85011050  -36.68317057
     atom   26 type  2   force =     1.93351292   -1.22136865 -123.11747802
     atom   27 type  2   force =    -0.32608842    2.16569197   98.25004464
     atom   28 type  2   force =     0.31003701    2.26683356   48.83461017
     atom   29 type  2   force =    -0.30813987    2.27491099    0.01279575
     atom   30 type  2   force =     0.34138898    2.25246414  -48.81514758
     atom   31 type  2   force =    -0.01372769    1.88550190  -98.17152481
     atom   32 type  2   force =     0.30924091   -2.26876535   48.83461482
     atom   33 type  2   force =     0.27699582   -2.28991542  -48.75768268
     The core correction contribution to forces
     atom    1 type  1   force =     0.00000000    0.00000000    0.00000000
     atom    2 type  1   force =     0.00000000    0.00000000    0.00000000
     atom    3 type  1   force =     0.00000000    0.00000000    0.00000000
     atom    4 type  1   force =     0.00000000    0.00000000    0.00000000
     atom    5 type  1   force =     0.00000000    0.00000000    0.00000000
     atom    6 type  1   force =     0.00000000    0.00000000    0.00000000
     atom    7 type  1   force =     0.00000000    0.00000000    0.00000000
     atom    8 type  1   force =     0.00000000    0.00000000    0.00000000
     atom    9 type  1   force =     0.00000000    0.00000000    0.00000000
     atom   10 type  1   force =     0.00000000    0.00000000    0.00000000
     atom   11 type  1   force =     0.00000000    0.00000000    0.00000000
     atom   12 type  1   force =     0.00000000    0.00000000    0.00000000
     atom   13 type  2   force =     0.00000000    0.00000000    0.00000000
     atom   14 type  2   force =     0.00000000    0.00000000    0.00000000
     atom   15 type  2   force =     0.00000000    0.00000000    0.00000000
     atom   16 type  2   force =     0.00000000    0.00000000    0.00000000
     atom   17 type  2   force =     0.00000000    0.00000000    0.00000000
     atom   18 type  2   force =     0.00000000    0.00000000    0.00000000
     atom   19 type  2   force =     0.00000000    0.00000000    0.00000000
     atom   20 type  2   force =     0.00000000    0.00000000    0.00000000
     atom   21 type  2   force =     0.00000000    0.00000000    0.00000000
     atom   22 type  2   force =     0.00000000    0.00000000    0.00000000
     atom   23 type  2   force =     0.00000000    0.00000000    0.00000000
     atom   24 type  2   force =     0.00000000    0.00000000    0.00000000
     atom   25 type  2   force =     0.00000000    0.00000000    0.00000000
     atom   26 type  2   force =     0.00000000    0.00000000    0.00000000
     atom   27 type  2   force =     0.00000000    0.00000000    0.00000000
     atom   28 type  2   force =     0.00000000    0.00000000    0.00000000
     atom   29 type  2   force =     0.00000000    0.00000000    0.00000000
     atom   30 type  2   force =     0.00000000    0.00000000    0.00000000
     atom   31 type  2   force =     0.00000000    0.00000000    0.00000000
     atom   32 type  2   force =     0.00000000    0.00000000    0.00000000
     atom   33 type  2   force =     0.00000000    0.00000000    0.00000000
     The Hubbard contrib.    to forces
     atom    1 type  1   force =     0.00000000    0.00000000    0.00000000
     atom    2 type  1   force =     0.00000000    0.00000000    0.00000000
     atom    3 type  1   force =     0.00000000    0.00000000    0.00000000
     atom    4 type  1   force =     0.00000000    0.00000000    0.00000000
     atom    5 type  1   force =     0.00000000    0.00000000    0.00000000
     atom    6 type  1   force =     0.00000000    0.00000000    0.00000000
     atom    7 type  1   force =     0.00000000    0.00000000    0.00000000
     atom    8 type  1   force =     0.00000000    0.00000000    0.00000000
     atom    9 type  1   force =     0.00000000    0.00000000    0.00000000
     atom   10 type  1   force =     0.00000000    0.00000000    0.00000000
     atom   11 type  1   force =     0.00000000    0.00000000    0.00000000
     atom   12 type  1   force =     0.00000000    0.00000000    0.00000000
     atom   13 type  2   force =     0.00000000    0.00000000    0.00000000
     atom   14 type  2   force =     0.00000000    0.00000000    0.00000000
     atom   15 type  2   force =     0.00000000    0.00000000    0.00000000
     atom   16 type  2   force =     0.00000000    0.00000000    0.00000000
     atom   17 type  2   force =     0.00000000    0.00000000    0.00000000
     atom   18 type  2   force =     0.00000000    0.00000000    0.00000000
     atom   19 type  2   force =     0.00000000    0.00000000    0.00000000
     atom   20 type  2   force =     0.00000000    0.00000000    0.00000000
     atom   21 type  2   force =     0.00000000    0.00000000    0.00000000
     atom   22 type  2   force =     0.00000000    0.00000000    0.00000000
     atom   23 type  2   force =     0.00000000    0.00000000    0.00000000
     atom   24 type  2   force =     0.00000000    0.00000000    0.00000000
     atom   25 type  2   force =     0.00000000    0.00000000    0.00000000
     atom   26 type  2   force =     0.00000000    0.00000000    0.00000000
     atom   27 type  2   force =     0.00000000    0.00000000    0.00000000
     atom   28 type  2   force =     0.00000000    0.00000000    0.00000000
     atom   29 type  2   force =     0.00000000    0.00000000    0.00000000
     atom   30 type  2   force =     0.00000000    0.00000000    0.00000000
     atom   31 type  2   force =     0.00000000    0.00000000    0.00000000
     atom   32 type  2   force =     0.00000000    0.00000000    0.00000000
     atom   33 type  2   force =     0.00000000    0.00000000    0.00000000
     The SCF correction term to forces
     atom    1 type  1   force =     0.00000000    0.00000000    0.00000000
     atom    2 type  1   force =     0.00000000    0.00000000    0.00000000
     atom    3 type  1   force =     0.00000000    0.00000000    0.00000000
     atom    4 type  1   force =     0.00000000    0.00000000    0.00000000
     atom    5 type  1   force =     0.00000000    0.00000000    0.00000000
     atom    6 type  1   force =     0.00000000    0.00000000    0.00000000
     atom    7 type  1   force =     0.00000000    0.00000000    0.00000000
     atom    8 type  1   force =     0.00000000    0.00000000    0.00000000
     atom    9 type  1   force =     0.00000000    0.00000000    0.00000000
     atom   10 type  1   force =     0.00000000    0.00000000    0.00000000
     atom   11 type  1   force =     0.00000000    0.00000000    0.00000000
     atom   12 type  1   force =     0.00000000    0.00000000    0.00000000
     atom   13 type  2   force =     0.00000000    0.00000000    0.00000000
     atom   14 type  2   force =     0.00000000    0.00000000    0.00000000
     atom   15 type  2   force =     0.00000000    0.00000000    0.00000000
     atom   16 type  2   force =     0.00000000    0.00000000    0.00000000
     atom   17 type  2   force =     0.00000000    0.00000000    0.00000000
     atom   18 type  2   force =     0.00000000    0.00000000    0.00000000
     atom   19 type  2   force =     0.00000000    0.00000000    0.00000000
     atom   20 type  2   force =     0.00000000    0.00000000    0.00000000
     atom   21 type  2   force =     0.00000000    0.00000000    0.00000000
     atom   22 type  2   force =     0.00000000    0.00000000    0.00000000
     atom   23 type  2   force =     0.00000000    0.00000000    0.00000000
     atom   24 type  2   force =     0.00000000    0.00000000    0.00000000
     atom   25 type  2   force =     0.00000000    0.00000000    0.00000000
     atom   26 type  2   force =    -0.00005242    0.00000166    0.00016955
     atom   27 type  2   force =     0.00000000    0.00000000    0.00000000
     atom   28 type  2   force =     0.00000000    0.00000000    0.00000000
     atom   29 type  2   force =     0.00000000    0.00000000    0.00000000
     atom   30 type  2   force =     0.00000000    0.00000000    0.00000000
     atom   31 type  2   force =     0.00000000    0.00000000    0.00000000
     atom   32 type  2   force =     0.00000000    0.00000000    0.00000000
     atom   33 type  2   force =     0.00000000    0.00000000    0.00000000

     Total force =     0.006654     Total SCF correction =     0.000177
     Energy error            =      9.3E-04
     Gradient error          =      5.7E-03

     number of scf cycles    =   5
     number of bfgs steps    =   4

     energy   old            =   -1853.4393783108 Ry
     energy   new            =   -1853.4403034927 Ry

     CASE: energy  _new < energy  _old

     new trust radius        =       0.0073285852 bohr
     new conv_thr            =       0.0000001000 Ry


ATOMIC_POSITIONS (angstrom)
Hf            4.0076390000        3.7813620000        6.1529890000    0   0   0
Hf            4.0076390000        3.7813620000       11.0753320000    0   0   0
Hf            4.0076390000        3.7813620000       15.9976750000    0   0   0
Hf            1.4522770000        1.1321830000        6.1529770000    0   0   0
Hf            1.4522770000        1.1321830000       11.0753200000    0   0   0
Hf            1.4522770000        1.1321830000       15.9976630000    0   0   0
Hf            3.6579980000        1.1322110000        8.6140330000    0   0   0
Hf            3.6579980000        1.1322110000       13.5363760000    0   0   0
Hf            3.6579980000        1.1322110000       18.4587190000    0   0   0
Hf            1.1027520000        3.7813090000        8.6141070000    0   0   0
Hf            1.1027520000        3.7813090000       13.5364490000    0   0   0
Hf            1.1027520000        3.7813090000       18.4587920000    0   0   0
O             3.1707970000        2.0862730000        6.8074440000    0   0   0
O             3.1707970000        2.0862730000       11.7297860000    0   0   0
O             3.1707970000        2.0862730000       16.6521290000    0   0   0
O             0.6152330000        2.8266930000        6.8083890000    0   0   0
O             0.6152330000        2.8266930000       11.7307320000    0   0   0
O             0.6152330000        2.8266930000       16.6530750000    0   0   0
O             5.0530890000        0.2074550000        7.3799440000    0   0   0
O             5.0530890000        0.2074550000       12.3022870000    0   0   0
O             5.0530890000        0.2074550000       17.2246300000    0   0   0
O             1.9399660000        2.0865810000        9.2696970000    0   0   0
O             1.9399660000        2.0865810000       14.1920390000    0   0   0
O             4.4952530000        2.8267400000        9.2692970000    0   0   0
O             4.4952530000        2.8267400000       14.1916400000    0   0   0
O             4.5657396168        2.8036624861       18.9954048390
O             2.4978700000       -0.2075440000        7.3798460000    0   0   0
O             2.6124080000       -0.2081150000        9.8410840000    0   0   0
O             2.4978700000       -0.2075440000       12.3021890000    0   0   0
O             2.6124080000       -0.2081150000       14.7634270000    0   0   0
O             2.4978700000       -0.2075440000       17.2245320000    0   0   0
O             5.1675430000        0.2075860000        9.8410300000    0   0   0
O             5.1675430000        0.2075860000       14.7633720000    0   0   0



     Writing output data file ./hfo2.save/
     NEW-OLD atomic charge density approx. for the potential

     negative rho (up, down):  2.662E-05 0.000E+00
 
     Adding external electric field

     Computed dipole along edir(3) : 
        Elec. dipole         -2.7569 Ry au,         -7.0073 Debye
        Ion. dipole          -2.7559 Ry au,         -7.0048 Debye
        Dipole                0.4748 Ry au,          1.2069 Debye
        Dipole field          0.0010 Ry au, 
 
        E field amplitude [Ha a.u.]:  1.0000E-03
        Potential amp.       -0.0008 Ry
        Total length         62.8334 bohr
 

     total cpu time spent up to now is      417.0 secs

     Self-consistent Calculation

     iteration #  1     ecut=    50.00 Ry     beta= 0.30
     Davidson diagonalization with overlap
     ethr =  1.00E-06,  avg # of iterations =  2.0

     negative rho (up, down):  1.746E-05 0.000E+00
 
     Adding external electric field

     Computed dipole along edir(3) : 
        Elec. dipole         -2.7569 Ry au,         -7.0073 Debye
        Ion. dipole          -2.7559 Ry au,         -7.0048 Debye
        Dipole                0.4745 Ry au,          1.2062 Debye
        Dipole field          0.0010 Ry au, 
 
        E field amplitude [Ha a.u.]:  1.0000E-03
        Potential amp.       -0.0007 Ry
        Total length         62.8334 bohr
 

     total cpu time spent up to now is      439.7 secs

     total energy              =   -1853.44034237 Ry
     estimated scf accuracy    <       0.00035700 Ry

     iteration #  2     ecut=    50.00 Ry     beta= 0.30
     Davidson diagonalization with overlap
     ethr =  1.32E-07,  avg # of iterations =  1.0

     negative rho (up, down):  1.122E-05 0.000E+00
 
     Adding external electric field

     Computed dipole along edir(3) : 
        Elec. dipole         -2.7569 Ry au,         -7.0073 Debye
        Ion. dipole          -2.7559 Ry au,         -7.0048 Debye
        Dipole                0.4743 Ry au,          1.2055 Debye
        Dipole field          0.0010 Ry au, 
 
        E field amplitude [Ha a.u.]:  1.0000E-03
        Potential amp.       -0.0006 Ry
        Total length         62.8334 bohr
 

     total cpu time spent up to now is      450.8 secs

     total energy              =   -1853.44034176 Ry
     estimated scf accuracy    <       0.00005118 Ry

     iteration #  3     ecut=    50.00 Ry     beta= 0.30
     Davidson diagonalization with overlap
     ethr =  1.90E-08,  avg # of iterations =  2.3

     negative rho (up, down):  7.181E-06 0.000E+00
 
     Adding external electric field

     Computed dipole along edir(3) : 
        Elec. dipole         -2.7569 Ry au,         -7.0073 Debye
        Ion. dipole          -2.7559 Ry au,         -7.0048 Debye
        Dipole                0.4739 Ry au,          1.2045 Debye
        Dipole field          0.0010 Ry au, 
 
        E field amplitude [Ha a.u.]:  1.0000E-03
        Potential amp.       -0.0005 Ry
        Total length         62.8334 bohr
 

     total cpu time spent up to now is      468.3 secs

     total energy              =   -1853.44034039 Ry
     estimated scf accuracy    <       0.00000538 Ry

     iteration #  4     ecut=    50.00 Ry     beta= 0.30
     Davidson diagonalization with overlap
     ethr =  1.99E-09,  avg # of iterations =  5.7

     negative rho (up, down):  4.414E-06 0.000E+00
 
     Adding external electric field

     Computed dipole along edir(3) : 
        Elec. dipole         -2.7569 Ry au,         -7.0073 Debye
        Ion. dipole          -2.7559 Ry au,         -7.0048 Debye
        Dipole                0.4738 Ry au,          1.2043 Debye
        Dipole field          0.0010 Ry au, 
 
        E field amplitude [Ha a.u.]:  1.0000E-03
        Potential amp.       -0.0005 Ry
        Total length         62.8334 bohr
 

     total cpu time spent up to now is      481.5 secs

     total energy              =   -1853.44034116 Ry
     estimated scf accuracy    <       0.00000051 Ry

     iteration #  5     ecut=    50.00 Ry     beta= 0.30
     Davidson diagonalization with overlap
     ethr =  1.89E-10,  avg # of iterations =  2.5

     negative rho (up, down):  2.754E-06 0.000E+00
 
     Adding external electric field

     Computed dipole along edir(3) : 
        Elec. dipole         -2.7569 Ry au,         -7.0073 Debye
        Ion. dipole          -2.7559 Ry au,         -7.0048 Debye
        Dipole                0.4735 Ry au,          1.2036 Debye
        Dipole field          0.0010 Ry au, 
 
        E field amplitude [Ha a.u.]:  1.0000E-03
        Potential amp.       -0.0004 Ry
        Total length         62.8334 bohr
 

     total cpu time spent up to now is      487.5 secs

     total energy              =   -1853.44034112 Ry
     estimated scf accuracy    <       0.00000036 Ry

     iteration #  6     ecut=    50.00 Ry     beta= 0.30
     Davidson diagonalization with overlap
     ethr =  1.35E-10,  avg # of iterations =  4.3

     negative rho (up, down):  1.830E-06 0.000E+00
 
     Adding external electric field

     Computed dipole along edir(3) : 
        Elec. dipole         -2.7569 Ry au,         -7.0073 Debye
        Ion. dipole          -2.7559 Ry au,         -7.0048 Debye
        Dipole                0.4735 Ry au,          1.2034 Debye
        Dipole field          0.0010 Ry au, 
 
        E field amplitude [Ha a.u.]:  1.0000E-03
        Potential amp.       -0.0004 Ry
        Total length         62.8334 bohr
 

     total cpu time spent up to now is      494.1 secs

     total energy              =   -1853.44034112 Ry
     estimated scf accuracy    <       0.00000017 Ry

     iteration #  7     ecut=    50.00 Ry     beta= 0.30
     Davidson diagonalization with overlap
     ethr =  6.35E-11,  avg # of iterations =  2.0
 
     Adding external electric field

     Computed dipole along edir(3) : 
        Elec. dipole         -2.7569 Ry au,         -7.0073 Debye
        Ion. dipole          -2.7559 Ry au,         -7.0048 Debye
        Dipole                0.4732 Ry au,          1.2028 Debye
        Dipole field          0.0010 Ry au, 
 
        E field amplitude [Ha a.u.]:  1.0000E-03
        Potential amp.       -0.0003 Ry
        Total length         62.8334 bohr
 

     total cpu time spent up to now is      496.1 secs

     End of self-consistent calculation

          k = 0.0000 0.0000 0.0000 ( 35385 PWs)   bands (ev):

   -59.2563 -59.2429 -59.0020 -58.9865 -58.8396 -58.8354 -58.8242 -58.8010
   -58.7166 -58.7012 -58.5911 -58.5705 -29.1016 -29.0420 -28.9543 -28.8752
   -28.8292 -28.7716 -28.7653 -28.7371 -28.6993 -28.6669 -28.6489 -28.6387
   -28.6233 -28.6071 -28.5791 -28.5328 -28.5253 -28.5146 -28.4730 -28.4334
   -28.4254 -28.3755 -28.3731 -28.3650 -28.3228 -28.3162 -28.2956 -28.2729
   -28.2403 -28.1972 -28.1910 -28.1654 -28.1453 -28.1157 -28.0822 -28.0615
   -17.8369 -17.4313 -16.9244 -16.6558 -16.3947 -16.3573 -16.2159 -16.1323
   -16.0471 -16.0234 -15.9009 -15.7294 -15.5474 -15.3985 -15.3866 -15.2588
   -15.2516 -15.1311 -15.0808 -15.0104 -14.5621  -5.4530  -5.4308  -5.2606
    -5.2151  -5.0668  -4.9762  -4.6670  -4.6139  -4.4360  -4.4000  -4.2738
    -4.2283  -4.1246  -3.9045  -3.8074  -3.6411  -3.6060  -3.4425  -3.3947
    -3.3424  -3.1367  -3.0758  -2.8466  -2.8039  -2.7769  -2.6663  -2.5921
    -2.4885  -2.4341  -2.2934  -2.2236  -2.1280  -1.9868  -1.9840  -1.9574
    -1.8551  -1.7544  -1.7256  -1.7032  -1.6753  -1.6152  -1.5966  -1.2689
    -1.2391  -1.1833  -1.0653  -0.8910  -0.8662  -0.8189  -0.7112  -0.6507
    -0.5802  -0.5740  -0.3709  -0.2289  -0.1934  -0.1088   0.0719   0.1095
     0.2450   0.2595   0.3747   0.5027   2.6955   2.9337   4.1626   4.3669
     4.4271   4.8154   5.0403   5.0817   5.3420   5.4963   5.5681   5.8341
     5.9520   6.0190   6.0532   6.1961   6.2511   6.2855   6.4132   6.4584
     6.4675   6.6222   6.6508   6.7102   6.8594   6.8989   7.0042   7.0283
     7.0410   7.2101

     occupation numbers 
     1.0000   1.0000   1.0000   1.0000   1.0000   1.0000   1.0000   1.0000
     1.0000   1.0000   1.0000   1.0000   1.0000   1.0000   1.0000   1.0000
     1.0000   1.0000   1.0000   1.0000   1.0000   1.0000   1.0000   1.0000
     1.0000   1.0000   1.0000   1.0000   1.0000   1.0000   1.0000   1.0000
     1.0000   1.0000   1.0000   1.0000   1.0000   1.0000   1.0000   1.0000
     1.0000   1.0000   1.0000   1.0000   1.0000   1.0000   1.0000   1.0000
     1.0000   1.0000   1.0000   1.0000   1.0000   1.0000   1.0000   1.0000
     1.0000   1.0000   1.0000   1.0000   1.0000   1.0000   1.0000   1.0000
     1.0000   1.0000   1.0000   1.0000   1.0000   1.0000   1.0000   1.0000
     1.0000   1.0000   1.0000   1.0000   1.0000   1.0000   1.0000   1.0000
     1.0000   1.0000   1.0000   1.0000   1.0000   1.0000   1.0000   1.0000
     1.0000   1.0000   1.0000   1.0000   1.0000   1.0000   1.0000   1.0000
     1.0000   1.0000   1.0000   1.0000   1.0000   1.0000   1.0000   1.0000
     1.0000   1.0000   1.0000   1.0000   1.0000   1.0000   1.0000   1.0000
     1.0000   1.0000   1.0000   1.0000   1.0000   1.0000   1.0000   1.0000
     1.0000   1.0000   1.0000   1.0000   1.0000   1.0000   1.0000   1.0000
     1.0000   1.0000   1.0000   1.0000   1.0000   0.9998   0.4189   0.1384
     0.0935   0.0059   0.0011   0.0008   0.0001   0.0000   0.0000   0.0000
     0.0000   0.0000   0.0000   0.0000   0.0000   0.0000   0.0000   0.0000
     0.0000   0.0000   0.0000   0.0000   0.0000   0.0000   0.0000   0.0000
     0.0000   0.0000

          k = 0.0000 0.2600 0.0000 ( 35369 PWs)   bands (ev):

   -59.2546 -59.2445 -59.0002 -58.9882 -58.8378 -58.8349 -58.8259 -58.8015
   -58.7150 -58.7029 -58.5902 -58.5716 -29.0853 -28.9906 -28.9292 -28.8713
   -28.8041 -28.7775 -28.7496 -28.7195 -28.6937 -28.6715 -28.6535 -28.6427
   -28.6362 -28.5886 -28.5750 -28.5440 -28.5225 -28.5175 -28.4937 -28.4435
   -28.4210 -28.4104 -28.3950 -28.3763 -28.3564 -28.3056 -28.2739 -28.2686
   -28.2618 -28.2297 -28.2016 -28.1794 -28.1428 -28.1157 -28.1001 -28.0847
   -17.5751 -17.2198 -16.8087 -16.5950 -16.3691 -16.2871 -16.1448 -16.0850
   -16.0293 -15.9884 -15.9554 -15.7539 -15.6109 -15.5573 -15.4513 -15.4017
   -15.3578 -15.2362 -15.1445 -15.0924 -14.6162  -5.4002  -5.2640  -5.0836
    -4.9651  -4.9270  -4.7064  -4.6000  -4.5495  -4.5121  -4.3650  -4.3016
    -4.1843  -3.9437  -3.8828  -3.7029  -3.6541  -3.5698  -3.4820  -3.3918
    -3.3247  -3.2620  -3.2374  -3.0307  -2.9305  -2.8184  -2.7044  -2.6464
    -2.5375  -2.4316  -2.3431  -2.2918  -2.2119  -2.1596  -2.0524  -2.0292
    -1.9121  -1.8275  -1.6713  -1.5500  -1.4859  -1.4348  -1.3401  -1.2122
    -1.2072  -1.1114  -0.9728  -0.9218  -0.8649  -0.8166  -0.7667  -0.7295
    -0.6646  -0.5774  -0.5237  -0.4015  -0.3156  -0.2485  -0.2181  -0.1901
     0.0811   0.2169   0.3162   0.4465   3.0588   3.2974   4.2360   4.2505
     4.3779   4.8408   4.9128   5.1461   5.2206   5.2522   5.3483   5.4436
     5.6756   5.7198   5.8498   5.8788   5.9797   6.1257   6.1588   6.3621
     6.5492   6.6212   6.6929   6.7433   6.9372   6.9942   7.0730   7.1647
     7.2420   7.3338

     occupation numbers 
     1.0000   1.0000   1.0000   1.0000   1.0000   1.0000   1.0000   1.0000
     1.0000   1.0000   1.0000   1.0000   1.0000   1.0000   1.0000   1.0000
     1.0000   1.0000   1.0000   1.0000   1.0000   1.0000   1.0000   1.0000
     1.0000   1.0000   1.0000   1.0000   1.0000   1.0000   1.0000   1.0000
     1.0000   1.0000   1.0000   1.0000   1.0000   1.0000   1.0000   1.0000
     1.0000   1.0000   1.0000   1.0000   1.0000   1.0000   1.0000   1.0000
     1.0000   1.0000   1.0000   1.0000   1.0000   1.0000   1.0000   1.0000
     1.0000   1.0000   1.0000   1.0000   1.0000   1.0000   1.0000   1.0000
     1.0000   1.0000   1.0000   1.0000   1.0000   1.0000   1.0000   1.0000
     1.0000   1.0000   1.0000   1.0000   1.0000   1.0000   1.0000   1.0000
     1.0000   1.0000   1.0000   1.0000   1.0000   1.0000   1.0000   1.0000
     1.0000   1.0000   1.0000   1.0000   1.0000   1.0000   1.0000   1.0000
     1.0000   1.0000   1.0000   1.0000   1.0000   1.0000   1.0000   1.0000
     1.0000   1.0000   1.0000   1.0000   1.0000   1.0000   1.0000   1.0000
     1.0000   1.0000   1.0000   1.0000   1.0000   1.0000   1.0000   1.0000
     1.0000   1.0000   1.0000   1.0000   1.0000   1.0000   1.0000   1.0000
     1.0000   1.0000   1.0000   1.0000   0.9996   0.9976   0.2958   0.2741
     0.1290   0.0049   0.0029   0.0005   0.0003   0.0002   0.0001   0.0001
     0.0000   0.0000   0.0000   0.0000   0.0000   0.0000   0.0000   0.0000
     0.0000   0.0000   0.0000   0.0000   0.0000   0.0000   0.0000   0.0000
     0.0000   0.0000

          k = 0.0000-0.5200 0.0000 ( 35392 PWs)   bands (ev):

   -59.2520 -59.2470 -58.9977 -58.9907 -58.8353 -58.8343 -58.8284 -58.8019
   -58.7126 -58.7053 -58.5891 -58.5729 -29.0664 -28.9210 -28.8849 -28.8797
   -28.7841 -28.7789 -28.7563 -28.7186 -28.6947 -28.6759 -28.6470 -28.6312
   -28.6225 -28.5959 -28.5754 -28.5531 -28.5243 -28.5125 -28.4904 -28.4589
   -28.4547 -28.4210 -28.4144 -28.3763 -28.3635 -28.3420 -28.3070 -28.2895
   -28.2662 -28.2273 -28.1908 -28.1711 -28.1505 -28.1408 -28.1216 -28.0922
   -17.1991 -16.9081 -16.6556 -16.5316 -16.3375 -16.2131 -16.1809 -16.0666
   -16.0429 -16.0047 -15.9554 -15.9375 -15.7908 -15.6302 -15.6266 -15.4332
   -15.4236 -15.3009 -15.1978 -15.1731 -14.6680  -5.1992  -5.1277  -4.9901
    -4.7955  -4.6336  -4.5517  -4.4659  -4.4520  -4.2771  -4.2454  -4.2247
    -4.1554  -4.0557  -3.9468  -3.8810  -3.8284  -3.7673  -3.5845  -3.5474
    -3.2872  -3.2236  -3.1337  -3.0894  -2.8855  -2.8547  -2.7632  -2.6397
    -2.6009  -2.4270  -2.3659  -2.2797  -2.2186  -2.0780  -2.0102  -1.9523
    -1.8387  -1.6455  -1.5877  -1.5310  -1.4610  -1.4491  -1.3278  -1.3055
    -1.2585  -1.1739  -1.1650  -1.1045  -1.0322  -0.9560  -0.8941  -0.8293
    -0.7562  -0.6372  -0.5727  -0.5500  -0.4318  -0.3092  -0.2321  -0.2207
     0.0382   0.1614   0.3123   0.3970   3.6361   3.7981   4.0666   4.1372
     4.3664   4.5127   4.5774   5.0260   5.1034   5.2360   5.2476   5.2824
     5.4641   5.5072   5.5603   5.6815   5.7426   5.9716   6.1610   6.3051
     6.4404   6.4818   6.5795   6.8398   6.9849   7.1065   7.1360   7.1906
     7.2735   7.2842

     occupation numbers 
     1.0000   1.0000   1.0000   1.0000   1.0000   1.0000   1.0000   1.0000
     1.0000   1.0000   1.0000   1.0000   1.0000   1.0000   1.0000   1.0000
     1.0000   1.0000   1.0000   1.0000   1.0000   1.0000   1.0000   1.0000
     1.0000   1.0000   1.0000   1.0000   1.0000   1.0000   1.0000   1.0000
     1.0000   1.0000   1.0000   1.0000   1.0000   1.0000   1.0000   1.0000
     1.0000   1.0000   1.0000   1.0000   1.0000   1.0000   1.0000   1.0000
     1.0000   1.0000   1.0000   1.0000   1.0000   1.0000   1.0000   1.0000
     1.0000   1.0000   1.0000   1.0000   1.0000   1.0000   1.0000   1.0000
     1.0000   1.0000   1.0000   1.0000   1.0000   1.0000   1.0000   1.0000
     1.0000   1.0000   1.0000   1.0000   1.0000   1.0000   1.0000   1.0000
     1.0000   1.0000   1.0000   1.0000   1.0000   1.0000   1.0000   1.0000
     1.0000   1.0000   1.0000   1.0000   1.0000   1.0000   1.0000   1.0000
     1.0000   1.0000   1.0000   1.0000   1.0000   1.0000   1.0000   1.0000
     1.0000   1.0000   1.0000   1.0000   1.0000   1.0000   1.0000   1.0000
     1.0000   1.0000   1.0000   1.0000   1.0000   1.0000   1.0000   1.0000
     1.0000   1.0000   1.0000   1.0000   1.0000   1.0000   1.0000   1.0000
     1.0000   1.0000   1.0000   1.0000   0.9719   0.9131   0.5934   0.4648
     0.1388   0.0521   0.0330   0.0013   0.0007   0.0003   0.0002   0.0002
     0.0001   0.0000   0.0000   0.0000   0.0000   0.0000   0.0000   0.0000
     0.0000   0.0000   0.0000   0.0000   0.0000   0.0000   0.0000   0.0000
     0.0000   0.0000

          k = 0.2500 0.0000 0.0000 ( 35470 PWs)   bands (ev):

   -59.2543 -59.2448 -58.9997 -58.9888 -58.8373 -58.8347 -58.8265 -58.8016
   -58.7145 -58.7034 -58.5899 -58.5719 -29.0644 -29.0100 -28.9237 -28.8634
   -28.7914 -28.7899 -28.7585 -28.7173 -28.6810 -28.6629 -28.6510 -28.6380
   -28.6171 -28.6108 -28.5839 -28.5568 -28.5281 -28.5198 -28.4892 -28.4302
   -28.4179 -28.4138 -28.3977 -28.3794 -28.3442 -28.3089 -28.2905 -28.2741
   -28.2504 -28.2298 -28.2028 -28.1768 -28.1436 -28.1148 -28.1013 -28.0875
   -17.5658 -17.2075 -16.7894 -16.6565 -16.3619 -16.3401 -16.2269 -16.1498
   -16.0114 -16.0088 -15.8508 -15.7871 -15.5603 -15.5406 -15.4148 -15.3941
   -15.3179 -15.2606 -15.1701 -15.1094 -14.6196  -5.2066  -5.0810  -4.9482
    -4.8936  -4.7925  -4.6657  -4.5701  -4.5265  -4.3566  -4.3054  -4.1938
    -4.0903  -4.0340  -3.9999  -3.9242  -3.8095  -3.7246  -3.5340  -3.3883
    -3.3422  -3.2511  -3.2070  -3.0390  -3.0241  -2.8384  -2.7714  -2.5745
    -2.5186  -2.3907  -2.3404  -2.2892  -2.2259  -2.1453  -2.0368  -1.9146
    -1.8740  -1.7827  -1.7309  -1.6304  -1.5832  -1.5561  -1.5312  -1.3885
    -1.3571  -1.2670  -1.1521  -1.1044  -0.9721  -0.8719  -0.7983  -0.6556
    -0.6057  -0.5470  -0.4352  -0.4008  -0.3419  -0.1984  -0.1605  -0.0509
    -0.0215   0.0742   0.1188   0.3182   2.9618   3.2734   4.1664   4.3325
     4.6348   4.8635   4.9146   5.1602   5.1784   5.5383   5.5849   5.7188
     5.8615   5.9165   6.0532   6.1252   6.2058   6.3059   6.3632   6.4722
     6.5377   6.6262   6.6459   6.7237   6.7740   6.8823   6.9268   7.0648
     7.1518   7.2508

     occupation numbers 
     1.0000   1.0000   1.0000   1.0000   1.0000   1.0000   1.0000   1.0000
     1.0000   1.0000   1.0000   1.0000   1.0000   1.0000   1.0000   1.0000
     1.0000   1.0000   1.0000   1.0000   1.0000   1.0000   1.0000   1.0000
     1.0000   1.0000   1.0000   1.0000   1.0000   1.0000   1.0000   1.0000
     1.0000   1.0000   1.0000   1.0000   1.0000   1.0000   1.0000   1.0000
     1.0000   1.0000   1.0000   1.0000   1.0000   1.0000   1.0000   1.0000
     1.0000   1.0000   1.0000   1.0000   1.0000   1.0000   1.0000   1.0000
     1.0000   1.0000   1.0000   1.0000   1.0000   1.0000   1.0000   1.0000
     1.0000   1.0000   1.0000   1.0000   1.0000   1.0000   1.0000   1.0000
     1.0000   1.0000   1.0000   1.0000   1.0000   1.0000   1.0000   1.0000
     1.0000   1.0000   1.0000   1.0000   1.0000   1.0000   1.0000   1.0000
     1.0000   1.0000   1.0000   1.0000   1.0000   1.0000   1.0000   1.0000
     1.0000   1.0000   1.0000   1.0000   1.0000   1.0000   1.0000   1.0000
     1.0000   1.0000   1.0000   1.0000   1.0000   1.0000   1.0000   1.0000
     1.0000   1.0000   1.0000   1.0000   1.0000   1.0000   1.0000   1.0000
     1.0000   1.0000   1.0000   1.0000   1.0000   1.0000   1.0000   1.0000
     1.0000   1.0000   1.0000   1.0000   0.9998   0.9980   0.4121   0.1714
     0.0219   0.0042   0.0029   0.0005   0.0004   0.0000   0.0000   0.0000
     0.0000   0.0000   0.0000   0.0000   0.0000   0.0000   0.0000   0.0000
     0.0000   0.0000   0.0000   0.0000   0.0000   0.0000   0.0000   0.0000
     0.0000   0.0000

          k = 0.2500 0.2600 0.0000 ( 35420 PWs)   bands (ev):

   -59.2531 -59.2459 -58.9985 -58.9899 -58.8361 -58.8344 -58.8277 -58.8019
   -58.7133 -58.7046 -58.5894 -58.5725 -29.0786 -29.0168 -28.9327 -28.8754
   -28.8133 -28.7765 -28.7491 -28.7218 -28.7021 -28.6690 -28.6407 -28.6339
   -28.6228 -28.6113 -28.5864 -28.5470 -28.5249 -28.4981 -28.4723 -28.4543
   -28.4462 -28.4211 -28.3876 -28.3698 -28.3336 -28.3227 -28.2943 -28.2719
   -28.2429 -28.2178 -28.1937 -28.1607 -28.1532 -28.1294 -28.1064 -28.0691
   -17.3833 -17.0685 -16.7468 -16.6707 -16.4116 -16.3476 -16.2384 -16.1732
   -16.0267 -16.0019 -15.9086 -15.7428 -15.6269 -15.5391 -15.4672 -15.4178
   -15.3698 -15.2819 -15.1501 -15.0786 -14.6700  -5.1841  -5.0356  -4.7997
    -4.7459  -4.6841  -4.6211  -4.4963  -4.4063  -4.3273  -4.2916  -4.1932
    -4.0854  -3.9975  -3.9461  -3.8484  -3.6355  -3.5246  -3.4067  -3.3422
    -3.3126  -3.2590  -3.1918  -3.1299  -3.0121  -2.9790  -2.8750  -2.7453
    -2.5290  -2.4522  -2.3772  -2.3105  -2.2218  -2.1570  -2.0845  -1.8970
    -1.8105  -1.7769  -1.7318  -1.6193  -1.5700  -1.4940  -1.4300  -1.3951
    -1.3156  -1.2469  -1.1439  -1.0692  -1.0229  -0.9766  -0.9330  -0.7831
    -0.6798  -0.6419  -0.5484  -0.4522  -0.4439  -0.3930  -0.2534  -0.1597
    -0.1128  -0.0044   0.1151   0.3046   3.1582   3.4921   4.0791   4.1325
     4.5998   4.7767   4.8719   5.0456   5.1717   5.2165   5.3706   5.4822
     5.5799   5.7683   5.8410   5.9075   6.0189   6.0903   6.1408   6.3682
     6.4303   6.6110   6.6943   6.7517   6.7692   6.9256   6.9995   7.1298
     7.2108   7.2520

     occupation numbers 
     1.0000   1.0000   1.0000   1.0000   1.0000   1.0000   1.0000   1.0000
     1.0000   1.0000   1.0000   1.0000   1.0000   1.0000   1.0000   1.0000
     1.0000   1.0000   1.0000   1.0000   1.0000   1.0000   1.0000   1.0000
     1.0000   1.0000   1.0000   1.0000   1.0000   1.0000   1.0000   1.0000
     1.0000   1.0000   1.0000   1.0000   1.0000   1.0000   1.0000   1.0000
     1.0000   1.0000   1.0000   1.0000   1.0000   1.0000   1.0000   1.0000
     1.0000   1.0000   1.0000   1.0000   1.0000   1.0000   1.0000   1.0000
     1.0000   1.0000   1.0000   1.0000   1.0000   1.0000   1.0000   1.0000
     1.0000   1.0000   1.0000   1.0000   1.0000   1.0000   1.0000   1.0000
     1.0000   1.0000   1.0000   1.0000   1.0000   1.0000   1.0000   1.0000
     1.0000   1.0000   1.0000   1.0000   1.0000   1.0000   1.0000   1.0000
     1.0000   1.0000   1.0000   1.0000   1.0000   1.0000   1.0000   1.0000
     1.0000   1.0000   1.0000   1.0000   1.0000   1.0000   1.0000   1.0000
     1.0000   1.0000   1.0000   1.0000   1.0000   1.0000   1.0000   1.0000
     1.0000   1.0000   1.0000   1.0000   1.0000   1.0000   1.0000   1.0000
     1.0000   1.0000   1.0000   1.0000   1.0000   1.0000   1.0000   1.0000
     1.0000   1.0000   1.0000   1.0000   0.9991   0.9901   0.5710   0.4735
     0.0282   0.0078   0.0039   0.0011   0.0004   0.0003   0.0001   0.0000
     0.0000   0.0000   0.0000   0.0000   0.0000   0.0000   0.0000   0.0000
     0.0000   0.0000   0.0000   0.0000   0.0000   0.0000   0.0000   0.0000
     0.0000   0.0000

          k = 0.2500-0.5200 0.0000 ( 35366 PWs)   bands (ev):

   -59.2512 -59.2477 -58.9967 -58.9916 -58.8343 -58.8342 -58.8294 -58.8020
   -58.7117 -58.7062 -58.5889 -58.5732 -29.0849 -29.0275 -28.9331 -28.9149
   -28.7899 -28.7860 -28.7517 -28.7419 -28.6916 -28.6752 -28.6549 -28.6486
   -28.6162 -28.6031 -28.5971 -28.5698 -28.5261 -28.5151 -28.4922 -28.4601
   -28.4248 -28.3907 -28.3774 -28.3587 -28.3434 -28.3061 -28.2820 -28.2509
   -28.2417 -28.2172 -28.1919 -28.1532 -28.1354 -28.1182 -28.1048 -28.0921
   -17.1414 -16.8724 -16.7183 -16.6785 -16.4607 -16.3913 -16.3153 -16.2592
   -16.1245 -16.0436 -15.9969 -15.7380 -15.6881 -15.5482 -15.4364 -15.4000
   -15.3118 -15.2701 -15.1739 -15.1224 -14.5912  -5.0541  -5.0213  -4.8155
    -4.6084  -4.5750  -4.4824  -4.3400  -4.3149  -4.2106  -4.1691  -4.0885
    -4.0352  -3.9368  -3.8708  -3.7873  -3.7402  -3.6362  -3.5640  -3.4254
    -3.3467  -3.3079  -3.0069  -2.9628  -2.8997  -2.7950  -2.7303  -2.6621
    -2.6065  -2.4612  -2.4084  -2.3529  -2.2849  -2.2635  -2.2115  -2.0446
    -1.9466  -1.8959  -1.8585  -1.7239  -1.5902  -1.4989  -1.3963  -1.3825
    -1.3324  -1.2387  -1.1911  -1.1266  -1.0314  -0.9870  -0.8848  -0.8461
    -0.7424  -0.7160  -0.6004  -0.5563  -0.4901  -0.4344  -0.2905  -0.2268
    -0.2150  -0.0660   0.1054   0.2857   3.6703   3.7263   4.0449   4.1247
     4.4644   4.4838   4.6656   4.9806   5.0253   5.0981   5.1638   5.3030
     5.3836   5.4607   5.6020   5.6976   5.7691   5.9879   6.1120   6.1803
     6.3729   6.4759   6.6660   6.7124   6.8682   6.9576   7.0322   7.1891
     7.2313   7.2811

     occupation numbers 
     1.0000   1.0000   1.0000   1.0000   1.0000   1.0000   1.0000   1.0000
     1.0000   1.0000   1.0000   1.0000   1.0000   1.0000   1.0000   1.0000
     1.0000   1.0000   1.0000   1.0000   1.0000   1.0000   1.0000   1.0000
     1.0000   1.0000   1.0000   1.0000   1.0000   1.0000   1.0000   1.0000
     1.0000   1.0000   1.0000   1.0000   1.0000   1.0000   1.0000   1.0000
     1.0000   1.0000   1.0000   1.0000   1.0000   1.0000   1.0000   1.0000
     1.0000   1.0000   1.0000   1.0000   1.0000   1.0000   1.0000   1.0000
     1.0000   1.0000   1.0000   1.0000   1.0000   1.0000   1.0000   1.0000
     1.0000   1.0000   1.0000   1.0000   1.0000   1.0000   1.0000   1.0000
     1.0000   1.0000   1.0000   1.0000   1.0000   1.0000   1.0000   1.0000
     1.0000   1.0000   1.0000   1.0000   1.0000   1.0000   1.0000   1.0000
     1.0000   1.0000   1.0000   1.0000   1.0000   1.0000   1.0000   1.0000
     1.0000   1.0000   1.0000   1.0000   1.0000   1.0000   1.0000   1.0000
     1.0000   1.0000   1.0000   1.0000   1.0000   1.0000   1.0000   1.0000
     1.0000   1.0000   1.0000   1.0000   1.0000   1.0000   1.0000   1.0000
     1.0000   1.0000   1.0000   1.0000   1.0000   1.0000   1.0000   1.0000
     1.0000   1.0000   1.0000   1.0000   0.9641   0.9468   0.6313   0.4878
     0.0727   0.0637   0.0176   0.0018   0.0013   0.0007   0.0005   0.0002
     0.0001   0.0001   0.0000   0.0000   0.0000   0.0000   0.0000   0.0000
     0.0000   0.0000   0.0000   0.0000   0.0000   0.0000   0.0000   0.0000
     0.0000   0.0000

          k = 0.2500-0.2600 0.0000 ( 35420 PWs)   bands (ev):

   -59.2531 -59.2459 -58.9985 -58.9899 -58.8361 -58.8345 -58.8277 -58.8018
   -58.7133 -58.7046 -58.5894 -58.5725 -29.0787 -29.0167 -28.9326 -28.8754
   -28.8133 -28.7767 -28.7492 -28.7229 -28.7023 -28.6725 -28.6564 -28.6377
   -28.6308 -28.6160 -28.5866 -28.5639 -28.5363 -28.4978 -28.4766 -28.4602
   -28.4276 -28.4121 -28.3838 -28.3516 -28.3313 -28.3139 -28.2984 -28.2572
   -28.2297 -28.2181 -28.1971 -28.1670 -28.1434 -28.1379 -28.0971 -28.0726
   -17.3839 -17.0808 -16.7704 -16.6715 -16.4241 -16.3562 -16.2526 -16.1955
   -16.0472 -16.0191 -15.9090 -15.7437 -15.6269 -15.5374 -15.4350 -15.4085
   -15.3207 -15.2867 -15.1729 -15.1181 -14.5460  -5.1825  -5.0342  -4.7899
    -4.7456  -4.6950  -4.6286  -4.4798  -4.4017  -4.3415  -4.2856  -4.1895
    -4.1014  -3.9919  -3.9381  -3.8436  -3.6232  -3.5107  -3.3836  -3.3407
    -3.3179  -3.2454  -3.1796  -3.1388  -3.0204  -2.9492  -2.8439  -2.7451
    -2.5565  -2.5125  -2.3925  -2.3221  -2.1799  -2.1317  -2.0583  -1.9672
    -1.8957  -1.7886  -1.7642  -1.6572  -1.5953  -1.5206  -1.4513  -1.4160
    -1.2880  -1.2564  -1.1870  -1.1083  -1.0178  -0.9834  -0.8342  -0.7742
    -0.6544  -0.5942  -0.4924  -0.4483  -0.4262  -0.3951  -0.2916  -0.1561
    -0.1187   0.0081   0.1312   0.2851   3.3610   3.4924   4.0794   4.3273
     4.4702   4.6000   4.8714   5.1660   5.2124   5.2882   5.4747   5.5561
     5.6791   5.8035   5.8658   5.9320   5.9781   6.0321   6.1904   6.2385
     6.3701   6.4750   6.6296   6.7278   6.7725   6.8990   7.0246   7.0740
     7.1513   7.2156

     occupation numbers 
     1.0000   1.0000   1.0000   1.0000   1.0000   1.0000   1.0000   1.0000
     1.0000   1.0000   1.0000   1.0000   1.0000   1.0000   1.0000   1.0000
     1.0000   1.0000   1.0000   1.0000   1.0000   1.0000   1.0000   1.0000
     1.0000   1.0000   1.0000   1.0000   1.0000   1.0000   1.0000   1.0000
     1.0000   1.0000   1.0000   1.0000   1.0000   1.0000   1.0000   1.0000
     1.0000   1.0000   1.0000   1.0000   1.0000   1.0000   1.0000   1.0000
     1.0000   1.0000   1.0000   1.0000   1.0000   1.0000   1.0000   1.0000
     1.0000   1.0000   1.0000   1.0000   1.0000   1.0000   1.0000   1.0000
     1.0000   1.0000   1.0000   1.0000   1.0000   1.0000   1.0000   1.0000
     1.0000   1.0000   1.0000   1.0000   1.0000   1.0000   1.0000   1.0000
     1.0000   1.0000   1.0000   1.0000   1.0000   1.0000   1.0000   1.0000
     1.0000   1.0000   1.0000   1.0000   1.0000   1.0000   1.0000   1.0000
     1.0000   1.0000   1.0000   1.0000   1.0000   1.0000   1.0000   1.0000
     1.0000   1.0000   1.0000   1.0000   1.0000   1.0000   1.0000   1.0000
     1.0000   1.0000   1.0000   1.0000   1.0000   1.0000   1.0000   1.0000
     1.0000   1.0000   1.0000   1.0000   1.0000   1.0000   1.0000   1.0000
     1.0000   1.0000   1.0000   1.0000   0.9962   0.9900   0.5705   0.1769
     0.0699   0.0281   0.0039   0.0005   0.0003   0.0002   0.0000   0.0000
     0.0000   0.0000   0.0000   0.0000   0.0000   0.0000   0.0000   0.0000
     0.0000   0.0000   0.0000   0.0000   0.0000   0.0000   0.0000   0.0000
     0.0000   0.0000

          k =-0.5000 0.0000 0.0000 ( 35502 PWs)   bands (ev):

   -59.2496 -59.2495 -58.9948 -58.9936 -58.8341 -58.8321 -58.8317 -58.8022
   -58.7103 -58.7076 -58.5884 -58.5735 -28.9975 -28.9972 -28.8708 -28.8706
   -28.7828 -28.7825 -28.7152 -28.7150 -28.6843 -28.6842 -28.6493 -28.6492
   -28.5937 -28.5805 -28.5761 -28.5698 -28.5400 -28.5393 -28.4847 -28.4832
   -28.4248 -28.4217 -28.4024 -28.3981 -28.3639 -28.3466 -28.2860 -28.2792
   -28.2707 -28.2292 -28.1953 -28.1874 -28.1624 -28.1245 -28.1235 -28.0959
   -16.9609 -16.9598 -16.6842 -16.6777 -16.4980 -16.4782 -16.2573 -16.2401
   -15.9927 -15.9811 -15.7962 -15.7956 -15.5843 -15.5839 -15.4597 -15.4574
   -15.4073 -15.3542 -15.3082 -15.2484 -14.6792  -4.8424  -4.8415  -4.5911
    -4.5900  -4.4185  -4.4073  -4.2915  -4.2823  -4.1942  -4.1839  -4.0521
    -3.9868  -3.8767  -3.8710  -3.7904  -3.7832  -3.6745  -3.6531  -3.5428
    -3.5280  -3.4212  -3.4106  -3.3137  -3.2983  -3.1815  -3.1382  -2.7464
    -2.6827  -2.5466  -2.4792  -2.3727  -2.3183  -2.1944  -2.1580  -2.0752
    -1.9643  -1.8362  -1.7630  -1.6645  -1.6147  -1.5335  -1.3666  -1.3432
    -1.2843  -1.2474  -1.1401  -1.0809  -1.0392  -0.9288  -0.7824  -0.7160
    -0.7071  -0.6204  -0.5516  -0.4506  -0.4097  -0.4027  -0.3937  -0.2292
    -0.2022  -0.1147  -0.0853   0.2323   3.3782   3.9870   3.9912   3.9923
     4.6247   5.0198   5.0204   5.0959   5.1844   5.1848   5.4213   5.8529
     5.8541   5.9209   5.9256   6.0310   6.1414   6.1850   6.3140   6.3954
     6.4824   6.6059   6.6763   6.7665   6.8202   7.0100   7.0278   7.0744
     7.0888   7.1217

     occupation numbers 
     1.0000   1.0000   1.0000   1.0000   1.0000   1.0000   1.0000   1.0000
     1.0000   1.0000   1.0000   1.0000   1.0000   1.0000   1.0000   1.0000
     1.0000   1.0000   1.0000   1.0000   1.0000   1.0000   1.0000   1.0000
     1.0000   1.0000   1.0000   1.0000   1.0000   1.0000   1.0000   1.0000
     1.0000   1.0000   1.0000   1.0000   1.0000   1.0000   1.0000   1.0000
     1.0000   1.0000   1.0000   1.0000   1.0000   1.0000   1.0000   1.0000
     1.0000   1.0000   1.0000   1.0000   1.0000   1.0000   1.0000   1.0000
     1.0000   1.0000   1.0000   1.0000   1.0000   1.0000   1.0000   1.0000
     1.0000   1.0000   1.0000   1.0000   1.0000   1.0000   1.0000   1.0000
     1.0000   1.0000   1.0000   1.0000   1.0000   1.0000   1.0000   1.0000
     1.0000   1.0000   1.0000   1.0000   1.0000   1.0000   1.0000   1.0000
     1.0000   1.0000   1.0000   1.0000   1.0000   1.0000   1.0000   1.0000
     1.0000   1.0000   1.0000   1.0000   1.0000   1.0000   1.0000   1.0000
     1.0000   1.0000   1.0000   1.0000   1.0000   1.0000   1.0000   1.0000
     1.0000   1.0000   1.0000   1.0000   1.0000   1.0000   1.0000   1.0000
     1.0000   1.0000   1.0000   1.0000   1.0000   1.0000   1.0000   1.0000
     1.0000   1.0000   1.0000   1.0000   0.9957   0.7238   0.7176   0.7159
     0.0236   0.0013   0.0013   0.0008   0.0004   0.0004   0.0001   0.0000
     0.0000   0.0000   0.0000   0.0000   0.0000   0.0000   0.0000   0.0000
     0.0000   0.0000   0.0000   0.0000   0.0000   0.0000   0.0000   0.0000
     0.0000   0.0000

          k =-0.5000 0.2600 0.0000 ( 35450 PWs)   bands (ev):

   -59.2495 -59.2494 -58.9948 -58.9936 -58.8341 -58.8320 -58.8317 -58.8022
   -58.7103 -58.7076 -58.5885 -58.5735 -29.0525 -29.0522 -28.9212 -28.9211
   -28.7927 -28.7925 -28.7424 -28.7421 -28.6777 -28.6761 -28.6503 -28.6477
   -28.6191 -28.6037 -28.5886 -28.5790 -28.5247 -28.5209 -28.4949 -28.4700
   -28.4285 -28.3895 -28.3732 -28.3608 -28.3400 -28.3134 -28.2637 -28.2469
   -28.2423 -28.2218 -28.1987 -28.1550 -28.1382 -28.1161 -28.1056 -28.0941
   -16.9667 -16.9658 -16.7056 -16.7018 -16.5624 -16.5431 -16.3482 -16.3353
   -16.0545 -16.0429 -15.8237 -15.8224 -15.5588 -15.5544 -15.4232 -15.4025
   -15.3073 -15.2728 -15.2048 -15.1540 -14.5958  -4.8931  -4.8900  -4.5813
    -4.5713  -4.3811  -4.3598  -4.2598  -4.2550  -4.1232  -4.1117  -3.9923
    -3.9390  -3.8633  -3.8447  -3.7496  -3.7340  -3.6601  -3.6339  -3.4745
    -3.4486  -3.2510  -3.2341  -3.1495  -3.1283  -2.9230  -2.9039  -2.7141
    -2.6820  -2.5592  -2.5306  -2.3358  -2.2706  -2.2278  -2.1954  -2.0268
    -1.9891  -1.9735  -1.8892  -1.7611  -1.6812  -1.5991  -1.5474  -1.4179
    -1.3639  -1.2792  -1.2324  -1.1728  -1.0696  -1.0226  -0.8999  -0.8710
    -0.7275  -0.6361  -0.5840  -0.5369  -0.4972  -0.4083  -0.3922  -0.2896
    -0.2432  -0.0970  -0.0455   0.1839   3.5407   3.9093   3.9100   4.0972
     4.4459   4.8005   4.8012   4.9971   4.9987   5.2129   5.5053   5.5207
     5.5670   5.7523   5.7925   5.9490   6.0137   6.1177   6.1778   6.2467
     6.2959   6.4452   6.5273   6.5948   6.7266   6.7968   6.9652   7.0287
     7.0850   7.1662

     occupation numbers 
     1.0000   1.0000   1.0000   1.0000   1.0000   1.0000   1.0000   1.0000
     1.0000   1.0000   1.0000   1.0000   1.0000   1.0000   1.0000   1.0000
     1.0000   1.0000   1.0000   1.0000   1.0000   1.0000   1.0000   1.0000
     1.0000   1.0000   1.0000   1.0000   1.0000   1.0000   1.0000   1.0000
     1.0000   1.0000   1.0000   1.0000   1.0000   1.0000   1.0000   1.0000
     1.0000   1.0000   1.0000   1.0000   1.0000   1.0000   1.0000   1.0000
     1.0000   1.0000   1.0000   1.0000   1.0000   1.0000   1.0000   1.0000
     1.0000   1.0000   1.0000   1.0000   1.0000   1.0000   1.0000   1.0000
     1.0000   1.0000   1.0000   1.0000   1.0000   1.0000   1.0000   1.0000
     1.0000   1.0000   1.0000   1.0000   1.0000   1.0000   1.0000   1.0000
     1.0000   1.0000   1.0000   1.0000   1.0000   1.0000   1.0000   1.0000
     1.0000   1.0000   1.0000   1.0000   1.0000   1.0000   1.0000   1.0000
     1.0000   1.0000   1.0000   1.0000   1.0000   1.0000   1.0000   1.0000
     1.0000   1.0000   1.0000   1.0000   1.0000   1.0000   1.0000   1.0000
     1.0000   1.0000   1.0000   1.0000   1.0000   1.0000   1.0000   1.0000
     1.0000   1.0000   1.0000   1.0000   1.0000   1.0000   1.0000   1.0000
     1.0000   1.0000   1.0000   1.0000   0.9858   0.8226   0.8219   0.5383
     0.0824   0.0066   0.0066   0.0016   0.0015   0.0003   0.0000   0.0000
     0.0000   0.0000   0.0000   0.0000   0.0000   0.0000   0.0000   0.0000
     0.0000   0.0000   0.0000   0.0000   0.0000   0.0000   0.0000   0.0000
     0.0000   0.0000

          k =-0.5000-0.5200 0.0000 ( 35320 PWs)   bands (ev):

   -59.2495 -59.2494 -58.9948 -58.9935 -58.8340 -58.8320 -58.8317 -58.8021
   -58.7102 -58.7076 -58.5886 -58.5736 -29.0921 -29.0918 -28.9678 -28.9678
   -28.8254 -28.8251 -28.7428 -28.7416 -28.6930 -28.6918 -28.6662 -28.6546
   -28.6372 -28.6247 -28.5784 -28.5605 -28.5209 -28.4887 -28.4860 -28.4710
   -28.4168 -28.3815 -28.3406 -28.3278 -28.3262 -28.3072 -28.2373 -28.2225
   -28.2083 -28.2039 -28.1972 -28.1548 -28.1190 -28.1133 -28.0793 -28.0732
   -16.9774 -16.9768 -16.7279 -16.7268 -16.6009 -16.5912 -16.4353 -16.4183
   -16.1200 -16.0923 -15.8543 -15.8513 -15.5246 -15.5218 -15.3625 -15.3489
   -15.2068 -15.2009 -15.1431 -15.0836 -14.5226  -4.7633  -4.7602  -4.5255
    -4.5237  -4.3857  -4.3689  -4.2233  -4.2041  -4.1074  -4.0832  -4.0085
    -4.0037  -3.8941  -3.8666  -3.8397  -3.8228  -3.6473  -3.5972  -3.2581
    -3.2088  -3.0887  -3.0445  -3.0346  -2.9236  -2.7878  -2.7854  -2.7545
    -2.7186  -2.5756  -2.5640  -2.4014  -2.3640  -2.1445  -2.0789  -1.9924
    -1.9522  -1.9136  -1.8886  -1.8207  -1.8026  -1.7251  -1.6429  -1.4993
    -1.3111  -1.2922  -1.2369  -1.2025  -1.1371  -1.0730  -0.9734  -0.8609
    -0.7779  -0.7629  -0.7190  -0.6389  -0.5009  -0.4932  -0.4514  -0.3775
    -0.2922  -0.1535  -0.1409   0.1211   3.7879   3.7962   3.7975   3.9899
     4.4820   4.4823   4.6286   5.0740   5.0838   5.1414   5.2333   5.2462
     5.4253   5.4945   5.5104   5.7639   5.8670   5.9646   6.0818   6.0919
     6.2023   6.3251   6.4846   6.5619   6.6657   6.8213   6.8961   7.0696
     7.1254   7.2853

     occupation numbers 
     1.0000   1.0000   1.0000   1.0000   1.0000   1.0000   1.0000   1.0000
     1.0000   1.0000   1.0000   1.0000   1.0000   1.0000   1.0000   1.0000
     1.0000   1.0000   1.0000   1.0000   1.0000   1.0000   1.0000   1.0000
     1.0000   1.0000   1.0000   1.0000   1.0000   1.0000   1.0000   1.0000
     1.0000   1.0000   1.0000   1.0000   1.0000   1.0000   1.0000   1.0000
     1.0000   1.0000   1.0000   1.0000   1.0000   1.0000   1.0000   1.0000
     1.0000   1.0000   1.0000   1.0000   1.0000   1.0000   1.0000   1.0000
     1.0000   1.0000   1.0000   1.0000   1.0000   1.0000   1.0000   1.0000
     1.0000   1.0000   1.0000   1.0000   1.0000   1.0000   1.0000   1.0000
     1.0000   1.0000   1.0000   1.0000   1.0000   1.0000   1.0000   1.0000
     1.0000   1.0000   1.0000   1.0000   1.0000   1.0000   1.0000   1.0000
     1.0000   1.0000   1.0000   1.0000   1.0000   1.0000   1.0000   1.0000
     1.0000   1.0000   1.0000   1.0000   1.0000   1.0000   1.0000   1.0000
     1.0000   1.0000   1.0000   1.0000   1.0000   1.0000   1.0000   1.0000
     1.0000   1.0000   1.0000   1.0000   1.0000   1.0000   1.0000   1.0000
     1.0000   1.0000   1.0000   1.0000   1.0000   1.0000   1.0000   1.0000
     1.0000   1.0000   1.0000   1.0000   0.9188   0.9142   0.9134   0.7196
     0.0644   0.0643   0.0229   0.0009   0.0008   0.0005   0.0003   0.0003
     0.0001   0.0000   0.0000   0.0000   0.0000   0.0000   0.0000   0.0000
     0.0000   0.0000   0.0000   0.0000   0.0000   0.0000   0.0000   0.0000
     0.0000   0.0000

     the Fermi energy is     4.1181 ev

!    total energy              =   -1853.44034107 Ry
     estimated scf accuracy    <       0.00000009 Ry
     smearing contrib. (-TS)   =      -0.03681471 Ry
     internal energy E=F+TS    =   -1853.40352636 Ry

     The total energy is F=E-TS. E is the sum of the following terms:
     one-electron contribution =  -41392.36042718 Ry
     hartree contribution      =   20723.37721770 Ry
     xc contribution           =    -289.34507638 Ry
     ewald contribution        =   19104.92523144 Ry
     electric field correction =      -0.00047195 Ry

     convergence has been achieved in   7 iterations

     Forces acting on atoms (cartesian axes, Ry/au):

     atom    1 type  1   force =     0.01547908   -0.01587746    0.07307697
     atom    2 type  1   force =     0.00024510   -0.00185646    0.00985437
     atom    3 type  1   force =     0.00546955   -0.00487204    0.00840924
     atom    4 type  1   force =     0.01554085    0.01584385    0.07306994
     atom    5 type  1   force =     0.00060711    0.00170302    0.00982665
     atom    6 type  1   force =    -0.00220726    0.01337290    0.01571569
     atom    7 type  1   force =    -0.00385235    0.00873065    0.01267889
     atom    8 type  1   force =    -0.00027361    0.00102975    0.00880575
     atom    9 type  1   force =     0.02969322    0.05919915   -0.03426874
     atom   10 type  1   force =    -0.00361159   -0.00884437    0.01264595
     atom   11 type  1   force =     0.00012184   -0.00113616    0.01022698
     atom   12 type  1   force =    -0.05962421   -0.03604568   -0.02687065
     atom   13 type  2   force =    -0.01631154    0.02019288   -0.02495146
     atom   14 type  2   force =    -0.00071696    0.00135024   -0.00415037
     atom   15 type  2   force =     0.01122566   -0.01495071    0.00851415
     atom   16 type  2   force =    -0.01620702   -0.02015463   -0.02514791
     atom   17 type  2   force =    -0.00051116   -0.00120263   -0.00417507
     atom   18 type  2   force =     0.01203397    0.01267948   -0.01532504
     atom   19 type  2   force =     0.00400018   -0.00230746   -0.06020155
     atom   20 type  2   force =     0.00058949   -0.00004367   -0.00486585
     atom   21 type  2   force =    -0.00468868   -0.01143667    0.02411769
     atom   22 type  2   force =     0.00082291    0.00309778   -0.00215718
     atom   23 type  2   force =     0.00151741    0.00110479   -0.00460640
     atom   24 type  2   force =     0.00075702   -0.00305797   -0.00189874
     atom   25 type  2   force =     0.00021767   -0.00076652   -0.00432305
     atom   26 type  2   force =    -0.00208098   -0.00397938   -0.00042169
     atom   27 type  2   force =     0.00400317    0.00228021   -0.06019046
     atom   28 type  2   force =    -0.00069725   -0.00005143   -0.00731358
     atom   29 type  2   force =     0.00057144    0.00002230   -0.00480652
     atom   30 type  2   force =    -0.00078141   -0.00001177   -0.00171417
     atom   31 type  2   force =     0.01143332   -0.01525463    0.03008400
     atom   32 type  2   force =    -0.00069808    0.00022446   -0.00719255
     atom   33 type  2   force =    -0.00206688    0.00101819   -0.00244530
     The non-local contrib.  to forces
     atom    1 type  1   force =    -0.01955156    0.01742851   -0.07740819
     atom    2 type  1   force =    -0.03042495    0.06476872    0.03264077
     atom    3 type  1   force =    -0.03407237    0.06837661    0.04088386
     atom    4 type  1   force =    -0.01940961   -0.01735024   -0.07746338
     atom    5 type  1   force =    -0.03077335   -0.06479693    0.03261882
     atom    6 type  1   force =    -0.03037526   -0.07169958    0.03194408
     atom    7 type  1   force =     0.03184690   -0.07181647    0.01790141
     atom    8 type  1   force =     0.03044141   -0.06394973    0.03347080
     atom    9 type  1   force =     0.01718149   -0.12022618    0.18305409
     atom   10 type  1   force =     0.03194247    0.07181465    0.01792359
     atom   11 type  1   force =     0.03049725    0.06421672    0.03361308
     atom   12 type  1   force =     0.10851533    0.00575873    0.19689946
     atom   13 type  2   force =    -0.08632876    0.07685785    0.03787241
     atom   14 type  2   force =    -0.05376328    0.04733054    0.03193637
     atom   15 type  2   force =    -0.04204192    0.02446446    0.03044731
     atom   16 type  2   force =    -0.08571576   -0.07635850    0.03743921
     atom   17 type  2   force =    -0.05305331   -0.04667067    0.03184782
     atom   18 type  2   force =    -0.03335787   -0.01852415    0.00748584
     atom   19 type  2   force =    -0.04576116   -0.15011418   -0.04246470
     atom   20 type  2   force =    -0.05225743   -0.14667425    0.00590565
     atom   21 type  2   force =    -0.06546731   -0.16856962    0.03746217
     atom   22 type  2   force =     0.05486214    0.04897156    0.03683541
     atom   23 type  2   force =     0.05470081    0.04677628    0.03093701
     atom   24 type  2   force =     0.05500238   -0.04925480    0.03677284
     atom   25 type  2   force =     0.05263000   -0.04644521    0.03044178
     atom   26 type  2   force =     0.15868380   -0.17363837   -0.32371088
     atom   27 type  2   force =    -0.04569700    0.15006787   -0.04246280
     atom   28 type  2   force =     0.05237463    0.14634823    0.00003199
     atom   29 type  2   force =    -0.05242350    0.14652016    0.00604932
     atom   30 type  2   force =     0.05286486    0.14660224    0.01058647
     atom   31 type  2   force =    -0.03169348    0.13149085    0.03275702
     atom   32 type  2   force =     0.05238243   -0.14653222    0.00015027
     atom   33 type  2   force =     0.04979413   -0.14490804    0.00987963
     The ionic contribution  to forces
     atom    1 type  1   force =    -1.52878986    1.02840422 -240.46781592
     atom    2 type  1   force =    -1.80759892   -2.70611968  -48.28947805
     atom    3 type  1   force =    -2.11419912   -2.51898218  146.40734761
     atom    4 type  1   force =    -1.52591236   -1.02735550 -240.46825310
     atom    5 type  1   force =    -1.80318840    2.70465809  -48.28816441
     atom    6 type  1   force =    -1.48472948    2.77354732  147.51640221
     atom    7 type  1   force =     1.80518424    2.50026694 -145.90724640
     atom    8 type  1   force =     1.77586490    2.71367731   49.28809471
     atom    9 type  1   force =    -3.83232512   -1.26178424  236.82165239
     atom   10 type  1   force =     1.81769333   -2.50024324 -145.90501063
     atom   11 type  1   force =     1.83194475   -2.71302915   49.29588291
     atom   12 type  1   force =     6.41835627   -0.63676199  236.92997642
     atom   13 type  2   force =     0.85452832    0.36071833 -108.77757233
     atom   14 type  2   force =     0.86482011    0.79727260  -12.11767117
     atom   15 type  2   force =     0.09507677    0.61991545   85.56090178
     atom   16 type  2   force =     0.85580329   -0.36221572 -108.76141749
     atom   17 type  2   force =     0.86816601   -0.79906579  -12.10102188
     atom   18 type  2   force =     1.57025078   -0.98574212   85.12901667
     atom   19 type  2   force =     0.37643214    2.31165840  -98.26655140
     atom   20 type  2   force =     0.36456442    2.42157181   -0.02654472
     atom   21 type  2   force =     0.77605875    2.59120465   97.59374297
     atom   22 type  2   force =    -0.86356469    0.78164428  -60.85411355
     atom   23 type  2   force =    -0.86151923    0.79187796   36.72049979
     atom   24 type  2   force =    -0.86708585   -0.77986984  -60.85738202
     atom   25 type  2   force =    -0.87017725   -0.80432828   36.64762958
     atom   26 type  2   force =    -2.05921460    1.42863824  123.43602307
     atom   27 type  2   force =     0.37578422   -2.31348482  -98.26818912
     atom   28 type  2   force =    -0.36310900   -2.41323343  -48.84240356
     atom   29 type  2   force =     0.36113020   -2.42141004   -0.02415230
     atom   30 type  2   force =    -0.39513739   -2.39914523   48.80238106
     atom   31 type  2   force =     0.05596242   -2.03345138   98.17104968
     atom   32 type  2   force =    -0.36232087    2.41551932  -48.84240583
     atom   33 type  2   force =    -0.32874878    2.43564770   48.74479304
     The local contribution  to forces
     atom    1 type  1   force =     1.56382774   -1.06173128  240.61812863
     atom    2 type  1   force =     1.83826863    2.63948856   48.26672454
     atom    3 type  1   force =     2.15375434    2.44574898 -146.43940527
     atom    4 type  1   force =     1.56087014    1.06056817  240.61861401
     atom    5 type  1   force =     1.83456860   -2.63815493   48.26540520
     atom    6 type  1   force =     1.51289059   -2.68848376 -147.53219477
     atom    7 type  1   force =    -1.84088230   -2.41972353  145.90162713
     atom    8 type  1   force =    -1.80657793   -2.64869748  -49.31232420
     atom    9 type  1   force =     3.84470851    1.44102805 -237.03877038
     atom   10 type  1   force =    -1.85324628    2.41958545  145.89933630
     atom   11 type  1   force =    -1.86231869    2.64767259  -49.31882873
     atom   12 type  1   force =    -6.58656391    0.59496162 -237.15345145
     atom   13 type  2   force =    -0.78450854   -0.41738622  108.71454742
     atom   14 type  2   force =    -0.81176994   -0.84325583   12.08169285
     atom   15 type  2   force =    -0.04183560   -0.65934136  -85.58259709
     atom   16 type  2   force =    -0.78629210    0.41841983  108.69862910
     atom   17 type  2   force =    -0.81561992    0.84453408   12.06510757
     atom   18 type  2   force =    -1.52484013    1.01695792  -85.15157688
     atom   19 type  2   force =    -0.32667097   -2.16385295   98.24857289
     atom   20 type  2   force =    -0.31171733   -2.27493882    0.01596259
     atom   21 type  2   force =    -0.71525598   -2.43410437  -97.60685352
     atom   22 type  2   force =     0.80952789   -0.82751445   60.81488550
     atom   23 type  2   force =     0.80833100   -0.83755320  -36.75572998
     atom   24 type  2   force =     0.81284321    0.82606012   60.81847487
     atom   25 type  2   force =     0.81776747    0.85000921  -36.68208060
     atom   26 type  2   force =     1.89863860   -1.25865960 -123.11249076
     atom   27 type  2   force =    -0.32608424    2.16569610   98.25021964
     atom   28 type  2   force =     0.31003535    2.26683050   48.83488241
     atom   29 type  2   force =    -0.30813523    2.27490735    0.01348637
     atom   30 type  2   force =     0.34148975    2.25252931  -48.81435846
     atom   31 type  2   force =    -0.01287690    1.88669823  -98.17348348
     atom   32 type  2   force =     0.30923858   -2.26876190   48.83488749
     atom   33 type  2   force =     0.27689342   -2.28972403  -48.75679287
     The core correction contribution to forces
     atom    1 type  1   force =     0.00000000    0.00000000    0.00000000
     atom    2 type  1   force =     0.00000000    0.00000000    0.00000000
     atom    3 type  1   force =     0.00000000    0.00000000    0.00000000
     atom    4 type  1   force =     0.00000000    0.00000000    0.00000000
     atom    5 type  1   force =     0.00000000    0.00000000    0.00000000
     atom    6 type  1   force =     0.00000000    0.00000000    0.00000000
     atom    7 type  1   force =     0.00000000    0.00000000    0.00000000
     atom    8 type  1   force =     0.00000000    0.00000000    0.00000000
     atom    9 type  1   force =     0.00000000    0.00000000    0.00000000
     atom   10 type  1   force =     0.00000000    0.00000000    0.00000000
     atom   11 type  1   force =     0.00000000    0.00000000    0.00000000
     atom   12 type  1   force =     0.00000000    0.00000000    0.00000000
     atom   13 type  2   force =     0.00000000    0.00000000    0.00000000
     atom   14 type  2   force =     0.00000000    0.00000000    0.00000000
     atom   15 type  2   force =     0.00000000    0.00000000    0.00000000
     atom   16 type  2   force =     0.00000000    0.00000000    0.00000000
     atom   17 type  2   force =     0.00000000    0.00000000    0.00000000
     atom   18 type  2   force =     0.00000000    0.00000000    0.00000000
     atom   19 type  2   force =     0.00000000    0.00000000    0.00000000
     atom   20 type  2   force =     0.00000000    0.00000000    0.00000000
     atom   21 type  2   force =     0.00000000    0.00000000    0.00000000
     atom   22 type  2   force =     0.00000000    0.00000000    0.00000000
     atom   23 type  2   force =     0.00000000    0.00000000    0.00000000
     atom   24 type  2   force =     0.00000000    0.00000000    0.00000000
     atom   25 type  2   force =     0.00000000    0.00000000    0.00000000
     atom   26 type  2   force =     0.00000000    0.00000000    0.00000000
     atom   27 type  2   force =     0.00000000    0.00000000    0.00000000
     atom   28 type  2   force =     0.00000000    0.00000000    0.00000000
     atom   29 type  2   force =     0.00000000    0.00000000    0.00000000
     atom   30 type  2   force =     0.00000000    0.00000000    0.00000000
     atom   31 type  2   force =     0.00000000    0.00000000    0.00000000
     atom   32 type  2   force =     0.00000000    0.00000000    0.00000000
     atom   33 type  2   force =     0.00000000    0.00000000    0.00000000
     The Hubbard contrib.    to forces
     atom    1 type  1   force =     0.00000000    0.00000000    0.00000000
     atom    2 type  1   force =     0.00000000    0.00000000    0.00000000
     atom    3 type  1   force =     0.00000000    0.00000000    0.00000000
     atom    4 type  1   force =     0.00000000    0.00000000    0.00000000
     atom    5 type  1   force =     0.00000000    0.00000000    0.00000000
     atom    6 type  1   force =     0.00000000    0.00000000    0.00000000
     atom    7 type  1   force =     0.00000000    0.00000000    0.00000000
     atom    8 type  1   force =     0.00000000    0.00000000    0.00000000
     atom    9 type  1   force =     0.00000000    0.00000000    0.00000000
     atom   10 type  1   force =     0.00000000    0.00000000    0.00000000
     atom   11 type  1   force =     0.00000000    0.00000000    0.00000000
     atom   12 type  1   force =     0.00000000    0.00000000    0.00000000
     atom   13 type  2   force =     0.00000000    0.00000000    0.00000000
     atom   14 type  2   force =     0.00000000    0.00000000    0.00000000
     atom   15 type  2   force =     0.00000000    0.00000000    0.00000000
     atom   16 type  2   force =     0.00000000    0.00000000    0.00000000
     atom   17 type  2   force =     0.00000000    0.00000000    0.00000000
     atom   18 type  2   force =     0.00000000    0.00000000    0.00000000
     atom   19 type  2   force =     0.00000000    0.00000000    0.00000000
     atom   20 type  2   force =     0.00000000    0.00000000    0.00000000
     atom   21 type  2   force =     0.00000000    0.00000000    0.00000000
     atom   22 type  2   force =     0.00000000    0.00000000    0.00000000
     atom   23 type  2   force =     0.00000000    0.00000000    0.00000000
     atom   24 type  2   force =     0.00000000    0.00000000    0.00000000
     atom   25 type  2   force =     0.00000000    0.00000000    0.00000000
     atom   26 type  2   force =     0.00000000    0.00000000    0.00000000
     atom   27 type  2   force =     0.00000000    0.00000000    0.00000000
     atom   28 type  2   force =     0.00000000    0.00000000    0.00000000
     atom   29 type  2   force =     0.00000000    0.00000000    0.00000000
     atom   30 type  2   force =     0.00000000    0.00000000    0.00000000
     atom   31 type  2   force =     0.00000000    0.00000000    0.00000000
     atom   32 type  2   force =     0.00000000    0.00000000    0.00000000
     atom   33 type  2   force =     0.00000000    0.00000000    0.00000000
     The SCF correction term to forces
     atom    1 type  1   force =     0.00000000    0.00000000    0.00000000
     atom    2 type  1   force =     0.00000000    0.00000000    0.00000000
     atom    3 type  1   force =     0.00000000    0.00000000    0.00000000
     atom    4 type  1   force =     0.00000000    0.00000000    0.00000000
     atom    5 type  1   force =     0.00000000    0.00000000    0.00000000
     atom    6 type  1   force =     0.00000000    0.00000000    0.00000000
     atom    7 type  1   force =     0.00000000    0.00000000    0.00000000
     atom    8 type  1   force =     0.00000000    0.00000000    0.00000000
     atom    9 type  1   force =     0.00000000    0.00000000    0.00000000
     atom   10 type  1   force =     0.00000000    0.00000000    0.00000000
     atom   11 type  1   force =     0.00000000    0.00000000    0.00000000
     atom   12 type  1   force =     0.00000000    0.00000000    0.00000000
     atom   13 type  2   force =     0.00000000    0.00000000    0.00000000
     atom   14 type  2   force =     0.00000000    0.00000000    0.00000000
     atom   15 type  2   force =     0.00000000    0.00000000    0.00000000
     atom   16 type  2   force =     0.00000000    0.00000000    0.00000000
     atom   17 type  2   force =     0.00000000    0.00000000    0.00000000
     atom   18 type  2   force =     0.00000000    0.00000000    0.00000000
     atom   19 type  2   force =     0.00000000    0.00000000    0.00000000
     atom   20 type  2   force =     0.00000000    0.00000000    0.00000000
     atom   21 type  2   force =     0.00000000    0.00000000    0.00000000
     atom   22 type  2   force =     0.00000000    0.00000000    0.00000000
     atom   23 type  2   force =     0.00000000    0.00000000    0.00000000
     atom   24 type  2   force =     0.00000000    0.00000000    0.00000000
     atom   25 type  2   force =     0.00000000    0.00000000    0.00000000
     atom   26 type  2   force =    -0.00018806   -0.00032094   -0.00020688
     atom   27 type  2   force =     0.00000000    0.00000000    0.00000000
     atom   28 type  2   force =     0.00000000    0.00000000    0.00000000
     atom   29 type  2   force =     0.00000000    0.00000000    0.00000000
     atom   30 type  2   force =     0.00000000    0.00000000    0.00000000
     atom   31 type  2   force =     0.00000000    0.00000000    0.00000000
     atom   32 type  2   force =     0.00000000    0.00000000    0.00000000
     atom   33 type  2   force =     0.00000000    0.00000000    0.00000000

     Total force =     0.004510     Total SCF correction =     0.000426
     Energy error            =      3.8E-05
     Gradient error          =      4.0E-03

     number of scf cycles    =   6
     number of bfgs steps    =   5

     energy   old            =   -1853.4403034927 Ry
     energy   new            =   -1853.4403410728 Ry

     CASE: energy  _new < energy  _old

     new trust radius        =       0.0080614437 bohr
     new conv_thr            =       0.0000000376 Ry


ATOMIC_POSITIONS (angstrom)
Hf            4.0076390000        3.7813620000        6.1529890000    0   0   0
Hf            4.0076390000        3.7813620000       11.0753320000    0   0   0
Hf            4.0076390000        3.7813620000       15.9976750000    0   0   0
Hf            1.4522770000        1.1321830000        6.1529770000    0   0   0
Hf            1.4522770000        1.1321830000       11.0753200000    0   0   0
Hf            1.4522770000        1.1321830000       15.9976630000    0   0   0
Hf            3.6579980000        1.1322110000        8.6140330000    0   0   0
Hf            3.6579980000        1.1322110000       13.5363760000    0   0   0
Hf            3.6579980000        1.1322110000       18.4587190000    0   0   0
Hf            1.1027520000        3.7813090000        8.6141070000    0   0   0
Hf            1.1027520000        3.7813090000       13.5364490000    0   0   0
Hf            1.1027520000        3.7813090000       18.4587920000    0   0   0
O             3.1707970000        2.0862730000        6.8074440000    0   0   0
O             3.1707970000        2.0862730000       11.7297860000    0   0   0
O             3.1707970000        2.0862730000       16.6521290000    0   0   0
O             0.6152330000        2.8266930000        6.8083890000    0   0   0
O             0.6152330000        2.8266930000       11.7307320000    0   0   0
O             0.6152330000        2.8266930000       16.6530750000    0   0   0
O             5.0530890000        0.2074550000        7.3799440000    0   0   0
O             5.0530890000        0.2074550000       12.3022870000    0   0   0
O             5.0530890000        0.2074550000       17.2246300000    0   0   0
O             1.9399660000        2.0865810000        9.2696970000    0   0   0
O             1.9399660000        2.0865810000       14.1920390000    0   0   0
O             4.4952530000        2.8267400000        9.2692970000    0   0   0
O             4.4952530000        2.8267400000       14.1916400000    0   0   0
O             4.5646344562        2.7998798634       18.9937712649
O             2.4978700000       -0.2075440000        7.3798460000    0   0   0
O             2.6124080000       -0.2081150000        9.8410840000    0   0   0
O             2.4978700000       -0.2075440000       12.3021890000    0   0   0
O             2.6124080000       -0.2081150000       14.7634270000    0   0   0
O             2.4978700000       -0.2075440000       17.2245320000    0   0   0
O             5.1675430000        0.2075860000        9.8410300000    0   0   0
O             5.1675430000        0.2075860000       14.7633720000    0   0   0



     Writing output data file ./hfo2.save/
     NEW-OLD atomic charge density approx. for the potential

     negative rho (up, down):  2.879E-05 0.000E+00
 
     Adding external electric field

     Computed dipole along edir(3) : 
        Elec. dipole         -2.7569 Ry au,         -7.0074 Debye
        Ion. dipole          -2.7559 Ry au,         -7.0049 Debye
        Dipole                0.4732 Ry au,          1.2028 Debye
        Dipole field          0.0010 Ry au, 
 
        E field amplitude [Ha a.u.]:  1.0000E-03
        Potential amp.       -0.0003 Ry
        Total length         62.8334 bohr
 

     total cpu time spent up to now is      497.6 secs

     Self-consistent Calculation

     iteration #  1     ecut=    50.00 Ry     beta= 0.30
     Davidson diagonalization with overlap
     ethr =  1.00E-06,  avg # of iterations =  2.1

     Threshold (ethr) on eigenvalues was too large:
     Diagonalizing with lowered threshold

     Davidson diagonalization with overlap
     ethr =  1.00E-08,  avg # of iterations =  4.1

     negative rho (up, down):  1.796E-05 0.000E+00
 
     Adding external electric field

     Computed dipole along edir(3) : 
        Elec. dipole         -2.7569 Ry au,         -7.0074 Debye
        Ion. dipole          -2.7559 Ry au,         -7.0049 Debye
        Dipole                0.4733 Ry au,          1.2029 Debye
        Dipole field          0.0010 Ry au, 
 
        E field amplitude [Ha a.u.]:  1.0000E-03
        Potential amp.       -0.0004 Ry
        Total length         62.8334 bohr
 

     total cpu time spent up to now is      508.4 secs

     total energy              =   -1853.44037049 Ry
     estimated scf accuracy    <       0.00003053 Ry

     iteration #  2     ecut=    50.00 Ry     beta= 0.30
     Davidson diagonalization with overlap
     ethr =  1.13E-08,  avg # of iterations =  1.6

     negative rho (up, down):  1.021E-05 0.000E+00
 
     Adding external electric field

     Computed dipole along edir(3) : 
        Elec. dipole         -2.7569 Ry au,         -7.0074 Debye
        Ion. dipole          -2.7559 Ry au,         -7.0049 Debye
        Dipole                0.4733 Ry au,          1.2030 Debye
        Dipole field          0.0010 Ry au, 
 
        E field amplitude [Ha a.u.]:  1.0000E-03
        Potential amp.       -0.0004 Ry
        Total length         62.8334 bohr
 

     total cpu time spent up to now is      518.5 secs

     total energy              =   -1853.44036657 Ry
     estimated scf accuracy    <       0.00001561 Ry

     iteration #  3     ecut=    50.00 Ry     beta= 0.30
     Davidson diagonalization with overlap
     ethr =  5.78E-09,  avg # of iterations =  4.5

     negative rho (up, down):  5.255E-06 0.000E+00
 
     Adding external electric field

     Computed dipole along edir(3) : 
        Elec. dipole         -2.7569 Ry au,         -7.0074 Debye
        Ion. dipole          -2.7559 Ry au,         -7.0049 Debye
        Dipole                0.4733 Ry au,          1.2031 Debye
        Dipole field          0.0010 Ry au, 
 
        E field amplitude [Ha a.u.]:  1.0000E-03
        Potential amp.       -0.0004 Ry
        Total length         62.8334 bohr
 

     total cpu time spent up to now is      522.0 secs

     total energy              =   -1853.44036626 Ry
     estimated scf accuracy    <       0.00000375 Ry

     iteration #  4     ecut=    50.00 Ry     beta= 0.30
     Davidson diagonalization with overlap
     ethr =  1.39E-09,  avg # of iterations =  5.3

     negative rho (up, down):  2.237E-06 0.000E+00
 
     Adding external electric field

     Computed dipole along edir(3) : 
        Elec. dipole         -2.7569 Ry au,         -7.0074 Debye
        Ion. dipole          -2.7559 Ry au,         -7.0049 Debye
        Dipole                0.4733 Ry au,          1.2031 Debye
        Dipole field          0.0010 Ry au, 
 
        E field amplitude [Ha a.u.]:  1.0000E-03
        Potential amp.       -0.0004 Ry
        Total length         62.8334 bohr
 

     total cpu time spent up to now is      525.6 secs

     total energy              =   -1853.44036654 Ry
     estimated scf accuracy    <       0.00000093 Ry

     iteration #  5     ecut=    50.00 Ry     beta= 0.30
     Davidson diagonalization with overlap
     ethr =  3.46E-10,  avg # of iterations =  2.1

     negative rho (up, down):  5.490E-07 0.000E+00
 
     Adding external electric field

     Computed dipole along edir(3) : 
        Elec. dipole         -2.7569 Ry au,         -7.0074 Debye
        Ion. dipole          -2.7559 Ry au,         -7.0049 Debye
        Dipole                0.4733 Ry au,          1.2031 Debye
        Dipole field          0.0010 Ry au, 
 
        E field amplitude [Ha a.u.]:  1.0000E-03
        Potential amp.       -0.0004 Ry
        Total length         62.8334 bohr
 

     total cpu time spent up to now is      528.9 secs

     total energy              =   -1853.44036646 Ry
     estimated scf accuracy    <       0.00000062 Ry

     iteration #  6     ecut=    50.00 Ry     beta= 0.30
     Davidson diagonalization with overlap
     ethr =  2.30E-10,  avg # of iterations =  5.2

     negative rho (up, down):  1.283E-07 0.000E+00
 
     Adding external electric field

     Computed dipole along edir(3) : 
        Elec. dipole         -2.7569 Ry au,         -7.0074 Debye
        Ion. dipole          -2.7559 Ry au,         -7.0049 Debye
        Dipole                0.4734 Ry au,          1.2032 Debye
        Dipole field          0.0010 Ry au, 
 
        E field amplitude [Ha a.u.]:  1.0000E-03
        Potential amp.       -0.0004 Ry
        Total length         62.8334 bohr
 

     total cpu time spent up to now is      532.4 secs

     total energy              =   -1853.44036644 Ry
     estimated scf accuracy    <       0.00000037 Ry

     iteration #  7     ecut=    50.00 Ry     beta= 0.30
     Davidson diagonalization with overlap
     ethr =  1.37E-10,  avg # of iterations =  2.2

     negative rho (up, down):  3.035E-08 0.000E+00
 
     Adding external electric field

     Computed dipole along edir(3) : 
        Elec. dipole         -2.7569 Ry au,         -7.0074 Debye
        Ion. dipole          -2.7559 Ry au,         -7.0049 Debye
        Dipole                0.4734 Ry au,          1.2032 Debye
        Dipole field          0.0010 Ry au, 
 
        E field amplitude [Ha a.u.]:  1.0000E-03
        Potential amp.       -0.0004 Ry
        Total length         62.8334 bohr
 

     total cpu time spent up to now is      535.7 secs

     total energy              =   -1853.44036647 Ry
     estimated scf accuracy    <       0.00000008 Ry

     iteration #  8     ecut=    50.00 Ry     beta= 0.30
     Davidson diagonalization with overlap
     ethr =  2.94E-11,  avg # of iterations =  5.7
 
     Adding external electric field

     Computed dipole along edir(3) : 
        Elec. dipole         -2.7569 Ry au,         -7.0074 Debye
        Ion. dipole          -2.7559 Ry au,         -7.0049 Debye
        Dipole                0.4725 Ry au,          1.2009 Debye
        Dipole field          0.0010 Ry au, 
 
        E field amplitude [Ha a.u.]:  1.0000E-03
        Potential amp.       -0.0001 Ry
        Total length         62.8334 bohr
 

     total cpu time spent up to now is      537.8 secs

     End of self-consistent calculation

          k = 0.0000 0.0000 0.0000 ( 35385 PWs)   bands (ev):

   -59.2568 -59.2434 -59.0027 -58.9873 -58.8410 -58.8406 -58.8256 -58.7928
   -58.7177 -58.7023 -58.5914 -58.5708 -29.1022 -29.0426 -28.9552 -28.8761
   -28.8301 -28.7721 -28.7662 -28.7381 -28.7001 -28.6672 -28.6494 -28.6395
   -28.6239 -28.6077 -28.5797 -28.5337 -28.5262 -28.5158 -28.4737 -28.4338
   -28.4252 -28.3763 -28.3742 -28.3643 -28.3241 -28.3166 -28.2958 -28.2721
   -28.2413 -28.1980 -28.1929 -28.1642 -28.1441 -28.1160 -28.0827 -28.0614
   -17.8378 -17.4319 -16.9252 -16.6564 -16.3956 -16.3585 -16.2169 -16.1330
   -16.0478 -16.0238 -15.9015 -15.7299 -15.5484 -15.3994 -15.3874 -15.2591
   -15.2529 -15.1320 -15.0808 -15.0109 -14.5639  -5.4539  -5.4316  -5.2615
    -5.2160  -5.0676  -4.9764  -4.6679  -4.6144  -4.4367  -4.4008  -4.2746
    -4.2291  -4.1253  -3.9052  -3.8080  -3.6417  -3.6065  -3.4434  -3.3955
    -3.3431  -3.1376  -3.0766  -2.8475  -2.8045  -2.7778  -2.6671  -2.5929
    -2.4890  -2.4350  -2.2941  -2.2252  -2.1290  -1.9875  -1.9848  -1.9579
    -1.8559  -1.7553  -1.7262  -1.7038  -1.6763  -1.6159  -1.5978  -1.2698
    -1.2407  -1.1843  -1.0665  -0.8919  -0.8673  -0.8197  -0.7124  -0.6519
    -0.5809  -0.5768  -0.3716  -0.2291  -0.1939  -0.1093   0.0711   0.1086
     0.2444   0.2584   0.3739   0.5023   2.6951   2.9333   4.1630   4.3664
     4.4266   4.8148   5.0396   5.0768   5.3452   5.4962   5.5671   5.8333
     5.9510   6.0178   6.0530   6.1975   6.2501   6.2869   6.4120   6.4581
     6.4673   6.6213   6.6505   6.7097   6.8583   6.8987   7.0033   7.0291
     7.0407   7.2102

     occupation numbers 
     1.0000   1.0000   1.0000   1.0000   1.0000   1.0000   1.0000   1.0000
     1.0000   1.0000   1.0000   1.0000   1.0000   1.0000   1.0000   1.0000
     1.0000   1.0000   1.0000   1.0000   1.0000   1.0000   1.0000   1.0000
     1.0000   1.0000   1.0000   1.0000   1.0000   1.0000   1.0000   1.0000
     1.0000   1.0000   1.0000   1.0000   1.0000   1.0000   1.0000   1.0000
     1.0000   1.0000   1.0000   1.0000   1.0000   1.0000   1.0000   1.0000
     1.0000   1.0000   1.0000   1.0000   1.0000   1.0000   1.0000   1.0000
     1.0000   1.0000   1.0000   1.0000   1.0000   1.0000   1.0000   1.0000
     1.0000   1.0000   1.0000   1.0000   1.0000   1.0000   1.0000   1.0000
     1.0000   1.0000   1.0000   1.0000   1.0000   1.0000   1.0000   1.0000
     1.0000   1.0000   1.0000   1.0000   1.0000   1.0000   1.0000   1.0000
     1.0000   1.0000   1.0000   1.0000   1.0000   1.0000   1.0000   1.0000
     1.0000   1.0000   1.0000   1.0000   1.0000   1.0000   1.0000   1.0000
     1.0000   1.0000   1.0000   1.0000   1.0000   1.0000   1.0000   1.0000
     1.0000   1.0000   1.0000   1.0000   1.0000   1.0000   1.0000   1.0000
     1.0000   1.0000   1.0000   1.0000   1.0000   1.0000   1.0000   1.0000
     1.0000   1.0000   1.0000   1.0000   1.0000   0.9998   0.4173   0.1383
     0.0935   0.0059   0.0011   0.0009   0.0001   0.0000   0.0000   0.0000
     0.0000   0.0000   0.0000   0.0000   0.0000   0.0000   0.0000   0.0000
     0.0000   0.0000   0.0000   0.0000   0.0000   0.0000   0.0000   0.0000
     0.0000   0.0000

          k = 0.0000 0.2600 0.0000 ( 35369 PWs)   bands (ev):

   -59.2551 -59.2450 -59.0010 -58.9890 -58.8402 -58.8392 -58.8273 -58.7931
   -58.7160 -58.7040 -58.5905 -58.5719 -29.0858 -28.9912 -28.9300 -28.8720
   -28.8050 -28.7785 -28.7503 -28.7204 -28.6943 -28.6721 -28.6543 -28.6434
   -28.6366 -28.5894 -28.5756 -28.5449 -28.5233 -28.5185 -28.4940 -28.4445
   -28.4218 -28.4096 -28.3947 -28.3774 -28.3573 -28.3062 -28.2750 -28.2678
   -28.2625 -28.2309 -28.2017 -28.1780 -28.1430 -28.1159 -28.0997 -28.0852
   -17.5760 -17.2204 -16.8093 -16.5955 -16.3699 -16.2883 -16.1458 -16.0855
   -16.0300 -15.9890 -15.9559 -15.7546 -15.6117 -15.5583 -15.4521 -15.4018
   -15.3585 -15.2374 -15.1449 -15.0927 -14.6181  -5.4011  -5.2650  -5.0844
    -4.9660  -4.9275  -4.7069  -4.6009  -4.5501  -4.5129  -4.3657  -4.3023
    -4.1849  -3.9444  -3.8837  -3.7039  -3.6549  -3.5706  -3.4827  -3.3926
    -3.3256  -3.2628  -3.2380  -3.0316  -2.9312  -2.8193  -2.7049  -2.6468
    -2.5384  -2.4322  -2.3439  -2.2927  -2.2128  -2.1605  -2.0540  -2.0297
    -1.9132  -1.8283  -1.6720  -1.5508  -1.4868  -1.4356  -1.3409  -1.2129
    -1.2080  -1.1119  -0.9745  -0.9236  -0.8662  -0.8172  -0.7674  -0.7305
    -0.6662  -0.5784  -0.5248  -0.4024  -0.3160  -0.2490  -0.2187  -0.1907
     0.0801   0.2156   0.3154   0.4459   3.0582   3.2970   4.2356   4.2514
     4.3774   4.8375   4.9122   5.1457   5.2207   5.2522   5.3475   5.4430
     5.6750   5.7189   5.8490   5.8782   5.9793   6.1250   6.1585   6.3615
     6.5486   6.6224   6.6924   6.7426   6.9366   6.9935   7.0726   7.1640
     7.2412   7.3353

     occupation numbers 
     1.0000   1.0000   1.0000   1.0000   1.0000   1.0000   1.0000   1.0000
     1.0000   1.0000   1.0000   1.0000   1.0000   1.0000   1.0000   1.0000
     1.0000   1.0000   1.0000   1.0000   1.0000   1.0000   1.0000   1.0000
     1.0000   1.0000   1.0000   1.0000   1.0000   1.0000   1.0000   1.0000
     1.0000   1.0000   1.0000   1.0000   1.0000   1.0000   1.0000   1.0000
     1.0000   1.0000   1.0000   1.0000   1.0000   1.0000   1.0000   1.0000
     1.0000   1.0000   1.0000   1.0000   1.0000   1.0000   1.0000   1.0000
     1.0000   1.0000   1.0000   1.0000   1.0000   1.0000   1.0000   1.0000
     1.0000   1.0000   1.0000   1.0000   1.0000   1.0000   1.0000   1.0000
     1.0000   1.0000   1.0000   1.0000   1.0000   1.0000   1.0000   1.0000
     1.0000   1.0000   1.0000   1.0000   1.0000   1.0000   1.0000   1.0000
     1.0000   1.0000   1.0000   1.0000   1.0000   1.0000   1.0000   1.0000
     1.0000   1.0000   1.0000   1.0000   1.0000   1.0000   1.0000   1.0000
     1.0000   1.0000   1.0000   1.0000   1.0000   1.0000   1.0000   1.0000
     1.0000   1.0000   1.0000   1.0000   1.0000   1.0000   1.0000   1.0000
     1.0000   1.0000   1.0000   1.0000   1.0000   1.0000   1.0000   1.0000
     1.0000   1.0000   1.0000   1.0000   0.9996   0.9976   0.2957   0.2721
     0.1290   0.0050   0.0029   0.0005   0.0003   0.0002   0.0001   0.0001
     0.0000   0.0000   0.0000   0.0000   0.0000   0.0000   0.0000   0.0000
     0.0000   0.0000   0.0000   0.0000   0.0000   0.0000   0.0000   0.0000
     0.0000   0.0000

          k = 0.0000-0.5200 0.0000 ( 35392 PWs)   bands (ev):

   -59.2525 -59.2475 -58.9985 -58.9914 -58.8398 -58.8367 -58.8298 -58.7934
   -58.7137 -58.7064 -58.5894 -58.5732 -29.0670 -28.9216 -28.8854 -28.8806
   -28.7848 -28.7796 -28.7571 -28.7197 -28.6955 -28.6765 -28.6477 -28.6323
   -28.6233 -28.5968 -28.5761 -28.5539 -28.5241 -28.5134 -28.4911 -28.4599
   -28.4552 -28.4217 -28.4152 -28.3752 -28.3642 -28.3423 -28.3075 -28.2905
   -28.2667 -28.2296 -28.1895 -28.1694 -28.1503 -28.1414 -28.1212 -28.0931
   -17.1999 -16.9089 -16.6562 -16.5321 -16.3383 -16.2141 -16.1815 -16.0677
   -16.0432 -16.0055 -15.9564 -15.9382 -15.7914 -15.6307 -15.6271 -15.4336
   -15.4246 -15.3022 -15.1985 -15.1732 -14.6701  -5.2000  -5.1287  -4.9910
    -4.7961  -4.6343  -4.5524  -4.4667  -4.4529  -4.2777  -4.2462  -4.2256
    -4.1562  -4.0565  -3.9475  -3.8820  -3.8290  -3.7680  -3.5854  -3.5482
    -3.2881  -3.2243  -3.1341  -3.0901  -2.8863  -2.8555  -2.7641  -2.6401
    -2.6016  -2.4277  -2.3667  -2.2805  -2.2196  -2.0791  -2.0110  -1.9533
    -1.8396  -1.6461  -1.5885  -1.5315  -1.4620  -1.4498  -1.3288  -1.3064
    -1.2591  -1.1747  -1.1659  -1.1053  -1.0331  -0.9578  -0.8953  -0.8302
    -0.7561  -0.6397  -0.5739  -0.5504  -0.4328  -0.3097  -0.2327  -0.2214
     0.0372   0.1603   0.3114   0.3961   3.6359   3.7976   4.0666   4.1367
     4.3660   4.5106   4.5769   5.0254   5.1031   5.2348   5.2470   5.2803
     5.4627   5.5081   5.5609   5.6805   5.7415   5.9703   6.1605   6.3045
     6.4421   6.4811   6.5789   6.8410   6.9844   7.1058   7.1351   7.1918
     7.2724   7.2833

     occupation numbers 
     1.0000   1.0000   1.0000   1.0000   1.0000   1.0000   1.0000   1.0000
     1.0000   1.0000   1.0000   1.0000   1.0000   1.0000   1.0000   1.0000
     1.0000   1.0000   1.0000   1.0000   1.0000   1.0000   1.0000   1.0000
     1.0000   1.0000   1.0000   1.0000   1.0000   1.0000   1.0000   1.0000
     1.0000   1.0000   1.0000   1.0000   1.0000   1.0000   1.0000   1.0000
     1.0000   1.0000   1.0000   1.0000   1.0000   1.0000   1.0000   1.0000
     1.0000   1.0000   1.0000   1.0000   1.0000   1.0000   1.0000   1.0000
     1.0000   1.0000   1.0000   1.0000   1.0000   1.0000   1.0000   1.0000
     1.0000   1.0000   1.0000   1.0000   1.0000   1.0000   1.0000   1.0000
     1.0000   1.0000   1.0000   1.0000   1.0000   1.0000   1.0000   1.0000
     1.0000   1.0000   1.0000   1.0000   1.0000   1.0000   1.0000   1.0000
     1.0000   1.0000   1.0000   1.0000   1.0000   1.0000   1.0000   1.0000
     1.0000   1.0000   1.0000   1.0000   1.0000   1.0000   1.0000   1.0000
     1.0000   1.0000   1.0000   1.0000   1.0000   1.0000   1.0000   1.0000
     1.0000   1.0000   1.0000   1.0000   1.0000   1.0000   1.0000   1.0000
     1.0000   1.0000   1.0000   1.0000   1.0000   1.0000   1.0000   1.0000
     1.0000   1.0000   1.0000   1.0000   0.9718   0.9131   0.5925   0.4648
     0.1387   0.0527   0.0331   0.0013   0.0007   0.0003   0.0002   0.0002
     0.0001   0.0000   0.0000   0.0000   0.0000   0.0000   0.0000   0.0000
     0.0000   0.0000   0.0000   0.0000   0.0000   0.0000   0.0000   0.0000
     0.0000   0.0000

          k = 0.2500 0.0000 0.0000 ( 35470 PWs)   bands (ev):

   -59.2548 -59.2453 -59.0005 -58.9895 -58.8401 -58.8387 -58.8279 -58.7933
   -58.7155 -58.7045 -58.5902 -58.5722 -29.0650 -29.0106 -28.9245 -28.8643
   -28.7923 -28.7905 -28.7594 -28.7184 -28.6816 -28.6635 -28.6517 -28.6386
   -28.6178 -28.6114 -28.5846 -28.5576 -28.5292 -28.5204 -28.4898 -28.4313
   -28.4180 -28.4144 -28.3984 -28.3780 -28.3453 -28.3097 -28.2913 -28.2741
   -28.2513 -28.2298 -28.2034 -28.1759 -28.1433 -28.1145 -28.1022 -28.0873
   -17.5667 -17.2081 -16.7900 -16.6570 -16.3630 -16.3409 -16.2277 -16.1505
   -16.0121 -16.0095 -15.8514 -15.7876 -15.5613 -15.5416 -15.4156 -15.3950
   -15.3180 -15.2614 -15.1704 -15.1100 -14.6215  -5.2075  -5.0819  -4.9490
    -4.8944  -4.7932  -4.6663  -4.5707  -4.5271  -4.3573  -4.3063  -4.1945
    -4.0912  -4.0347  -4.0007  -3.9248  -3.8100  -3.7251  -3.5349  -3.3892
    -3.3429  -3.2518  -3.2079  -3.0399  -3.0250  -2.8391  -2.7723  -2.5753
    -2.5191  -2.3916  -2.3414  -2.2899  -2.2267  -2.1459  -2.0375  -1.9154
    -1.8748  -1.7834  -1.7315  -1.6311  -1.5843  -1.5580  -1.5314  -1.3896
    -1.3579  -1.2679  -1.1529  -1.1055  -0.9730  -0.8729  -0.7994  -0.6566
    -0.6078  -0.5476  -0.4355  -0.4012  -0.3429  -0.1990  -0.1615  -0.0517
    -0.0226   0.0732   0.1182   0.3175   2.9615   3.2730   4.1659   4.3320
     4.6343   4.8629   4.9127   5.1604   5.1780   5.5373   5.5846   5.7180
     5.8608   5.9158   6.0530   6.1244   6.2053   6.3062   6.3632   6.4723
     6.5367   6.6255   6.6456   6.7233   6.7731   6.8817   6.9265   7.0648
     7.1515   7.2510

     occupation numbers 
     1.0000   1.0000   1.0000   1.0000   1.0000   1.0000   1.0000   1.0000
     1.0000   1.0000   1.0000   1.0000   1.0000   1.0000   1.0000   1.0000
     1.0000   1.0000   1.0000   1.0000   1.0000   1.0000   1.0000   1.0000
     1.0000   1.0000   1.0000   1.0000   1.0000   1.0000   1.0000   1.0000
     1.0000   1.0000   1.0000   1.0000   1.0000   1.0000   1.0000   1.0000
     1.0000   1.0000   1.0000   1.0000   1.0000   1.0000   1.0000   1.0000
     1.0000   1.0000   1.0000   1.0000   1.0000   1.0000   1.0000   1.0000
     1.0000   1.0000   1.0000   1.0000   1.0000   1.0000   1.0000   1.0000
     1.0000   1.0000   1.0000   1.0000   1.0000   1.0000   1.0000   1.0000
     1.0000   1.0000   1.0000   1.0000   1.0000   1.0000   1.0000   1.0000
     1.0000   1.0000   1.0000   1.0000   1.0000   1.0000   1.0000   1.0000
     1.0000   1.0000   1.0000   1.0000   1.0000   1.0000   1.0000   1.0000
     1.0000   1.0000   1.0000   1.0000   1.0000   1.0000   1.0000   1.0000
     1.0000   1.0000   1.0000   1.0000   1.0000   1.0000   1.0000   1.0000
     1.0000   1.0000   1.0000   1.0000   1.0000   1.0000   1.0000   1.0000
     1.0000   1.0000   1.0000   1.0000   1.0000   1.0000   1.0000   1.0000
     1.0000   1.0000   1.0000   1.0000   0.9998   0.9980   0.4121   0.1714
     0.0219   0.0042   0.0029   0.0005   0.0004   0.0000   0.0000   0.0000
     0.0000   0.0000   0.0000   0.0000   0.0000   0.0000   0.0000   0.0000
     0.0000   0.0000   0.0000   0.0000   0.0000   0.0000   0.0000   0.0000
     0.0000   0.0000

          k = 0.2500 0.2600 0.0000 ( 35420 PWs)   bands (ev):

   -59.2536 -59.2464 -58.9992 -58.9907 -58.8398 -58.8375 -58.8290 -58.7934
   -58.7144 -58.7056 -58.5897 -58.5729 -29.0792 -29.0174 -28.9335 -28.8763
   -28.8142 -28.7774 -28.7499 -28.7228 -28.7027 -28.6700 -28.6419 -28.6346
   -28.6228 -28.6115 -28.5870 -28.5477 -28.5256 -28.4990 -28.4728 -28.4552
   -28.4454 -28.4216 -28.3888 -28.3700 -28.3344 -28.3237 -28.2953 -28.2714
   -28.2439 -28.2181 -28.1942 -28.1602 -28.1531 -28.1288 -28.1067 -28.0692
   -17.3842 -17.0692 -16.7475 -16.6713 -16.4126 -16.3485 -16.2392 -16.1737
   -16.0273 -16.0026 -15.9092 -15.7434 -15.6277 -15.5399 -15.4670 -15.4187
   -15.3701 -15.2830 -15.1510 -15.0793 -14.6719  -5.1850  -5.0364  -4.8005
    -4.7468  -4.6849  -4.6219  -4.4970  -4.4070  -4.3279  -4.2924  -4.1941
    -4.0861  -3.9982  -3.9470  -3.8491  -3.6362  -3.5254  -3.4074  -3.3429
    -3.3133  -3.2596  -3.1925  -3.1306  -3.0129  -2.9801  -2.8756  -2.7461
    -2.5294  -2.4537  -2.3781  -2.3110  -2.2228  -2.1577  -2.0853  -1.8979
    -1.8115  -1.7775  -1.7326  -1.6202  -1.5711  -1.4944  -1.4307  -1.3958
    -1.3165  -1.2478  -1.1449  -1.0700  -1.0237  -0.9774  -0.9344  -0.7842
    -0.6817  -0.6427  -0.5487  -0.4529  -0.4449  -0.3944  -0.2540  -0.1603
    -0.1135  -0.0055   0.1143   0.3037   3.1578   3.4916   4.0787   4.1324
     4.5992   4.7745   4.8714   5.0447   5.1711   5.2158   5.3700   5.4810
     5.5790   5.7677   5.8400   5.9069   6.0179   6.0899   6.1407   6.3675
     6.4300   6.6104   6.6956   6.7522   6.7701   6.9263   6.9991   7.1288
     7.2102   7.2513

     occupation numbers 
     1.0000   1.0000   1.0000   1.0000   1.0000   1.0000   1.0000   1.0000
     1.0000   1.0000   1.0000   1.0000   1.0000   1.0000   1.0000   1.0000
     1.0000   1.0000   1.0000   1.0000   1.0000   1.0000   1.0000   1.0000
     1.0000   1.0000   1.0000   1.0000   1.0000   1.0000   1.0000   1.0000
     1.0000   1.0000   1.0000   1.0000   1.0000   1.0000   1.0000   1.0000
     1.0000   1.0000   1.0000   1.0000   1.0000   1.0000   1.0000   1.0000
     1.0000   1.0000   1.0000   1.0000   1.0000   1.0000   1.0000   1.0000
     1.0000   1.0000   1.0000   1.0000   1.0000   1.0000   1.0000   1.0000
     1.0000   1.0000   1.0000   1.0000   1.0000   1.0000   1.0000   1.0000
     1.0000   1.0000   1.0000   1.0000   1.0000   1.0000   1.0000   1.0000
     1.0000   1.0000   1.0000   1.0000   1.0000   1.0000   1.0000   1.0000
     1.0000   1.0000   1.0000   1.0000   1.0000   1.0000   1.0000   1.0000
     1.0000   1.0000   1.0000   1.0000   1.0000   1.0000   1.0000   1.0000
     1.0000   1.0000   1.0000   1.0000   1.0000   1.0000   1.0000   1.0000
     1.0000   1.0000   1.0000   1.0000   1.0000   1.0000   1.0000   1.0000
     1.0000   1.0000   1.0000   1.0000   1.0000   1.0000   1.0000   1.0000
     1.0000   1.0000   1.0000   1.0000   0.9991   0.9901   0.5710   0.4728
     0.0282   0.0079   0.0039   0.0011   0.0004   0.0003   0.0001   0.0000
     0.0000   0.0000   0.0000   0.0000   0.0000   0.0000   0.0000   0.0000
     0.0000   0.0000   0.0000   0.0000   0.0000   0.0000   0.0000   0.0000
     0.0000   0.0000

          k = 0.2500-0.5200 0.0000 ( 35366 PWs)   bands (ev):

   -59.2518 -59.2482 -58.9975 -58.9924 -58.8397 -58.8357 -58.8308 -58.7935
   -58.7127 -58.7072 -58.5891 -58.5736 -29.0855 -29.0281 -28.9340 -28.9157
   -28.7909 -28.7871 -28.7526 -28.7425 -28.6924 -28.6758 -28.6555 -28.6491
   -28.6169 -28.6036 -28.5979 -28.5707 -28.5269 -28.5157 -28.4923 -28.4606
   -28.4254 -28.3914 -28.3781 -28.3593 -28.3441 -28.3055 -28.2826 -28.2517
   -28.2427 -28.2177 -28.1912 -28.1528 -28.1359 -28.1174 -28.1049 -28.0926
   -17.1421 -16.8733 -16.7189 -16.6791 -16.4618 -16.3921 -16.3163 -16.2595
   -16.1252 -16.0444 -15.9975 -15.7388 -15.6886 -15.5490 -15.4373 -15.4007
   -15.3126 -15.2706 -15.1747 -15.1228 -14.5930  -5.0550  -5.0222  -4.8164
    -4.6092  -4.5757  -4.4833  -4.3408  -4.3158  -4.2113  -4.1700  -4.0892
    -4.0359  -3.9375  -3.8715  -3.7881  -3.7410  -3.6371  -3.5647  -3.4261
    -3.3473  -3.3085  -3.0076  -2.9634  -2.9005  -2.7958  -2.7312  -2.6629
    -2.6073  -2.4619  -2.4091  -2.3537  -2.2853  -2.2640  -2.2122  -2.0452
    -1.9478  -1.8965  -1.8594  -1.7248  -1.5909  -1.4999  -1.3971  -1.3832
    -1.3338  -1.2399  -1.1923  -1.1286  -1.0323  -0.9880  -0.8860  -0.8467
    -0.7435  -0.7166  -0.6014  -0.5577  -0.4907  -0.4350  -0.2916  -0.2277
    -0.2156  -0.0669   0.1044   0.2848   3.6699   3.7258   4.0444   4.1249
     4.4622   4.4833   4.6651   4.9800   5.0245   5.0975   5.1628   5.3026
     5.3826   5.4587   5.6017   5.6969   5.7702   5.9880   6.1109   6.1796
     6.3730   6.4761   6.6663   6.7116   6.8685   6.9568   7.0324   7.1888
     7.2311   7.2803

     occupation numbers 
     1.0000   1.0000   1.0000   1.0000   1.0000   1.0000   1.0000   1.0000
     1.0000   1.0000   1.0000   1.0000   1.0000   1.0000   1.0000   1.0000
     1.0000   1.0000   1.0000   1.0000   1.0000   1.0000   1.0000   1.0000
     1.0000   1.0000   1.0000   1.0000   1.0000   1.0000   1.0000   1.0000
     1.0000   1.0000   1.0000   1.0000   1.0000   1.0000   1.0000   1.0000
     1.0000   1.0000   1.0000   1.0000   1.0000   1.0000   1.0000   1.0000
     1.0000   1.0000   1.0000   1.0000   1.0000   1.0000   1.0000   1.0000
     1.0000   1.0000   1.0000   1.0000   1.0000   1.0000   1.0000   1.0000
     1.0000   1.0000   1.0000   1.0000   1.0000   1.0000   1.0000   1.0000
     1.0000   1.0000   1.0000   1.0000   1.0000   1.0000   1.0000   1.0000
     1.0000   1.0000   1.0000   1.0000   1.0000   1.0000   1.0000   1.0000
     1.0000   1.0000   1.0000   1.0000   1.0000   1.0000   1.0000   1.0000
     1.0000   1.0000   1.0000   1.0000   1.0000   1.0000   1.0000   1.0000
     1.0000   1.0000   1.0000   1.0000   1.0000   1.0000   1.0000   1.0000
     1.0000   1.0000   1.0000   1.0000   1.0000   1.0000   1.0000   1.0000
     1.0000   1.0000   1.0000   1.0000   1.0000   1.0000   1.0000   1.0000
     1.0000   1.0000   1.0000   1.0000   0.9641   0.9468   0.6313   0.4866
     0.0736   0.0637   0.0176   0.0018   0.0013   0.0007   0.0005   0.0002
     0.0001   0.0001   0.0000   0.0000   0.0000   0.0000   0.0000   0.0000
     0.0000   0.0000   0.0000   0.0000   0.0000   0.0000   0.0000   0.0000
     0.0000   0.0000

          k = 0.2500-0.2600 0.0000 ( 35420 PWs)   bands (ev):

   -59.2536 -59.2464 -58.9992 -58.9907 -58.8399 -58.8375 -58.8290 -58.7933
   -58.7144 -58.7056 -58.5897 -58.5729 -29.0793 -29.0173 -28.9335 -28.8763
   -28.8142 -28.7775 -28.7499 -28.7239 -28.7029 -28.6728 -28.6571 -28.6383
   -28.6314 -28.6169 -28.5873 -28.5650 -28.5372 -28.4987 -28.4777 -28.4607
   -28.4286 -28.4126 -28.3838 -28.3500 -28.3324 -28.3144 -28.2990 -28.2587
   -28.2294 -28.2186 -28.1977 -28.1653 -28.1433 -28.1389 -28.0971 -28.0728
   -17.3847 -17.0815 -16.7710 -16.6720 -16.4251 -16.3572 -16.2533 -16.1962
   -16.0478 -16.0200 -15.9095 -15.7443 -15.6278 -15.5384 -15.4360 -15.4093
   -15.3210 -15.2876 -15.1732 -15.1184 -14.5477  -5.1834  -5.0350  -4.7906
    -4.7465  -4.6957  -4.6293  -4.4805  -4.4025  -4.3422  -4.2863  -4.1901
    -4.1021  -3.9928  -3.9390  -3.8441  -3.6240  -3.5116  -3.3843  -3.3415
    -3.3187  -3.2461  -3.1803  -3.1395  -3.0212  -2.9499  -2.8447  -2.7458
    -2.5566  -2.5132  -2.3934  -2.3231  -2.1807  -2.1325  -2.0591  -1.9681
    -1.8967  -1.7894  -1.7650  -1.6581  -1.5962  -1.5216  -1.4523  -1.4168
    -1.2888  -1.2578  -1.1878  -1.1098  -1.0185  -0.9844  -0.8353  -0.7755
    -0.6553  -0.5951  -0.4938  -0.4492  -0.4266  -0.3956  -0.2926  -0.1569
    -0.1195   0.0069   0.1304   0.2845   3.3608   3.4920   4.0790   4.3262
     4.4698   4.5995   4.8708   5.1654   5.2116   5.2873   5.4736   5.5556
     5.6792   5.8025   5.8652   5.9323   5.9790   6.0314   6.1906   6.2390
     6.3704   6.4742   6.6288   6.7270   6.7715   6.8977   7.0237   7.0745
     7.1514   7.2151

     occupation numbers 
     1.0000   1.0000   1.0000   1.0000   1.0000   1.0000   1.0000   1.0000
     1.0000   1.0000   1.0000   1.0000   1.0000   1.0000   1.0000   1.0000
     1.0000   1.0000   1.0000   1.0000   1.0000   1.0000   1.0000   1.0000
     1.0000   1.0000   1.0000   1.0000   1.0000   1.0000   1.0000   1.0000
     1.0000   1.0000   1.0000   1.0000   1.0000   1.0000   1.0000   1.0000
     1.0000   1.0000   1.0000   1.0000   1.0000   1.0000   1.0000   1.0000
     1.0000   1.0000   1.0000   1.0000   1.0000   1.0000   1.0000   1.0000
     1.0000   1.0000   1.0000   1.0000   1.0000   1.0000   1.0000   1.0000
     1.0000   1.0000   1.0000   1.0000   1.0000   1.0000   1.0000   1.0000
     1.0000   1.0000   1.0000   1.0000   1.0000   1.0000   1.0000   1.0000
     1.0000   1.0000   1.0000   1.0000   1.0000   1.0000   1.0000   1.0000
     1.0000   1.0000   1.0000   1.0000   1.0000   1.0000   1.0000   1.0000
     1.0000   1.0000   1.0000   1.0000   1.0000   1.0000   1.0000   1.0000
     1.0000   1.0000   1.0000   1.0000   1.0000   1.0000   1.0000   1.0000
     1.0000   1.0000   1.0000   1.0000   1.0000   1.0000   1.0000   1.0000
     1.0000   1.0000   1.0000   1.0000   1.0000   1.0000   1.0000   1.0000
     1.0000   1.0000   1.0000   1.0000   0.9962   0.9900   0.5704   0.1774
     0.0699   0.0281   0.0039   0.0005   0.0003   0.0002   0.0000   0.0000
     0.0000   0.0000   0.0000   0.0000   0.0000   0.0000   0.0000   0.0000
     0.0000   0.0000   0.0000   0.0000   0.0000   0.0000   0.0000   0.0000
     0.0000   0.0000

          k =-0.5000 0.0000 0.0000 ( 35502 PWs)   bands (ev):

   -59.2501 -59.2500 -58.9956 -58.9944 -58.8396 -58.8334 -58.8331 -58.7937
   -58.7113 -58.7087 -58.5887 -58.5738 -28.9981 -28.9978 -28.8716 -28.8714
   -28.7835 -28.7832 -28.7161 -28.7159 -28.6850 -28.6849 -28.6503 -28.6502
   -28.5958 -28.5801 -28.5767 -28.5699 -28.5406 -28.5401 -28.4856 -28.4841
   -28.4248 -28.4218 -28.4038 -28.3973 -28.3651 -28.3464 -28.2871 -28.2801
   -28.2719 -28.2287 -28.1939 -28.1878 -28.1615 -28.1262 -28.1238 -28.0953
   -16.9616 -16.9605 -16.6850 -16.6786 -16.4987 -16.4788 -16.2582 -16.2409
   -15.9936 -15.9819 -15.7967 -15.7962 -15.5853 -15.5848 -15.4607 -15.4586
   -15.4067 -15.3550 -15.3085 -15.2493 -14.6812  -4.8433  -4.8424  -4.5919
    -4.5908  -4.4194  -4.4082  -4.2923  -4.2829  -4.1949  -4.1847  -4.0524
    -3.9874  -3.8775  -3.8718  -3.7911  -3.7840  -3.6755  -3.6539  -3.5433
    -3.5288  -3.4221  -3.4115  -3.3145  -3.2991  -3.1825  -3.1390  -2.7466
    -2.6839  -2.5473  -2.4796  -2.3737  -2.3191  -2.1951  -2.1587  -2.0771
    -1.9649  -1.8369  -1.7638  -1.6654  -1.6155  -1.5335  -1.3685  -1.3434
    -1.2851  -1.2484  -1.1407  -1.0818  -1.0400  -0.9296  -0.7827  -0.7166
    -0.7077  -0.6220  -0.5536  -0.4518  -0.4106  -0.4035  -0.3939  -0.2303
    -0.2032  -0.1156  -0.0860   0.2312   3.3788   3.9846   3.9907   3.9917
     4.6268   5.0193   5.0199   5.0924   5.1838   5.1842   5.4216   5.8520
     5.8531   5.9200   5.9246   6.0308   6.1412   6.1846   6.3140   6.3961
     6.4818   6.6054   6.6753   6.7659   6.8196   7.0095   7.0271   7.0738
     7.0879   7.1211

     occupation numbers 
     1.0000   1.0000   1.0000   1.0000   1.0000   1.0000   1.0000   1.0000
     1.0000   1.0000   1.0000   1.0000   1.0000   1.0000   1.0000   1.0000
     1.0000   1.0000   1.0000   1.0000   1.0000   1.0000   1.0000   1.0000
     1.0000   1.0000   1.0000   1.0000   1.0000   1.0000   1.0000   1.0000
     1.0000   1.0000   1.0000   1.0000   1.0000   1.0000   1.0000   1.0000
     1.0000   1.0000   1.0000   1.0000   1.0000   1.0000   1.0000   1.0000
     1.0000   1.0000   1.0000   1.0000   1.0000   1.0000   1.0000   1.0000
     1.0000   1.0000   1.0000   1.0000   1.0000   1.0000   1.0000   1.0000
     1.0000   1.0000   1.0000   1.0000   1.0000   1.0000   1.0000   1.0000
     1.0000   1.0000   1.0000   1.0000   1.0000   1.0000   1.0000   1.0000
     1.0000   1.0000   1.0000   1.0000   1.0000   1.0000   1.0000   1.0000
     1.0000   1.0000   1.0000   1.0000   1.0000   1.0000   1.0000   1.0000
     1.0000   1.0000   1.0000   1.0000   1.0000   1.0000   1.0000   1.0000
     1.0000   1.0000   1.0000   1.0000   1.0000   1.0000   1.0000   1.0000
     1.0000   1.0000   1.0000   1.0000   1.0000   1.0000   1.0000   1.0000
     1.0000   1.0000   1.0000   1.0000   1.0000   1.0000   1.0000   1.0000
     1.0000   1.0000   1.0000   1.0000   0.9956   0.7266   0.7176   0.7161
     0.0231   0.0013   0.0013   0.0008   0.0004   0.0004   0.0001   0.0000
     0.0000   0.0000   0.0000   0.0000   0.0000   0.0000   0.0000   0.0000
     0.0000   0.0000   0.0000   0.0000   0.0000   0.0000   0.0000   0.0000
     0.0000   0.0000

          k =-0.5000 0.2600 0.0000 ( 35450 PWs)   bands (ev):

   -59.2500 -59.2499 -58.9956 -58.9943 -58.8396 -58.8334 -58.8331 -58.7936
   -58.7113 -58.7087 -58.5888 -58.5739 -29.0531 -29.0528 -28.9220 -28.9219
   -28.7937 -28.7935 -28.7432 -28.7430 -28.6783 -28.6768 -28.6508 -28.6484
   -28.6196 -28.6042 -28.5892 -28.5800 -28.5253 -28.5217 -28.4952 -28.4707
   -28.4285 -28.3900 -28.3741 -28.3617 -28.3403 -28.3135 -28.2640 -28.2480
   -28.2431 -28.2225 -28.1973 -28.1552 -28.1383 -28.1156 -28.1062 -28.0940
   -16.9673 -16.9665 -16.7066 -16.7028 -16.5629 -16.5437 -16.3490 -16.3361
   -16.0553 -16.0436 -15.8243 -15.8230 -15.5596 -15.5553 -15.4237 -15.4036
   -15.3076 -15.2738 -15.2052 -15.1548 -14.5975  -4.8940  -4.8909  -4.5820
    -4.5720  -4.3820  -4.3605  -4.2606  -4.2558  -4.1241  -4.1125  -3.9927
    -3.9398  -3.8639  -3.8454  -3.7502  -3.7346  -3.6609  -3.6347  -3.4754
    -3.4494  -3.2520  -3.2350  -3.1501  -3.1288  -2.9238  -2.9047  -2.7151
    -2.6829  -2.5599  -2.5313  -2.3365  -2.2712  -2.2287  -2.1960  -2.0271
    -1.9898  -1.9742  -1.8898  -1.7621  -1.6822  -1.6000  -1.5481  -1.4190
    -1.3648  -1.2803  -1.2334  -1.1744  -1.0704  -1.0234  -0.9008  -0.8718
    -0.7281  -0.6374  -0.5851  -0.5388  -0.4977  -0.4095  -0.3928  -0.2905
    -0.2439  -0.0981  -0.0460   0.1828   3.5413   3.9089   3.9095   4.0952
     4.4453   4.8000   4.8007   4.9965   4.9981   5.2110   5.5047   5.5203
     5.5669   5.7516   5.7917   5.9496   6.0129   6.1168   6.1786   6.2466
     6.2946   6.4448   6.5262   6.5951   6.7261   6.7966   6.9658   7.0291
     7.0843   7.1659

     occupation numbers 
     1.0000   1.0000   1.0000   1.0000   1.0000   1.0000   1.0000   1.0000
     1.0000   1.0000   1.0000   1.0000   1.0000   1.0000   1.0000   1.0000
     1.0000   1.0000   1.0000   1.0000   1.0000   1.0000   1.0000   1.0000
     1.0000   1.0000   1.0000   1.0000   1.0000   1.0000   1.0000   1.0000
     1.0000   1.0000   1.0000   1.0000   1.0000   1.0000   1.0000   1.0000
     1.0000   1.0000   1.0000   1.0000   1.0000   1.0000   1.0000   1.0000
     1.0000   1.0000   1.0000   1.0000   1.0000   1.0000   1.0000   1.0000
     1.0000   1.0000   1.0000   1.0000   1.0000   1.0000   1.0000   1.0000
     1.0000   1.0000   1.0000   1.0000   1.0000   1.0000   1.0000   1.0000
     1.0000   1.0000   1.0000   1.0000   1.0000   1.0000   1.0000   1.0000
     1.0000   1.0000   1.0000   1.0000   1.0000   1.0000   1.0000   1.0000
     1.0000   1.0000   1.0000   1.0000   1.0000   1.0000   1.0000   1.0000
     1.0000   1.0000   1.0000   1.0000   1.0000   1.0000   1.0000   1.0000
     1.0000   1.0000   1.0000   1.0000   1.0000   1.0000   1.0000   1.0000
     1.0000   1.0000   1.0000   1.0000   1.0000   1.0000   1.0000   1.0000
     1.0000   1.0000   1.0000   1.0000   1.0000   1.0000   1.0000   1.0000
     1.0000   1.0000   1.0000   1.0000   0.9857   0.8226   0.8219   0.5410
     0.0825   0.0066   0.0066   0.0016   0.0015   0.0003   0.0000   0.0000
     0.0000   0.0000   0.0000   0.0000   0.0000   0.0000   0.0000   0.0000
     0.0000   0.0000   0.0000   0.0000   0.0000   0.0000   0.0000   0.0000
     0.0000   0.0000

          k =-0.5000-0.5200 0.0000 ( 35320 PWs)   bands (ev):

   -59.2500 -59.2499 -58.9955 -58.9943 -58.8395 -58.8334 -58.8330 -58.7936
   -58.7113 -58.7086 -58.5889 -58.5739 -29.0927 -29.0924 -28.9687 -28.9686
   -28.8266 -28.8262 -28.7436 -28.7424 -28.6935 -28.6923 -28.6670 -28.6548
   -28.6378 -28.6255 -28.5790 -28.5614 -28.5211 -28.4895 -28.4867 -28.4716
   -28.4171 -28.3821 -28.3401 -28.3292 -28.3275 -28.3075 -28.2372 -28.2238
   -28.2082 -28.2049 -28.1966 -28.1552 -28.1205 -28.1116 -28.0791 -28.0735
   -16.9781 -16.9774 -16.7290 -16.7279 -16.6014 -16.5919 -16.4362 -16.4190
   -16.1209 -16.0928 -15.8550 -15.8518 -15.5254 -15.5226 -15.3630 -15.3500
   -15.2074 -15.2020 -15.1433 -15.0843 -14.5242  -4.7642  -4.7612  -4.5263
    -4.5246  -4.3864  -4.3696  -4.2242  -4.2049  -4.1083  -4.0840  -4.0092
    -4.0044  -3.8945  -3.8674  -3.8404  -3.8235  -3.6481  -3.5979  -3.2593
    -3.2095  -3.0887  -3.0452  -3.0350  -2.9241  -2.7886  -2.7862  -2.7552
    -2.7194  -2.5765  -2.5648  -2.4020  -2.3646  -2.1454  -2.0795  -1.9925
    -1.9530  -1.9143  -1.8892  -1.8215  -1.8035  -1.7260  -1.6437  -1.5023
    -1.3119  -1.2931  -1.2377  -1.2035  -1.1380  -1.0745  -0.9746  -0.8622
    -0.7790  -0.7635  -0.7191  -0.6401  -0.5024  -0.4941  -0.4520  -0.3784
    -0.2936  -0.1543  -0.1416   0.1200   3.7875   3.7958   3.7970   3.9898
     4.4815   4.4818   4.6262   5.0734   5.0831   5.1410   5.2323   5.2451
     5.4251   5.4927   5.5100   5.7653   5.8654   5.9645   6.0827   6.0903
     6.2027   6.3250   6.4840   6.5611   6.6691   6.8207   6.8956   7.0690
     7.1247   7.2841

     occupation numbers 
     1.0000   1.0000   1.0000   1.0000   1.0000   1.0000   1.0000   1.0000
     1.0000   1.0000   1.0000   1.0000   1.0000   1.0000   1.0000   1.0000
     1.0000   1.0000   1.0000   1.0000   1.0000   1.0000   1.0000   1.0000
     1.0000   1.0000   1.0000   1.0000   1.0000   1.0000   1.0000   1.0000
     1.0000   1.0000   1.0000   1.0000   1.0000   1.0000   1.0000   1.0000
     1.0000   1.0000   1.0000   1.0000   1.0000   1.0000   1.0000   1.0000
     1.0000   1.0000   1.0000   1.0000   1.0000   1.0000   1.0000   1.0000
     1.0000   1.0000   1.0000   1.0000   1.0000   1.0000   1.0000   1.0000
     1.0000   1.0000   1.0000   1.0000   1.0000   1.0000   1.0000   1.0000
     1.0000   1.0000   1.0000   1.0000   1.0000   1.0000   1.0000   1.0000
     1.0000   1.0000   1.0000   1.0000   1.0000   1.0000   1.0000   1.0000
     1.0000   1.0000   1.0000   1.0000   1.0000   1.0000   1.0000   1.0000
     1.0000   1.0000   1.0000   1.0000   1.0000   1.0000   1.0000   1.0000
     1.0000   1.0000   1.0000   1.0000   1.0000   1.0000   1.0000   1.0000
     1.0000   1.0000   1.0000   1.0000   1.0000   1.0000   1.0000   1.0000
     1.0000   1.0000   1.0000   1.0000   1.0000   1.0000   1.0000   1.0000
     1.0000   1.0000   1.0000   1.0000   0.9188   0.9141   0.9134   0.7188
     0.0645   0.0643   0.0232   0.0009   0.0008   0.0005   0.0003   0.0003
     0.0001   0.0000   0.0000   0.0000   0.0000   0.0000   0.0000   0.0000
     0.0000   0.0000   0.0000   0.0000   0.0000   0.0000   0.0000   0.0000
     0.0000   0.0000

     the Fermi energy is     4.1176 ev

!    total energy              =   -1853.44036647 Ry
     estimated scf accuracy    <       0.00000003 Ry
     smearing contrib. (-TS)   =      -0.03682114 Ry
     internal energy E=F+TS    =   -1853.40354533 Ry

     The total energy is F=E-TS. E is the sum of the following terms:
     one-electron contribution =  -41393.18225743 Ry
     hartree contribution      =   20723.81310544 Ry
     xc contribution           =    -289.34632564 Ry
     ewald contribution        =   19105.31240425 Ry
     electric field correction =      -0.00047195 Ry

     convergence has been achieved in   8 iterations

     Forces acting on atoms (cartesian axes, Ry/au):

     atom    1 type  1   force =     0.01547973   -0.01587719    0.07320198
     atom    2 type  1   force =     0.00024620   -0.00185252    0.00994724
     atom    3 type  1   force =     0.00541149   -0.00491806    0.00826557
     atom    4 type  1   force =     0.01554169    0.01584397    0.07319490
     atom    5 type  1   force =     0.00060803    0.00170003    0.00992017
     atom    6 type  1   force =    -0.00216087    0.01338425    0.01552136
     atom    7 type  1   force =    -0.00385157    0.00872901    0.01288055
     atom    8 type  1   force =    -0.00027880    0.00103239    0.00873730
     atom    9 type  1   force =     0.02917703    0.05802273   -0.03439650
     atom   10 type  1   force =    -0.00361066   -0.00884230    0.01284771
     atom   11 type  1   force =     0.00012360   -0.00113933    0.01014779
     atom   12 type  1   force =    -0.06008927   -0.03627898   -0.02718176
     atom   13 type  2   force =    -0.01631010    0.02019141   -0.02495166
     atom   14 type  2   force =    -0.00071691    0.00135334   -0.00416327
     atom   15 type  2   force =     0.01107646   -0.01498220    0.00825904
     atom   16 type  2   force =    -0.01620566   -0.02015255   -0.02514797
     atom   17 type  2   force =    -0.00051188   -0.00120469   -0.00418854
     atom   18 type  2   force =     0.01208601    0.01273360   -0.01532208
     atom   19 type  2   force =     0.00399944   -0.00230756   -0.06019780
     atom   20 type  2   force =     0.00059049   -0.00004413   -0.00488637
     atom   21 type  2   force =    -0.00458169   -0.01158053    0.02412672
     atom   22 type  2   force =     0.00081935    0.00309186   -0.00213952
     atom   23 type  2   force =     0.00151070    0.00111071   -0.00465561
     atom   24 type  2   force =     0.00075340   -0.00305145   -0.00188102
     atom   25 type  2   force =     0.00022845   -0.00077333   -0.00435996
     atom   26 type  2   force =    -0.00068920   -0.00205129    0.00003309
     atom   27 type  2   force =     0.00400220    0.00228067   -0.06018634
     atom   28 type  2   force =    -0.00069385   -0.00005337   -0.00729736
     atom   29 type  2   force =     0.00057276    0.00002210   -0.00482729
     atom   30 type  2   force =    -0.00078370   -0.00001151   -0.00176462
     atom   31 type  2   force =     0.01101669   -0.01561522    0.03013129
     atom   32 type  2   force =    -0.00069463    0.00022691   -0.00717619
     atom   33 type  2   force =    -0.00206491    0.00101322   -0.00249083
     The non-local contrib.  to forces
     atom    1 type  1   force =    -0.01955304    0.01743154   -0.07742429
     atom    2 type  1   force =    -0.03042610    0.06476744    0.03266569
     atom    3 type  1   force =    -0.03402985    0.06844755    0.04082959
     atom    4 type  1   force =    -0.01941103   -0.01735342   -0.07747954
     atom    5 type  1   force =    -0.03077427   -0.06479579    0.03264301
     atom    6 type  1   force =    -0.03044823   -0.07172949    0.03191987
     atom    7 type  1   force =     0.03184825   -0.07181492    0.01795197
     atom    8 type  1   force =     0.03044629   -0.06395239    0.03341797
     atom    9 type  1   force =     0.01601183   -0.12128054    0.18252196
     atom   10 type  1   force =     0.03194387    0.07181304    0.01797414
     atom   11 type  1   force =     0.03049456    0.06422112    0.03356811
     atom   12 type  1   force =     0.10777201    0.00531002    0.19746560
     atom   13 type  2   force =    -0.08632876    0.07685696    0.03788711
     atom   14 type  2   force =    -0.05376268    0.04733411    0.03192887
     atom   15 type  2   force =    -0.04223390    0.02441395    0.03005931
     atom   16 type  2   force =    -0.08571586   -0.07635766    0.03745408
     atom   17 type  2   force =    -0.05305446   -0.04667324    0.03183952
     atom   18 type  2   force =    -0.03329753   -0.01841303    0.00743614
     atom   19 type  2   force =    -0.04576087   -0.15011524   -0.04243542
     atom   20 type  2   force =    -0.05225835   -0.14667407    0.00587794
     atom   21 type  2   force =    -0.06524816   -0.16882334    0.03738951
     atom   22 type  2   force =     0.05485755    0.04896591    0.03688528
     atom   23 type  2   force =     0.05467829    0.04677550    0.03085747
     atom   24 type  2   force =     0.05499771   -0.04924908    0.03682268
     atom   25 type  2   force =     0.05264796   -0.04644863    0.03038083
     atom   26 type  2   force =     0.15508488   -0.17699760   -0.32308809
     atom   27 type  2   force =    -0.04569687    0.15006886   -0.04243337
     atom   28 type  2   force =     0.05237833    0.14634554    0.00008105
     atom   29 type  2   force =    -0.05242360    0.14651809    0.00602096
     atom   30 type  2   force =     0.05286325    0.14660023    0.01050857
     atom   31 type  2   force =    -0.03235483    0.13099126    0.03276935
     atom   32 type  2   force =     0.05238612   -0.14652946    0.00019950
     atom   33 type  2   force =     0.04979630   -0.14491630    0.00980822
     The ionic contribution  to forces
     atom    1 type  1   force =    -1.52878986    1.02840423 -240.46875782
     atom    2 type  1   force =    -1.80759912   -2.70611676  -48.29041956
     atom    3 type  1   force =    -2.11393539   -2.51692876  146.40752489
     atom    4 type  1   force =    -1.52591236   -1.02735550 -240.46919499
     atom    5 type  1   force =    -1.80318809    2.70465468  -48.28910577
     atom    6 type  1   force =    -1.48439359    2.77228251  147.51568204
     atom    7 type  1   force =     1.80518417    2.50026679 -145.90818852
     atom    8 type  1   force =     1.77583062    2.71358971   49.28704443
     atom    9 type  1   force =    -3.85439053   -1.30452260  236.81865487
     atom   10 type  1   force =     1.81769340   -2.50024312 -145.90595227
     atom   11 type  1   force =     1.83196814   -2.71296906   49.29506369
     atom   12 type  1   force =     6.39455519   -0.63900549  236.95176090
     atom   13 type  2   force =     0.85452831    0.36071834 -108.77804329
     atom   14 type  2   force =     0.86481700    0.79727377  -12.11814829
     atom   15 type  2   force =     0.09251119    0.62016935   85.55746717
     atom   16 type  2   force =     0.85580330   -0.36221571 -108.76188844
     atom   17 type  2   force =     0.86816903   -0.79906119  -12.10149317
     atom   18 type  2   force =     1.57205817   -0.98291873   85.12871681
     atom   19 type  2   force =     0.37643215    2.31165838  -98.26702235
     atom   20 type  2   force =     0.36457019    2.42156292   -0.02701212
     atom   21 type  2   force =     0.77700937    2.58563772   97.59607016
     atom   22 type  2   force =    -0.86356477    0.78164434  -60.85458456
     atom   23 type  2   force =    -0.86155251    0.79190431   36.71999821
     atom   24 type  2   force =    -0.86708578   -0.77986964  -60.85785319
     atom   25 type  2   force =    -0.87014143   -0.80420688   36.64704620
     atom   26 type  2   force =    -2.01352389    1.47688083  123.43180236
     atom   27 type  2   force =     0.37578421   -2.31348483  -98.26866004
     atom   28 type  2   force =    -0.36310930   -2.41323362  -48.84287405
     atom   29 type  2   force =     0.36112450   -2.42141434   -0.02461223
     atom   30 type  2   force =    -0.39523476   -2.39923496   48.80211814
     atom   31 type  2   force =     0.05534676   -2.03481075   98.17329722
     atom   32 type  2   force =    -0.36232056    2.41551895  -48.84287660
     atom   33 type  2   force =    -0.32864375    2.43542514   48.74444017
     The local contribution  to forces
     atom    1 type  1   force =     1.56382525   -1.06172649  240.61946876
     atom    2 type  1   force =     1.83827092    2.63949514   48.26801504
     atom    3 type  1   force =     2.15340328    2.44363203 -146.44011490
     atom    4 type  1   force =     1.56086782    1.06056320  240.61995428
     atom    5 type  1   force =     1.83456962   -2.63816090   48.26669558
     atom    6 type  1   force =     1.51265351   -2.68721765 -147.53207642
     atom    7 type  1   force =    -1.84088243   -2.41972229  145.90332760
     atom    8 type  1   force =    -1.80654797   -2.64861551  -49.31162296
     atom    9 type  1   force =     3.86752682    1.48367573 -237.03561227
     atom   10 type  1   force =    -1.85324628    2.41958417  145.90103629
     atom   11 type  1   force =    -1.86234445    2.64761606  -49.31837558
     atom   12 type  1   force =    -6.56253552    0.59747113 -237.17634905
     atom   13 type  2   force =    -0.78450901   -0.41738346  108.71528270
     atom   14 type  2   force =    -0.81176893   -0.84325726   12.08224382
     atom   15 type  2   force =    -0.03921149   -0.65962693  -85.57923162
     atom   16 type  2   force =    -0.78629268    0.41841722  108.69936460
     atom   17 type  2   force =    -0.81562579    0.84453002   12.06565305
     atom   18 type  2   force =    -1.52667471    1.01405814  -85.15151343
     atom   19 type  2   force =    -0.32667091   -2.16385056   98.24936314
     atom   20 type  2   force =    -0.31172294   -2.27493536    0.01640542
     atom   21 type  2   force =    -0.71636794   -2.42838126  -97.60927352
     atom   22 type  2   force =     0.80952558   -0.82751933   60.81573958
     atom   23 type  2   force =     0.80837655   -0.83757315  -36.75549465
     atom   24 type  2   force =     0.81284080    0.82606481   60.81932916
     atom   25 type  2   force =     0.81773193    0.84988255  -36.68176570
     atom   26 type  2   force =     1.85777966   -1.30184479 -123.10859758
     atom   27 type  2   force =    -0.32608428    2.16569355   98.25100983
     atom   28 type  2   force =     0.31003821    2.26683077   48.83570106
     atom   29 type  2   force =    -0.30812908    2.27491670    0.01392064
     atom   30 type  2   force =     0.34158652    2.25262752  -48.81439523
     atom   31 type  2   force =    -0.01195331    1.88827000  -98.17592501
     atom   32 type  2   force =     0.30924098   -2.26876183   48.83570649
     atom   33 type  2   force =     0.27678370   -2.28949961  -48.75673306
     The core correction contribution to forces
     atom    1 type  1   force =     0.00000000    0.00000000    0.00000000
     atom    2 type  1   force =     0.00000000    0.00000000    0.00000000
     atom    3 type  1   force =     0.00000000    0.00000000    0.00000000
     atom    4 type  1   force =     0.00000000    0.00000000    0.00000000
     atom    5 type  1   force =     0.00000000    0.00000000    0.00000000
     atom    6 type  1   force =     0.00000000    0.00000000    0.00000000
     atom    7 type  1   force =     0.00000000    0.00000000    0.00000000
     atom    8 type  1   force =     0.00000000    0.00000000    0.00000000
     atom    9 type  1   force =     0.00000000    0.00000000    0.00000000
     atom   10 type  1   force =     0.00000000    0.00000000    0.00000000
     atom   11 type  1   force =     0.00000000    0.00000000    0.00000000
     atom   12 type  1   force =     0.00000000    0.00000000    0.00000000
     atom   13 type  2   force =     0.00000000    0.00000000    0.00000000
     atom   14 type  2   force =     0.00000000    0.00000000    0.00000000
     atom   15 type  2   force =     0.00000000    0.00000000    0.00000000
     atom   16 type  2   force =     0.00000000    0.00000000    0.00000000
     atom   17 type  2   force =     0.00000000    0.00000000    0.00000000
     atom   18 type  2   force =     0.00000000    0.00000000    0.00000000
     atom   19 type  2   force =     0.00000000    0.00000000    0.00000000
     atom   20 type  2   force =     0.00000000    0.00000000    0.00000000
     atom   21 type  2   force =     0.00000000    0.00000000    0.00000000
     atom   22 type  2   force =     0.00000000    0.00000000    0.00000000
     atom   23 type  2   force =     0.00000000    0.00000000    0.00000000
     atom   24 type  2   force =     0.00000000    0.00000000    0.00000000
     atom   25 type  2   force =     0.00000000    0.00000000    0.00000000
     atom   26 type  2   force =     0.00000000    0.00000000    0.00000000
     atom   27 type  2   force =     0.00000000    0.00000000    0.00000000
     atom   28 type  2   force =     0.00000000    0.00000000    0.00000000
     atom   29 type  2   force =     0.00000000    0.00000000    0.00000000
     atom   30 type  2   force =     0.00000000    0.00000000    0.00000000
     atom   31 type  2   force =     0.00000000    0.00000000    0.00000000
     atom   32 type  2   force =     0.00000000    0.00000000    0.00000000
     atom   33 type  2   force =     0.00000000    0.00000000    0.00000000
     The Hubbard contrib.    to forces
     atom    1 type  1   force =     0.00000000    0.00000000    0.00000000
     atom    2 type  1   force =     0.00000000    0.00000000    0.00000000
     atom    3 type  1   force =     0.00000000    0.00000000    0.00000000
     atom    4 type  1   force =     0.00000000    0.00000000    0.00000000
     atom    5 type  1   force =     0.00000000    0.00000000    0.00000000
     atom    6 type  1   force =     0.00000000    0.00000000    0.00000000
     atom    7 type  1   force =     0.00000000    0.00000000    0.00000000
     atom    8 type  1   force =     0.00000000    0.00000000    0.00000000
     atom    9 type  1   force =     0.00000000    0.00000000    0.00000000
     atom   10 type  1   force =     0.00000000    0.00000000    0.00000000
     atom   11 type  1   force =     0.00000000    0.00000000    0.00000000
     atom   12 type  1   force =     0.00000000    0.00000000    0.00000000
     atom   13 type  2   force =     0.00000000    0.00000000    0.00000000
     atom   14 type  2   force =     0.00000000    0.00000000    0.00000000
     atom   15 type  2   force =     0.00000000    0.00000000    0.00000000
     atom   16 type  2   force =     0.00000000    0.00000000    0.00000000
     atom   17 type  2   force =     0.00000000    0.00000000    0.00000000
     atom   18 type  2   force =     0.00000000    0.00000000    0.00000000
     atom   19 type  2   force =     0.00000000    0.00000000    0.00000000
     atom   20 type  2   force =     0.00000000    0.00000000    0.00000000
     atom   21 type  2   force =     0.00000000    0.00000000    0.00000000
     atom   22 type  2   force =     0.00000000    0.00000000    0.00000000
     atom   23 type  2   force =     0.00000000    0.00000000    0.00000000
     atom   24 type  2   force =     0.00000000    0.00000000    0.00000000
     atom   25 type  2   force =     0.00000000    0.00000000    0.00000000
     atom   26 type  2   force =     0.00000000    0.00000000    0.00000000
     atom   27 type  2   force =     0.00000000    0.00000000    0.00000000
     atom   28 type  2   force =     0.00000000    0.00000000    0.00000000
     atom   29 type  2   force =     0.00000000    0.00000000    0.00000000
     atom   30 type  2   force =     0.00000000    0.00000000    0.00000000
     atom   31 type  2   force =     0.00000000    0.00000000    0.00000000
     atom   32 type  2   force =     0.00000000    0.00000000    0.00000000
     atom   33 type  2   force =     0.00000000    0.00000000    0.00000000
     The SCF correction term to forces
     atom    1 type  1   force =     0.00000000    0.00000000    0.00000000
     atom    2 type  1   force =     0.00000000    0.00000000    0.00000000
     atom    3 type  1   force =     0.00000000    0.00000000    0.00000000
     atom    4 type  1   force =     0.00000000    0.00000000    0.00000000
     atom    5 type  1   force =     0.00000000    0.00000000    0.00000000
     atom    6 type  1   force =     0.00000000    0.00000000    0.00000000
     atom    7 type  1   force =     0.00000000    0.00000000    0.00000000
     atom    8 type  1   force =     0.00000000    0.00000000    0.00000000
     atom    9 type  1   force =     0.00000000    0.00000000    0.00000000
     atom   10 type  1   force =     0.00000000    0.00000000    0.00000000
     atom   11 type  1   force =     0.00000000    0.00000000    0.00000000
     atom   12 type  1   force =     0.00000000    0.00000000    0.00000000
     atom   13 type  2   force =     0.00000000    0.00000000    0.00000000
     atom   14 type  2   force =     0.00000000    0.00000000    0.00000000
     atom   15 type  2   force =     0.00000000    0.00000000    0.00000000
     atom   16 type  2   force =     0.00000000    0.00000000    0.00000000
     atom   17 type  2   force =     0.00000000    0.00000000    0.00000000
     atom   18 type  2   force =     0.00000000    0.00000000    0.00000000
     atom   19 type  2   force =     0.00000000    0.00000000    0.00000000
     atom   20 type  2   force =     0.00000000    0.00000000    0.00000000
     atom   21 type  2   force =     0.00000000    0.00000000    0.00000000
     atom   22 type  2   force =     0.00000000    0.00000000    0.00000000
     atom   23 type  2   force =     0.00000000    0.00000000    0.00000000
     atom   24 type  2   force =     0.00000000    0.00000000    0.00000000
     atom   25 type  2   force =     0.00000000    0.00000000    0.00000000
     atom   26 type  2   force =    -0.00002954   -0.00009130   -0.00005881
     atom   27 type  2   force =     0.00000000    0.00000000    0.00000000
     atom   28 type  2   force =     0.00000000    0.00000000    0.00000000
     atom   29 type  2   force =     0.00000000    0.00000000    0.00000000
     atom   30 type  2   force =     0.00000000    0.00000000    0.00000000
     atom   31 type  2   force =     0.00000000    0.00000000    0.00000000
     atom   32 type  2   force =     0.00000000    0.00000000    0.00000000
     atom   33 type  2   force =     0.00000000    0.00000000    0.00000000

     Total force =     0.002164     Total SCF correction =     0.000113
     Energy error            =      2.5E-05
     Gradient error          =      2.1E-03

     number of scf cycles    =   7
     number of bfgs steps    =   6

     energy   old            =   -1853.4403410728 Ry
     energy   new            =   -1853.4403664720 Ry

     CASE: energy  _new < energy  _old

     new trust radius        =       0.0072358218 bohr
     new conv_thr            =       0.0000000254 Ry


ATOMIC_POSITIONS (angstrom)
Hf            4.0076390000        3.7813620000        6.1529890000    0   0   0
Hf            4.0076390000        3.7813620000       11.0753320000    0   0   0
Hf            4.0076390000        3.7813620000       15.9976750000    0   0   0
Hf            1.4522770000        1.1321830000        6.1529770000    0   0   0
Hf            1.4522770000        1.1321830000       11.0753200000    0   0   0
Hf            1.4522770000        1.1321830000       15.9976630000    0   0   0
Hf            3.6579980000        1.1322110000        8.6140330000    0   0   0
Hf            3.6579980000        1.1322110000       13.5363760000    0   0   0
Hf            3.6579980000        1.1322110000       18.4587190000    0   0   0
Hf            1.1027520000        3.7813090000        8.6141070000    0   0   0
Hf            1.1027520000        3.7813090000       13.5364490000    0   0   0
Hf            1.1027520000        3.7813090000       18.4587920000    0   0   0
O             3.1707970000        2.0862730000        6.8074440000    0   0   0
O             3.1707970000        2.0862730000       11.7297860000    0   0   0
O             3.1707970000        2.0862730000       16.6521290000    0   0   0
O             0.6152330000        2.8266930000        6.8083890000    0   0   0
O             0.6152330000        2.8266930000       11.7307320000    0   0   0
O             0.6152330000        2.8266930000       16.6530750000    0   0   0
O             5.0530890000        0.2074550000        7.3799440000    0   0   0
O             5.0530890000        0.2074550000       12.3022870000    0   0   0
O             5.0530890000        0.2074550000       17.2246300000    0   0   0
O             1.9399660000        2.0865810000        9.2696970000    0   0   0
O             1.9399660000        2.0865810000       14.1920390000    0   0   0
O             4.4952530000        2.8267400000        9.2692970000    0   0   0
O             4.4952530000        2.8267400000       14.1916400000    0   0   0
O             4.5638747540        2.7963100336       18.9926133989
O             2.4978700000       -0.2075440000        7.3798460000    0   0   0
O             2.6124080000       -0.2081150000        9.8410840000    0   0   0
O             2.4978700000       -0.2075440000       12.3021890000    0   0   0
O             2.6124080000       -0.2081150000       14.7634270000    0   0   0
O             2.4978700000       -0.2075440000       17.2245320000    0   0   0
O             5.1675430000        0.2075860000        9.8410300000    0   0   0
O             5.1675430000        0.2075860000       14.7633720000    0   0   0



     Writing output data file ./hfo2.save/
     NEW-OLD atomic charge density approx. for the potential

     negative rho (up, down):  2.447E-05 0.000E+00
 
     Adding external electric field

     Computed dipole along edir(3) : 
        Elec. dipole         -2.7570 Ry au,         -7.0075 Debye
        Ion. dipole          -2.7560 Ry au,         -7.0050 Debye
        Dipole                0.4725 Ry au,          1.2009 Debye
        Dipole field          0.0010 Ry au, 
 
        E field amplitude [Ha a.u.]:  1.0000E-03
        Potential amp.       -0.0001 Ry
        Total length         62.8334 bohr
 

     total cpu time spent up to now is      539.2 secs

     Self-consistent Calculation

     iteration #  1     ecut=    50.00 Ry     beta= 0.30
     Davidson diagonalization with overlap
     ethr =  1.00E-06,  avg # of iterations =  2.0

     Threshold (ethr) on eigenvalues was too large:
     Diagonalizing with lowered threshold

     Davidson diagonalization with overlap
     ethr =  5.08E-08,  avg # of iterations =  1.3

     negative rho (up, down):  1.566E-05 0.000E+00
 
     Adding external electric field

     Computed dipole along edir(3) : 
        Elec. dipole         -2.7570 Ry au,         -7.0075 Debye
        Ion. dipole          -2.7560 Ry au,         -7.0050 Debye
        Dipole                0.4727 Ry au,          1.2014 Debye
        Dipole field          0.0010 Ry au, 
 
        E field amplitude [Ha a.u.]:  1.0000E-03
        Potential amp.       -0.0002 Ry
        Total length         62.8334 bohr
 

     total cpu time spent up to now is      559.2 secs

     total energy              =   -1853.44037633 Ry
     estimated scf accuracy    <       0.00013887 Ry

     iteration #  2     ecut=    50.00 Ry     beta= 0.30
     Davidson diagonalization with overlap
     ethr =  5.14E-08,  avg # of iterations =  1.0

     negative rho (up, down):  9.918E-06 0.000E+00
 
     Adding external electric field

     Computed dipole along edir(3) : 
        Elec. dipole         -2.7570 Ry au,         -7.0075 Debye
        Ion. dipole          -2.7560 Ry au,         -7.0050 Debye
        Dipole                0.4728 Ry au,          1.2018 Debye
        Dipole field          0.0010 Ry au, 
 
        E field amplitude [Ha a.u.]:  1.0000E-03
        Potential amp.       -0.0002 Ry
        Total length         62.8334 bohr
 

     total cpu time spent up to now is      578.4 secs

     total energy              =   -1853.44037487 Ry
     estimated scf accuracy    <       0.00002253 Ry

     iteration #  3     ecut=    50.00 Ry     beta= 0.30
     Davidson diagonalization with overlap
     ethr =  8.34E-09,  avg # of iterations =  3.4

     negative rho (up, down):  6.547E-06 0.000E+00
 
     Adding external electric field

     Computed dipole along edir(3) : 
        Elec. dipole         -2.7570 Ry au,         -7.0075 Debye
        Ion. dipole          -2.7560 Ry au,         -7.0050 Debye
        Dipole                0.4731 Ry au,          1.2025 Debye
        Dipole field          0.0010 Ry au, 
 
        E field amplitude [Ha a.u.]:  1.0000E-03
        Potential amp.       -0.0003 Ry
        Total length         62.8334 bohr
 

     total cpu time spent up to now is      590.0 secs

     total energy              =   -1853.44037344 Ry
     estimated scf accuracy    <       0.00000442 Ry

     iteration #  4     ecut=    50.00 Ry     beta= 0.30
     Davidson diagonalization with overlap
     ethr =  1.64E-09,  avg # of iterations =  5.6

     negative rho (up, down):  4.052E-06 0.000E+00
 
     Adding external electric field

     Computed dipole along edir(3) : 
        Elec. dipole         -2.7570 Ry au,         -7.0075 Debye
        Ion. dipole          -2.7560 Ry au,         -7.0050 Debye
        Dipole                0.4732 Ry au,          1.2028 Debye
        Dipole field          0.0010 Ry au, 
 
        E field amplitude [Ha a.u.]:  1.0000E-03
        Potential amp.       -0.0003 Ry
        Total length         62.8334 bohr
 

     total cpu time spent up to now is      597.2 secs

     total energy              =   -1853.44037402 Ry
     estimated scf accuracy    <       0.00000029 Ry

     iteration #  5     ecut=    50.00 Ry     beta= 0.30
     Davidson diagonalization with overlap
     ethr =  1.07E-10,  avg # of iterations =  2.8

     negative rho (up, down):  2.367E-06 0.000E+00
 
     Adding external electric field

     Computed dipole along edir(3) : 
        Elec. dipole         -2.7570 Ry au,         -7.0075 Debye
        Ion. dipole          -2.7560 Ry au,         -7.0050 Debye
        Dipole                0.4733 Ry au,          1.2031 Debye
        Dipole field          0.0010 Ry au, 
 
        E field amplitude [Ha a.u.]:  1.0000E-03
        Potential amp.       -0.0004 Ry
        Total length         62.8334 bohr
 

     total cpu time spent up to now is      601.2 secs

     total energy              =   -1853.44037402 Ry
     estimated scf accuracy    <       0.00000016 Ry

     iteration #  6     ecut=    50.00 Ry     beta= 0.30
     Davidson diagonalization with overlap
     ethr =  5.83E-11,  avg # of iterations =  3.3

     negative rho (up, down):  1.436E-06 0.000E+00
 
     Adding external electric field

     Computed dipole along edir(3) : 
        Elec. dipole         -2.7570 Ry au,         -7.0075 Debye
        Ion. dipole          -2.7560 Ry au,         -7.0050 Debye
        Dipole                0.4734 Ry au,          1.2033 Debye
        Dipole field          0.0010 Ry au, 
 
        E field amplitude [Ha a.u.]:  1.0000E-03
        Potential amp.       -0.0004 Ry
        Total length         62.8334 bohr
 

     total cpu time spent up to now is      606.8 secs

     total energy              =   -1853.44037402 Ry
     estimated scf accuracy    <       0.00000008 Ry

     iteration #  7     ecut=    50.00 Ry     beta= 0.30
     Davidson diagonalization with overlap
     ethr =  2.83E-11,  avg # of iterations =  5.5

     negative rho (up, down):  7.663E-07 0.000E+00
 
     Adding external electric field

     Computed dipole along edir(3) : 
        Elec. dipole         -2.7570 Ry au,         -7.0075 Debye
        Ion. dipole          -2.7560 Ry au,         -7.0050 Debye
        Dipole                0.4734 Ry au,          1.2033 Debye
        Dipole field          0.0010 Ry au, 
 
        E field amplitude [Ha a.u.]:  1.0000E-03
        Potential amp.       -0.0004 Ry
        Total length         62.8334 bohr
 

     total cpu time spent up to now is      611.0 secs

     total energy              =   -1853.44037403 Ry
     estimated scf accuracy    <       0.00000006 Ry

     iteration #  8     ecut=    50.00 Ry     beta= 0.30
     Davidson diagonalization with overlap
     ethr =  2.17E-11,  avg # of iterations =  2.0

     negative rho (up, down):  3.145E-07 0.000E+00
 
     Adding external electric field

     Computed dipole along edir(3) : 
        Elec. dipole         -2.7570 Ry au,         -7.0075 Debye
        Ion. dipole          -2.7560 Ry au,         -7.0050 Debye
        Dipole                0.4733 Ry au,          1.2031 Debye
        Dipole field          0.0010 Ry au, 
 
        E field amplitude [Ha a.u.]:  1.0000E-03
        Potential amp.       -0.0004 Ry
        Total length         62.8334 bohr
 

     total cpu time spent up to now is      614.9 secs

     total energy              =   -1853.44037403 Ry
     estimated scf accuracy    <       0.00000004 Ry

     iteration #  9     ecut=    50.00 Ry     beta= 0.30
     Davidson diagonalization with overlap
     ethr =  1.56E-11,  avg # of iterations =  5.2
 
     Adding external electric field

     Computed dipole along edir(3) : 
        Elec. dipole         -2.7570 Ry au,         -7.0075 Debye
        Ion. dipole          -2.7560 Ry au,         -7.0050 Debye
        Dipole                0.4746 Ry au,          1.2064 Debye
        Dipole field          0.0010 Ry au, 
 
        E field amplitude [Ha a.u.]:  1.0000E-03
        Potential amp.       -0.0007 Ry
        Total length         62.8334 bohr
 

     total cpu time spent up to now is      617.0 secs

     End of self-consistent calculation

          k = 0.0000 0.0000 0.0000 ( 35385 PWs)   bands (ev):

   -59.2568 -59.2435 -59.0027 -58.9872 -58.8450 -58.8405 -58.8252 -58.7848
   -58.7170 -58.7016 -58.5911 -58.5705 -29.1022 -29.0427 -28.9551 -28.8759
   -28.8299 -28.7722 -28.7659 -28.7377 -28.6998 -28.6668 -28.6495 -28.6395
   -28.6236 -28.6077 -28.5797 -28.5336 -28.5259 -28.5158 -28.4737 -28.4330
   -28.4236 -28.3759 -28.3742 -28.3625 -28.3236 -28.3157 -28.2949 -28.2705
   -28.2407 -28.1973 -28.1940 -28.1628 -28.1420 -28.1152 -28.0824 -28.0605
   -17.8376 -17.4315 -16.9249 -16.6564 -16.3954 -16.3582 -16.2163 -16.1325
   -16.0474 -16.0232 -15.9014 -15.7299 -15.5481 -15.3993 -15.3869 -15.2583
   -15.2524 -15.1314 -15.0799 -15.0107 -14.5647  -5.4537  -5.4315  -5.2610
    -5.2157  -5.0672  -4.9759  -4.6676  -4.6140  -4.4363  -4.4007  -4.2743
    -4.2288  -4.1248  -3.9050  -3.8076  -3.6413  -3.6060  -3.4433  -3.3953
    -3.3429  -3.1372  -3.0761  -2.8473  -2.8043  -2.7775  -2.6668  -2.5926
    -2.4885  -2.4347  -2.2941  -2.2258  -2.1290  -1.9874  -1.9846  -1.9573
    -1.8554  -1.7548  -1.7257  -1.7033  -1.6761  -1.6156  -1.5981  -1.2697
    -1.2411  -1.1840  -1.0665  -0.8917  -0.8670  -0.8195  -0.7124  -0.6522
    -0.5804  -0.5783  -0.3713  -0.2286  -0.1939  -0.1087   0.0716   0.1088
     0.2451   0.2588   0.3744   0.5025   2.6952   2.9332   4.1638   4.3663
     4.4265   4.8148   5.0395   5.0729   5.3485   5.4970   5.5675   5.8334
     5.9508   6.0174   6.0540   6.1996   6.2501   6.2889   6.4117   6.4584
     6.4679   6.6215   6.6511   6.7103   6.8588   6.8996   7.0039   7.0304
     7.0414   7.2110

     occupation numbers 
     1.0000   1.0000   1.0000   1.0000   1.0000   1.0000   1.0000   1.0000
     1.0000   1.0000   1.0000   1.0000   1.0000   1.0000   1.0000   1.0000
     1.0000   1.0000   1.0000   1.0000   1.0000   1.0000   1.0000   1.0000
     1.0000   1.0000   1.0000   1.0000   1.0000   1.0000   1.0000   1.0000
     1.0000   1.0000   1.0000   1.0000   1.0000   1.0000   1.0000   1.0000
     1.0000   1.0000   1.0000   1.0000   1.0000   1.0000   1.0000   1.0000
     1.0000   1.0000   1.0000   1.0000   1.0000   1.0000   1.0000   1.0000
     1.0000   1.0000   1.0000   1.0000   1.0000   1.0000   1.0000   1.0000
     1.0000   1.0000   1.0000   1.0000   1.0000   1.0000   1.0000   1.0000
     1.0000   1.0000   1.0000   1.0000   1.0000   1.0000   1.0000   1.0000
     1.0000   1.0000   1.0000   1.0000   1.0000   1.0000   1.0000   1.0000
     1.0000   1.0000   1.0000   1.0000   1.0000   1.0000   1.0000   1.0000
     1.0000   1.0000   1.0000   1.0000   1.0000   1.0000   1.0000   1.0000
     1.0000   1.0000   1.0000   1.0000   1.0000   1.0000   1.0000   1.0000
     1.0000   1.0000   1.0000   1.0000   1.0000   1.0000   1.0000   1.0000
     1.0000   1.0000   1.0000   1.0000   1.0000   1.0000   1.0000   1.0000
     1.0000   1.0000   1.0000   1.0000   1.0000   0.9998   0.4157   0.1384
     0.0935   0.0059   0.0011   0.0009   0.0001   0.0000   0.0000   0.0000
     0.0000   0.0000   0.0000   0.0000   0.0000   0.0000   0.0000   0.0000
     0.0000   0.0000   0.0000   0.0000   0.0000   0.0000   0.0000   0.0000
     0.0000   0.0000

          k = 0.0000 0.2600 0.0000 ( 35369 PWs)   bands (ev):

   -59.2552 -59.2451 -59.0009 -58.9889 -58.8447 -58.8388 -58.8269 -58.7850
   -58.7153 -58.7033 -58.5901 -58.5716 -29.0859 -28.9912 -28.9299 -28.8720
   -28.8048 -28.7782 -28.7502 -28.7202 -28.6943 -28.6719 -28.6540 -28.6432
   -28.6363 -28.5892 -28.5756 -28.5449 -28.5232 -28.5184 -28.4933 -28.4444
   -28.4213 -28.4077 -28.3935 -28.3769 -28.3566 -28.3055 -28.2750 -28.2662
   -28.2618 -28.2310 -28.2014 -28.1758 -28.1423 -28.1152 -28.0986 -28.0847
   -17.5758 -17.2200 -16.8090 -16.5955 -16.3696 -16.2880 -16.1452 -16.0850
   -16.0295 -15.9884 -15.9559 -15.7546 -15.6116 -15.5580 -15.4515 -15.4010
   -15.3581 -15.2369 -15.1441 -15.0924 -14.6191  -5.4009  -5.2646  -5.0840
    -4.9657  -4.9270  -4.7065  -4.6006  -4.5498  -4.5126  -4.3653  -4.3020
    -4.1845  -3.9442  -3.8835  -3.7036  -3.6547  -3.5704  -3.4822  -3.3926
    -3.3253  -3.2625  -3.2379  -3.0313  -2.9308  -2.8191  -2.7045  -2.6464
    -2.5379  -2.4320  -2.3437  -2.2926  -2.2126  -2.1601  -2.0545  -2.0290
    -1.9131  -1.8280  -1.6719  -1.5505  -1.4865  -1.4351  -1.3407  -1.2127
    -1.2077  -1.1116  -0.9751  -0.9242  -0.8662  -0.8168  -0.7668  -0.7300
    -0.6667  -0.5781  -0.5250  -0.4021  -0.3156  -0.2487  -0.2180  -0.1907
     0.0803   0.2161   0.3160   0.4459   3.0582   3.2969   4.2356   4.2526
     4.3773   4.8350   4.9122   5.1458   5.2214   5.2530   5.3474   5.4434
     5.6756   5.7191   5.8490   5.8787   5.9799   6.1253   6.1591   6.3617
     6.5490   6.6244   6.6929   6.7428   6.9371   6.9938   7.0732   7.1643
     7.2419   7.3376

     occupation numbers 
     1.0000   1.0000   1.0000   1.0000   1.0000   1.0000   1.0000   1.0000
     1.0000   1.0000   1.0000   1.0000   1.0000   1.0000   1.0000   1.0000
     1.0000   1.0000   1.0000   1.0000   1.0000   1.0000   1.0000   1.0000
     1.0000   1.0000   1.0000   1.0000   1.0000   1.0000   1.0000   1.0000
     1.0000   1.0000   1.0000   1.0000   1.0000   1.0000   1.0000   1.0000
     1.0000   1.0000   1.0000   1.0000   1.0000   1.0000   1.0000   1.0000
     1.0000   1.0000   1.0000   1.0000   1.0000   1.0000   1.0000   1.0000
     1.0000   1.0000   1.0000   1.0000   1.0000   1.0000   1.0000   1.0000
     1.0000   1.0000   1.0000   1.0000   1.0000   1.0000   1.0000   1.0000
     1.0000   1.0000   1.0000   1.0000   1.0000   1.0000   1.0000   1.0000
     1.0000   1.0000   1.0000   1.0000   1.0000   1.0000   1.0000   1.0000
     1.0000   1.0000   1.0000   1.0000   1.0000   1.0000   1.0000   1.0000
     1.0000   1.0000   1.0000   1.0000   1.0000   1.0000   1.0000   1.0000
     1.0000   1.0000   1.0000   1.0000   1.0000   1.0000   1.0000   1.0000
     1.0000   1.0000   1.0000   1.0000   1.0000   1.0000   1.0000   1.0000
     1.0000   1.0000   1.0000   1.0000   1.0000   1.0000   1.0000   1.0000
     1.0000   1.0000   1.0000   1.0000   0.9996   0.9976   0.2956   0.2703
     0.1290   0.0051   0.0029   0.0005   0.0003   0.0002   0.0001   0.0001
     0.0000   0.0000   0.0000   0.0000   0.0000   0.0000   0.0000   0.0000
     0.0000   0.0000   0.0000   0.0000   0.0000   0.0000   0.0000   0.0000
     0.0000   0.0000

          k = 0.0000-0.5200 0.0000 ( 35392 PWs)   bands (ev):

   -59.2526 -59.2476 -58.9984 -58.9914 -58.8444 -58.8362 -58.8294 -58.7852
   -58.7130 -58.7057 -58.5890 -58.5728 -29.0670 -28.9216 -28.8855 -28.8805
   -28.7847 -28.7795 -28.7570 -28.7193 -28.6954 -28.6765 -28.6476 -28.6319
   -28.6232 -28.5963 -28.5759 -28.5538 -28.5232 -28.5130 -28.4909 -28.4594
   -28.4550 -28.4211 -28.4147 -28.3735 -28.3633 -28.3415 -28.3069 -28.2899
   -28.2658 -28.2309 -28.1878 -28.1670 -28.1494 -28.1410 -28.1198 -28.0930
   -17.1998 -16.9084 -16.6558 -16.5322 -16.3379 -16.2139 -16.1815 -16.0671
   -16.0426 -16.0049 -15.9560 -15.9376 -15.7909 -15.6301 -15.6271 -15.4328
   -15.4244 -15.3017 -15.1978 -15.1729 -14.6713  -5.1999  -5.1284  -4.9906
    -4.7957  -4.6340  -4.5520  -4.4666  -4.4526  -4.2771  -4.2461  -4.2252
    -4.1561  -4.0562  -3.9471  -3.8819  -3.8287  -3.7676  -3.5853  -3.5479
    -3.2881  -3.2241  -3.1336  -3.0899  -2.8861  -2.8551  -2.7636  -2.6397
    -2.6014  -2.4276  -2.3665  -2.2801  -2.2192  -2.0792  -2.0109  -1.9533
    -1.8393  -1.6458  -1.5882  -1.5311  -1.4620  -1.4496  -1.3285  -1.3064
    -1.2586  -1.1742  -1.1654  -1.1049  -1.0327  -0.9584  -0.8953  -0.8300
    -0.7549  -0.6410  -0.5739  -0.5497  -0.4328  -0.3092  -0.2327  -0.2208
     0.0374   0.1608   0.3119   0.3958   3.6362   3.7975   4.0668   4.1367
     4.3659   4.5093   4.5768   5.0256   5.1033   5.2347   5.2470   5.2792
     5.4625   5.5098   5.5625   5.6805   5.7416   5.9700   6.1607   6.3048
     6.4444   6.4815   6.5789   6.8429   6.9844   7.1058   7.1353   7.1937
     7.2730   7.2837

     occupation numbers 
     1.0000   1.0000   1.0000   1.0000   1.0000   1.0000   1.0000   1.0000
     1.0000   1.0000   1.0000   1.0000   1.0000   1.0000   1.0000   1.0000
     1.0000   1.0000   1.0000   1.0000   1.0000   1.0000   1.0000   1.0000
     1.0000   1.0000   1.0000   1.0000   1.0000   1.0000   1.0000   1.0000
     1.0000   1.0000   1.0000   1.0000   1.0000   1.0000   1.0000   1.0000
     1.0000   1.0000   1.0000   1.0000   1.0000   1.0000   1.0000   1.0000
     1.0000   1.0000   1.0000   1.0000   1.0000   1.0000   1.0000   1.0000
     1.0000   1.0000   1.0000   1.0000   1.0000   1.0000   1.0000   1.0000
     1.0000   1.0000   1.0000   1.0000   1.0000   1.0000   1.0000   1.0000
     1.0000   1.0000   1.0000   1.0000   1.0000   1.0000   1.0000   1.0000
     1.0000   1.0000   1.0000   1.0000   1.0000   1.0000   1.0000   1.0000
     1.0000   1.0000   1.0000   1.0000   1.0000   1.0000   1.0000   1.0000
     1.0000   1.0000   1.0000   1.0000   1.0000   1.0000   1.0000   1.0000
     1.0000   1.0000   1.0000   1.0000   1.0000   1.0000   1.0000   1.0000
     1.0000   1.0000   1.0000   1.0000   1.0000   1.0000   1.0000   1.0000
     1.0000   1.0000   1.0000   1.0000   1.0000   1.0000   1.0000   1.0000
     1.0000   1.0000   1.0000   1.0000   0.9717   0.9131   0.5921   0.4648
     0.1388   0.0532   0.0331   0.0013   0.0007   0.0003   0.0002   0.0002
     0.0001   0.0000   0.0000   0.0000   0.0000   0.0000   0.0000   0.0000
     0.0000   0.0000   0.0000   0.0000   0.0000   0.0000   0.0000   0.0000
     0.0000   0.0000

          k = 0.2500 0.0000 0.0000 ( 35470 PWs)   bands (ev):

   -59.2549 -59.2454 -59.0004 -58.9895 -58.8446 -58.8383 -58.8274 -58.7851
   -58.7149 -58.7038 -58.5898 -58.5718 -29.0650 -29.0106 -28.9244 -28.8641
   -28.7921 -28.7905 -28.7591 -28.7180 -28.6815 -28.6635 -28.6516 -28.6383
   -28.6177 -28.6109 -28.5846 -28.5575 -28.5292 -28.5200 -28.4895 -28.4310
   -28.4172 -28.4133 -28.3980 -28.3760 -28.3449 -28.3091 -28.2909 -28.2730
   -28.2513 -28.2286 -28.2034 -28.1742 -28.1421 -28.1136 -28.1022 -28.0862
   -17.5665 -17.2077 -16.7897 -16.6571 -16.3627 -16.3406 -16.2271 -16.1500
   -16.0116 -16.0090 -15.8513 -15.7877 -15.5611 -15.5413 -15.4150 -15.3944
   -15.3171 -15.2610 -15.1695 -15.1099 -14.6224  -5.2073  -5.0816  -4.9489
    -4.8941  -4.7929  -4.6659  -4.5703  -4.5266  -4.3571  -4.3061  -4.1943
    -4.0906  -4.0345  -4.0003  -3.9245  -3.8097  -3.7247  -3.5345  -3.3890
    -3.3427  -3.2515  -3.2075  -3.0395  -3.0250  -2.8388  -2.7722  -2.5754
    -2.5187  -2.3914  -2.3414  -2.2894  -2.2265  -2.1456  -2.0371  -1.9152
    -1.8745  -1.7833  -1.7312  -1.6309  -1.5841  -1.5586  -1.5307  -1.3897
    -1.3575  -1.2677  -1.1525  -1.1053  -0.9726  -0.8729  -0.7993  -0.6567
    -0.6089  -0.5473  -0.4351  -0.4008  -0.3428  -0.1988  -0.1612  -0.0512
    -0.0221   0.0736   0.1190   0.3173   2.9618   3.2729   4.1659   4.3319
     4.6342   4.8629   4.9114   5.1611   5.1781   5.5375   5.5848   5.7186
     5.8608   5.9159   6.0537   6.1249   6.2059   6.3073   6.3641   6.4732
     6.5368   6.6256   6.6462   6.7238   6.7734   6.8824   6.9276   7.0655
     7.1521   7.2520

     occupation numbers 
     1.0000   1.0000   1.0000   1.0000   1.0000   1.0000   1.0000   1.0000
     1.0000   1.0000   1.0000   1.0000   1.0000   1.0000   1.0000   1.0000
     1.0000   1.0000   1.0000   1.0000   1.0000   1.0000   1.0000   1.0000
     1.0000   1.0000   1.0000   1.0000   1.0000   1.0000   1.0000   1.0000
     1.0000   1.0000   1.0000   1.0000   1.0000   1.0000   1.0000   1.0000
     1.0000   1.0000   1.0000   1.0000   1.0000   1.0000   1.0000   1.0000
     1.0000   1.0000   1.0000   1.0000   1.0000   1.0000   1.0000   1.0000
     1.0000   1.0000   1.0000   1.0000   1.0000   1.0000   1.0000   1.0000
     1.0000   1.0000   1.0000   1.0000   1.0000   1.0000   1.0000   1.0000
     1.0000   1.0000   1.0000   1.0000   1.0000   1.0000   1.0000   1.0000
     1.0000   1.0000   1.0000   1.0000   1.0000   1.0000   1.0000   1.0000
     1.0000   1.0000   1.0000   1.0000   1.0000   1.0000   1.0000   1.0000
     1.0000   1.0000   1.0000   1.0000   1.0000   1.0000   1.0000   1.0000
     1.0000   1.0000   1.0000   1.0000   1.0000   1.0000   1.0000   1.0000
     1.0000   1.0000   1.0000   1.0000   1.0000   1.0000   1.0000   1.0000
     1.0000   1.0000   1.0000   1.0000   1.0000   1.0000   1.0000   1.0000
     1.0000   1.0000   1.0000   1.0000   0.9998   0.9980   0.4120   0.1714
     0.0219   0.0042   0.0029   0.0005   0.0004   0.0000   0.0000   0.0000
     0.0000   0.0000   0.0000   0.0000   0.0000   0.0000   0.0000   0.0000
     0.0000   0.0000   0.0000   0.0000   0.0000   0.0000   0.0000   0.0000
     0.0000   0.0000

          k = 0.2500 0.2600 0.0000 ( 35420 PWs)   bands (ev):

   -59.2537 -59.2465 -58.9992 -58.9906 -58.8444 -58.8370 -58.8286 -58.7852
   -58.7137 -58.7050 -58.5893 -58.5725 -29.0793 -29.0174 -28.9334 -28.8761
   -28.8140 -28.7772 -28.7498 -28.7224 -28.7027 -28.6699 -28.6422 -28.6347
   -28.6220 -28.6109 -28.5869 -28.5476 -28.5254 -28.4989 -28.4722 -28.4551
   -28.4439 -28.4206 -28.3887 -28.3690 -28.3336 -28.3232 -28.2947 -28.2701
   -28.2440 -28.2174 -28.1935 -28.1590 -28.1521 -28.1274 -28.1061 -28.0686
   -17.3840 -17.0688 -16.7472 -16.6713 -16.4122 -16.3482 -16.2387 -16.1732
   -16.0268 -16.0021 -15.9092 -15.7433 -15.6276 -15.5394 -15.4659 -15.4183
   -15.3692 -15.2826 -15.1504 -15.0795 -14.6730  -5.1847  -5.0362  -4.8002
    -4.7466  -4.6845  -4.6216  -4.4966  -4.4065  -4.3277  -4.2924  -4.1939
    -4.0859  -3.9978  -3.9465  -3.8488  -3.6359  -3.5252  -3.4071  -3.3425
    -3.3130  -3.2593  -3.1922  -3.1305  -3.0126  -2.9800  -2.8749  -2.7459
    -2.5288  -2.4542  -2.3779  -2.3104  -2.2227  -2.1575  -2.0850  -1.8976
    -1.8113  -1.7773  -1.7323  -1.6200  -1.5710  -1.4938  -1.4304  -1.3953
    -1.3164  -1.2475  -1.1445  -1.0697  -1.0236  -0.9771  -0.9345  -0.7843
    -0.6824  -0.6423  -0.5481  -0.4527  -0.4447  -0.3948  -0.2536  -0.1597
    -0.1130  -0.0050   0.1147   0.3033   3.1579   3.4915   4.0786   4.1327
     4.5992   4.7729   4.8713   5.0445   5.1711   5.2159   5.3699   5.4809
     5.5791   5.7681   5.8403   5.9073   6.0181   6.0906   6.1414   6.3679
     6.4307   6.6108   6.6975   6.7535   6.7724   6.9281   6.9998   7.1292
     7.2104   7.2516

     occupation numbers 
     1.0000   1.0000   1.0000   1.0000   1.0000   1.0000   1.0000   1.0000
     1.0000   1.0000   1.0000   1.0000   1.0000   1.0000   1.0000   1.0000
     1.0000   1.0000   1.0000   1.0000   1.0000   1.0000   1.0000   1.0000
     1.0000   1.0000   1.0000   1.0000   1.0000   1.0000   1.0000   1.0000
     1.0000   1.0000   1.0000   1.0000   1.0000   1.0000   1.0000   1.0000
     1.0000   1.0000   1.0000   1.0000   1.0000   1.0000   1.0000   1.0000
     1.0000   1.0000   1.0000   1.0000   1.0000   1.0000   1.0000   1.0000
     1.0000   1.0000   1.0000   1.0000   1.0000   1.0000   1.0000   1.0000
     1.0000   1.0000   1.0000   1.0000   1.0000   1.0000   1.0000   1.0000
     1.0000   1.0000   1.0000   1.0000   1.0000   1.0000   1.0000   1.0000
     1.0000   1.0000   1.0000   1.0000   1.0000   1.0000   1.0000   1.0000
     1.0000   1.0000   1.0000   1.0000   1.0000   1.0000   1.0000   1.0000
     1.0000   1.0000   1.0000   1.0000   1.0000   1.0000   1.0000   1.0000
     1.0000   1.0000   1.0000   1.0000   1.0000   1.0000   1.0000   1.0000
     1.0000   1.0000   1.0000   1.0000   1.0000   1.0000   1.0000   1.0000
     1.0000   1.0000   1.0000   1.0000   1.0000   1.0000   1.0000   1.0000
     1.0000   1.0000   1.0000   1.0000   0.9991   0.9901   0.5710   0.4720
     0.0282   0.0080   0.0039   0.0011   0.0004   0.0003   0.0001   0.0000
     0.0000   0.0000   0.0000   0.0000   0.0000   0.0000   0.0000   0.0000
     0.0000   0.0000   0.0000   0.0000   0.0000   0.0000   0.0000   0.0000
     0.0000   0.0000

          k = 0.2500-0.5200 0.0000 ( 35366 PWs)   bands (ev):

   -59.2518 -59.2483 -58.9974 -58.9924 -58.8443 -58.8352 -58.8303 -58.7853
   -58.7121 -58.7066 -58.5888 -58.5732 -29.0855 -29.0282 -28.9339 -28.9156
   -28.7907 -28.7868 -28.7524 -28.7425 -28.6922 -28.6755 -28.6551 -28.6489
   -28.6168 -28.6032 -28.5978 -28.5706 -28.5268 -28.5155 -28.4917 -28.4601
   -28.4246 -28.3908 -28.3774 -28.3586 -28.3436 -28.3040 -28.2823 -28.2509
   -28.2421 -28.2174 -28.1897 -28.1517 -28.1355 -28.1159 -28.1042 -28.0922
   -17.1420 -16.8728 -16.7189 -16.6787 -16.4615 -16.3917 -16.3158 -16.2590
   -16.1249 -16.0439 -15.9971 -15.7385 -15.6886 -15.5486 -15.4372 -15.4000
   -15.3120 -15.2699 -15.1742 -15.1224 -14.5939  -5.0547  -5.0220  -4.8160
    -4.6090  -4.5753  -4.4830  -4.3407  -4.3155  -4.2109  -4.1696  -4.0887
    -4.0358  -3.9372  -3.8712  -3.7879  -3.7406  -3.6366  -3.5645  -3.4257
    -3.3469  -3.3081  -3.0073  -2.9632  -2.9002  -2.7955  -2.7310  -2.6626
    -2.6069  -2.4615  -2.4090  -2.3534  -2.2847  -2.2636  -2.2119  -2.0450
    -1.9478  -1.8961  -1.8592  -1.7247  -1.5906  -1.4996  -1.3970  -1.3828
    -1.3342  -1.2398  -1.1923  -1.1292  -1.0319  -0.9876  -0.8863  -0.8463
    -0.7434  -0.7161  -0.6012  -0.5578  -0.4905  -0.4347  -0.2917  -0.2273
    -0.2150  -0.0664   0.1047   0.2846   3.6702   3.7257   4.0443   4.1254
     4.4606   4.4832   4.6651   4.9800   5.0246   5.0976   5.1631   5.3028
     5.3828   5.4574   5.6024   5.6972   5.7721   5.9888   6.1109   6.1800
     6.3741   6.4772   6.6675   6.7118   6.8697   6.9571   7.0334   7.1892
     7.2316   7.2807

     occupation numbers 
     1.0000   1.0000   1.0000   1.0000   1.0000   1.0000   1.0000   1.0000
     1.0000   1.0000   1.0000   1.0000   1.0000   1.0000   1.0000   1.0000
     1.0000   1.0000   1.0000   1.0000   1.0000   1.0000   1.0000   1.0000
     1.0000   1.0000   1.0000   1.0000   1.0000   1.0000   1.0000   1.0000
     1.0000   1.0000   1.0000   1.0000   1.0000   1.0000   1.0000   1.0000
     1.0000   1.0000   1.0000   1.0000   1.0000   1.0000   1.0000   1.0000
     1.0000   1.0000   1.0000   1.0000   1.0000   1.0000   1.0000   1.0000
     1.0000   1.0000   1.0000   1.0000   1.0000   1.0000   1.0000   1.0000
     1.0000   1.0000   1.0000   1.0000   1.0000   1.0000   1.0000   1.0000
     1.0000   1.0000   1.0000   1.0000   1.0000   1.0000   1.0000   1.0000
     1.0000   1.0000   1.0000   1.0000   1.0000   1.0000   1.0000   1.0000
     1.0000   1.0000   1.0000   1.0000   1.0000   1.0000   1.0000   1.0000
     1.0000   1.0000   1.0000   1.0000   1.0000   1.0000   1.0000   1.0000
     1.0000   1.0000   1.0000   1.0000   1.0000   1.0000   1.0000   1.0000
     1.0000   1.0000   1.0000   1.0000   1.0000   1.0000   1.0000   1.0000
     1.0000   1.0000   1.0000   1.0000   1.0000   1.0000   1.0000   1.0000
     1.0000   1.0000   1.0000   1.0000   0.9640   0.9468   0.6313   0.4854
     0.0744   0.0637   0.0176   0.0018   0.0013   0.0007   0.0005   0.0002
     0.0001   0.0001   0.0000   0.0000   0.0000   0.0000   0.0000   0.0000
     0.0000   0.0000   0.0000   0.0000   0.0000   0.0000   0.0000   0.0000
     0.0000   0.0000

          k = 0.2500-0.2600 0.0000 ( 35420 PWs)   bands (ev):

   -59.2537 -59.2465 -58.9992 -58.9906 -58.8445 -58.8370 -58.8286 -58.7851
   -58.7137 -58.7050 -58.5893 -58.5725 -29.0793 -29.0173 -28.9334 -28.8762
   -28.8140 -28.7773 -28.7498 -28.7235 -28.7029 -28.6721 -28.6568 -28.6382
   -28.6312 -28.6167 -28.5873 -28.5652 -28.5371 -28.4985 -28.4775 -28.4599
   -28.4282 -28.4119 -28.3826 -28.3478 -28.3319 -28.3135 -28.2983 -28.2593
   -28.2282 -28.2179 -28.1969 -28.1632 -28.1425 -28.1389 -28.0961 -28.0723
   -17.3845 -17.0810 -16.7707 -16.6721 -16.4248 -16.3570 -16.2529 -16.1958
   -16.0472 -16.0195 -15.9095 -15.7442 -15.6276 -15.5380 -15.4356 -15.4090
   -15.3205 -15.2873 -15.1723 -15.1177 -14.5485  -5.1831  -5.0348  -4.7902
    -4.7463  -4.6952  -4.6289  -4.4800  -4.4021  -4.3420  -4.2862  -4.1895
    -4.1017  -3.9925  -3.9387  -3.8437  -3.6238  -3.5114  -3.3839  -3.3413
    -3.3186  -3.2459  -3.1799  -3.1393  -3.0209  -2.9495  -2.8443  -2.7455
    -2.5560  -2.5129  -2.3933  -2.3232  -2.1805  -2.1322  -2.0590  -1.9681
    -1.8964  -1.7893  -1.7647  -1.6578  -1.5959  -1.5216  -1.4521  -1.4166
    -1.2883  -1.2579  -1.1875  -1.1102  -1.0181  -0.9843  -0.8351  -0.7757
    -0.6551  -0.5949  -0.4941  -0.4492  -0.4261  -0.3952  -0.2923  -0.1567
    -0.1191   0.0074   0.1310   0.2844   3.3611   3.4919   4.0789   4.3256
     4.4699   4.5994   4.8708   5.1654   5.2117   5.2870   5.4737   5.5559
     5.6797   5.8028   5.8654   5.9331   5.9808   6.0318   6.1918   6.2403
     6.3718   6.4745   6.6289   6.7271   6.7718   6.8975   7.0238   7.0759
     7.1527   7.2152

     occupation numbers 
     1.0000   1.0000   1.0000   1.0000   1.0000   1.0000   1.0000   1.0000
     1.0000   1.0000   1.0000   1.0000   1.0000   1.0000   1.0000   1.0000
     1.0000   1.0000   1.0000   1.0000   1.0000   1.0000   1.0000   1.0000
     1.0000   1.0000   1.0000   1.0000   1.0000   1.0000   1.0000   1.0000
     1.0000   1.0000   1.0000   1.0000   1.0000   1.0000   1.0000   1.0000
     1.0000   1.0000   1.0000   1.0000   1.0000   1.0000   1.0000   1.0000
     1.0000   1.0000   1.0000   1.0000   1.0000   1.0000   1.0000   1.0000
     1.0000   1.0000   1.0000   1.0000   1.0000   1.0000   1.0000   1.0000
     1.0000   1.0000   1.0000   1.0000   1.0000   1.0000   1.0000   1.0000
     1.0000   1.0000   1.0000   1.0000   1.0000   1.0000   1.0000   1.0000
     1.0000   1.0000   1.0000   1.0000   1.0000   1.0000   1.0000   1.0000
     1.0000   1.0000   1.0000   1.0000   1.0000   1.0000   1.0000   1.0000
     1.0000   1.0000   1.0000   1.0000   1.0000   1.0000   1.0000   1.0000
     1.0000   1.0000   1.0000   1.0000   1.0000   1.0000   1.0000   1.0000
     1.0000   1.0000   1.0000   1.0000   1.0000   1.0000   1.0000   1.0000
     1.0000   1.0000   1.0000   1.0000   1.0000   1.0000   1.0000   1.0000
     1.0000   1.0000   1.0000   1.0000   0.9962   0.9900   0.5705   0.1781
     0.0698   0.0281   0.0039   0.0005   0.0003   0.0002   0.0000   0.0000
     0.0000   0.0000   0.0000   0.0000   0.0000   0.0000   0.0000   0.0000
     0.0000   0.0000   0.0000   0.0000   0.0000   0.0000   0.0000   0.0000
     0.0000   0.0000

          k =-0.5000 0.0000 0.0000 ( 35502 PWs)   bands (ev):

   -59.2502 -59.2501 -58.9955 -58.9943 -58.8443 -58.8330 -58.8327 -58.7854
   -58.7107 -58.7080 -58.5883 -58.5735 -28.9981 -28.9978 -28.8715 -28.8713
   -28.7835 -28.7832 -28.7159 -28.7157 -28.6850 -28.6848 -28.6500 -28.6499
   -28.5974 -28.5791 -28.5759 -28.5688 -28.5404 -28.5399 -28.4852 -28.4836
   -28.4252 -28.4202 -28.4039 -28.3952 -28.3648 -28.3449 -28.2870 -28.2794
   -28.2721 -28.2277 -28.1916 -28.1872 -28.1598 -28.1271 -28.1230 -28.0938
   -16.9615 -16.9605 -16.6846 -16.6781 -16.4983 -16.4784 -16.2578 -16.2405
   -15.9930 -15.9813 -15.7967 -15.7962 -15.5851 -15.5847 -15.4601 -15.4580
   -15.4052 -15.3546 -15.3076 -15.2495 -14.6823  -4.8430  -4.8421  -4.5918
    -4.5906  -4.4191  -4.4077  -4.2920  -4.2825  -4.1946  -4.1845  -4.0517
    -3.9870  -3.8771  -3.8715  -3.7908  -3.7838  -3.6754  -3.6537  -3.5428
    -3.5284  -3.4219  -3.4112  -3.3141  -3.2988  -3.1824  -3.1386  -2.7461
    -2.6841  -2.5471  -2.4793  -2.3733  -2.3186  -2.1949  -2.1584  -2.0777
    -1.9646  -1.8365  -1.7636  -1.6654  -1.6150  -1.5325  -1.3692  -1.3428
    -1.2849  -1.2483  -1.1401  -1.0813  -1.0394  -0.9293  -0.7821  -0.7165
    -0.7077  -0.6226  -0.5547  -0.4518  -0.4103  -0.4032  -0.3930  -0.2299
    -0.2027  -0.1152  -0.0854   0.2307   3.3798   3.9827   3.9906   3.9915
     4.6290   5.0192   5.0198   5.0897   5.1838   5.1842   5.4222   5.8524
     5.8534   5.9203   5.9248   6.0315   6.1421   6.1854   6.3150   6.3977
     6.4822   6.6061   6.6754   6.7666   6.8203   7.0100   7.0272   7.0741
     7.0879   7.1214

     occupation numbers 
     1.0000   1.0000   1.0000   1.0000   1.0000   1.0000   1.0000   1.0000
     1.0000   1.0000   1.0000   1.0000   1.0000   1.0000   1.0000   1.0000
     1.0000   1.0000   1.0000   1.0000   1.0000   1.0000   1.0000   1.0000
     1.0000   1.0000   1.0000   1.0000   1.0000   1.0000   1.0000   1.0000
     1.0000   1.0000   1.0000   1.0000   1.0000   1.0000   1.0000   1.0000
     1.0000   1.0000   1.0000   1.0000   1.0000   1.0000   1.0000   1.0000
     1.0000   1.0000   1.0000   1.0000   1.0000   1.0000   1.0000   1.0000
     1.0000   1.0000   1.0000   1.0000   1.0000   1.0000   1.0000   1.0000
     1.0000   1.0000   1.0000   1.0000   1.0000   1.0000   1.0000   1.0000
     1.0000   1.0000   1.0000   1.0000   1.0000   1.0000   1.0000   1.0000
     1.0000   1.0000   1.0000   1.0000   1.0000   1.0000   1.0000   1.0000
     1.0000   1.0000   1.0000   1.0000   1.0000   1.0000   1.0000   1.0000
     1.0000   1.0000   1.0000   1.0000   1.0000   1.0000   1.0000   1.0000
     1.0000   1.0000   1.0000   1.0000   1.0000   1.0000   1.0000   1.0000
     1.0000   1.0000   1.0000   1.0000   1.0000   1.0000   1.0000   1.0000
     1.0000   1.0000   1.0000   1.0000   1.0000   1.0000   1.0000   1.0000
     1.0000   1.0000   1.0000   1.0000   0.9956   0.7292   0.7177   0.7162
     0.0228   0.0013   0.0013   0.0008   0.0004   0.0004   0.0001   0.0000
     0.0000   0.0000   0.0000   0.0000   0.0000   0.0000   0.0000   0.0000
     0.0000   0.0000   0.0000   0.0000   0.0000   0.0000   0.0000   0.0000
     0.0000   0.0000

          k =-0.5000 0.2600 0.0000 ( 35450 PWs)   bands (ev):

   -59.2501 -59.2500 -58.9955 -58.9943 -58.8442 -58.8330 -58.8326 -58.7853
   -58.7106 -58.7080 -58.5884 -58.5735 -29.0531 -29.0528 -28.9219 -28.9218
   -28.7935 -28.7933 -28.7430 -28.7427 -28.6781 -28.6767 -28.6507 -28.6481
   -28.6194 -28.6037 -28.5890 -28.5801 -28.5252 -28.5216 -28.4947 -28.4703
   -28.4275 -28.3892 -28.3734 -28.3611 -28.3393 -28.3125 -28.2635 -28.2474
   -28.2426 -28.2222 -28.1952 -28.1546 -28.1376 -28.1144 -28.1060 -28.0929
   -16.9673 -16.9665 -16.7061 -16.7024 -16.5625 -16.5433 -16.3487 -16.3357
   -16.0549 -16.0431 -15.8242 -15.8229 -15.5593 -15.5551 -15.4230 -15.4032
   -15.3067 -15.2733 -15.2042 -15.1548 -14.5983  -4.8937  -4.8907  -4.5818
    -4.5718  -4.3818  -4.3602  -4.2602  -4.2553  -4.1240  -4.1122  -3.9922
    -3.9394  -3.8636  -3.8451  -3.7499  -3.7344  -3.6605  -3.6343  -3.4750
    -3.4490  -3.2519  -3.2347  -3.1497  -3.1284  -2.9235  -2.9043  -2.7150
    -2.6826  -2.5595  -2.5309  -2.3362  -2.2709  -2.2288  -2.1956  -2.0266
    -1.9895  -1.9739  -1.8895  -1.7619  -1.6822  -1.5997  -1.5477  -1.4190
    -1.3645  -1.2802  -1.2331  -1.1748  -1.0700  -1.0229  -0.9007  -0.8715
    -0.7279  -0.6377  -0.5851  -0.5395  -0.4971  -0.4095  -0.3924  -0.2901
    -0.2433  -0.0977  -0.0452   0.1823   3.5422   3.9088   3.9094   4.0939
     4.4450   4.7999   4.8007   4.9965   4.9981   5.2098   5.5052   5.5208
     5.5675   5.7520   5.7920   5.9510   6.0132   6.1170   6.1805   6.2476
     6.2946   6.4456   6.5263   6.5963   6.7266   6.7975   6.9672   7.0303
     7.0845   7.1667

     occupation numbers 
     1.0000   1.0000   1.0000   1.0000   1.0000   1.0000   1.0000   1.0000
     1.0000   1.0000   1.0000   1.0000   1.0000   1.0000   1.0000   1.0000
     1.0000   1.0000   1.0000   1.0000   1.0000   1.0000   1.0000   1.0000
     1.0000   1.0000   1.0000   1.0000   1.0000   1.0000   1.0000   1.0000
     1.0000   1.0000   1.0000   1.0000   1.0000   1.0000   1.0000   1.0000
     1.0000   1.0000   1.0000   1.0000   1.0000   1.0000   1.0000   1.0000
     1.0000   1.0000   1.0000   1.0000   1.0000   1.0000   1.0000   1.0000
     1.0000   1.0000   1.0000   1.0000   1.0000   1.0000   1.0000   1.0000
     1.0000   1.0000   1.0000   1.0000   1.0000   1.0000   1.0000   1.0000
     1.0000   1.0000   1.0000   1.0000   1.0000   1.0000   1.0000   1.0000
     1.0000   1.0000   1.0000   1.0000   1.0000   1.0000   1.0000   1.0000
     1.0000   1.0000   1.0000   1.0000   1.0000   1.0000   1.0000   1.0000
     1.0000   1.0000   1.0000   1.0000   1.0000   1.0000   1.0000   1.0000
     1.0000   1.0000   1.0000   1.0000   1.0000   1.0000   1.0000   1.0000
     1.0000   1.0000   1.0000   1.0000   1.0000   1.0000   1.0000   1.0000
     1.0000   1.0000   1.0000   1.0000   1.0000   1.0000   1.0000   1.0000
     1.0000   1.0000   1.0000   1.0000   0.9856   0.8226   0.8219   0.5432
     0.0826   0.0066   0.0066   0.0016   0.0015   0.0003   0.0000   0.0000
     0.0000   0.0000   0.0000   0.0000   0.0000   0.0000   0.0000   0.0000
     0.0000   0.0000   0.0000   0.0000   0.0000   0.0000   0.0000   0.0000
     0.0000   0.0000

          k =-0.5000-0.5200 0.0000 ( 35320 PWs)   bands (ev):

   -59.2501 -59.2500 -58.9955 -58.9943 -58.8442 -58.8329 -58.8326 -58.7853
   -58.7106 -58.7080 -58.5885 -58.5736 -29.0927 -29.0924 -28.9686 -28.9685
   -28.8262 -28.8258 -28.7433 -28.7421 -28.6933 -28.6920 -28.6671 -28.6542
   -28.6377 -28.6256 -28.5789 -28.5615 -28.5206 -28.4894 -28.4866 -28.4712
   -28.4162 -28.3815 -28.3384 -28.3287 -28.3271 -28.3068 -28.2364 -28.2239
   -28.2068 -28.2042 -28.1947 -28.1547 -28.1211 -28.1093 -28.0781 -28.0731
   -16.9781 -16.9774 -16.7286 -16.7275 -16.6007 -16.5915 -16.4359 -16.4186
   -16.1207 -16.0923 -15.8549 -15.8517 -15.5251 -15.5224 -15.3624 -15.3498
   -15.2066 -15.2015 -15.1423 -15.0842 -14.5248  -4.7639  -4.7609  -4.5262
    -4.5244  -4.3859  -4.3692  -4.2239  -4.2044  -4.1081  -4.0837  -4.0089
    -4.0039  -3.8940  -3.8671  -3.8401  -3.8232  -3.6478  -3.5976  -3.2593
    -3.2092  -3.0880  -3.0451  -3.0346  -2.9236  -2.7883  -2.7860  -2.7548
    -2.7189  -2.5763  -2.5646  -2.4015  -2.3641  -2.1451  -2.0791  -1.9917
    -1.9528  -1.9140  -1.8889  -1.8210  -1.8031  -1.7257  -1.6433  -1.5041
    -1.3116  -1.2930  -1.2374  -1.2034  -1.1377  -1.0749  -0.9747  -0.8623
    -0.7790  -0.7630  -0.7183  -0.6400  -0.5026  -0.4937  -0.4514  -0.3781
    -0.2940  -0.1538  -0.1410   0.1193   3.7877   3.7957   3.7970   3.9903
     4.4815   4.4818   4.6243   5.0735   5.0832   5.1411   5.2325   5.2453
     5.4260   5.4912   5.5108   5.7673   5.8651   5.9655   6.0845   6.0900
     6.2041   6.3259   6.4844   6.5614   6.6730   6.8211   6.8960   7.0691
     7.1247   7.2843

     occupation numbers 
     1.0000   1.0000   1.0000   1.0000   1.0000   1.0000   1.0000   1.0000
     1.0000   1.0000   1.0000   1.0000   1.0000   1.0000   1.0000   1.0000
     1.0000   1.0000   1.0000   1.0000   1.0000   1.0000   1.0000   1.0000
     1.0000   1.0000   1.0000   1.0000   1.0000   1.0000   1.0000   1.0000
     1.0000   1.0000   1.0000   1.0000   1.0000   1.0000   1.0000   1.0000
     1.0000   1.0000   1.0000   1.0000   1.0000   1.0000   1.0000   1.0000
     1.0000   1.0000   1.0000   1.0000   1.0000   1.0000   1.0000   1.0000
     1.0000   1.0000   1.0000   1.0000   1.0000   1.0000   1.0000   1.0000
     1.0000   1.0000   1.0000   1.0000   1.0000   1.0000   1.0000   1.0000
     1.0000   1.0000   1.0000   1.0000   1.0000   1.0000   1.0000   1.0000
     1.0000   1.0000   1.0000   1.0000   1.0000   1.0000   1.0000   1.0000
     1.0000   1.0000   1.0000   1.0000   1.0000   1.0000   1.0000   1.0000
     1.0000   1.0000   1.0000   1.0000   1.0000   1.0000   1.0000   1.0000
     1.0000   1.0000   1.0000   1.0000   1.0000   1.0000   1.0000   1.0000
     1.0000   1.0000   1.0000   1.0000   1.0000   1.0000   1.0000   1.0000
     1.0000   1.0000   1.0000   1.0000   1.0000   1.0000   1.0000   1.0000
     1.0000   1.0000   1.0000   1.0000   0.9187   0.9141   0.9134   0.7180
     0.0645   0.0643   0.0235   0.0009   0.0008   0.0005   0.0003   0.0003
     0.0001   0.0000   0.0000   0.0000   0.0000   0.0000   0.0000   0.0000
     0.0000   0.0000   0.0000   0.0000   0.0000   0.0000   0.0000   0.0000
     0.0000   0.0000

     the Fermi energy is     4.1175 ev

!    total energy              =   -1853.44037403 Ry
     estimated scf accuracy    <       0.00000001 Ry
     smearing contrib. (-TS)   =      -0.03682612 Ry
     internal energy E=F+TS    =   -1853.40354791 Ry

     The total energy is F=E-TS. E is the sum of the following terms:
     one-electron contribution =  -41393.71760514 Ry
     hartree contribution      =   20724.07208971 Ry
     xc contribution           =    -289.34728287 Ry
     ewald contribution        =   19105.58972232 Ry
     electric field correction =      -0.00047194 Ry

     convergence has been achieved in   9 iterations

     Forces acting on atoms (cartesian axes, Ry/au):

     atom    1 type  1   force =     0.01547960   -0.01587658    0.07314896
     atom    2 type  1   force =     0.00024668   -0.00185483    0.00983986
     atom    3 type  1   force =     0.00535365   -0.00495977    0.00824974
     atom    4 type  1   force =     0.01554146    0.01584365    0.07314188
     atom    5 type  1   force =     0.00060838    0.00170301    0.00981355
     atom    6 type  1   force =    -0.00212003    0.01339213    0.01546968
     atom    7 type  1   force =    -0.00385194    0.00872980    0.01276975
     atom    8 type  1   force =    -0.00028239    0.00103616    0.00872414
     atom    9 type  1   force =     0.02866774    0.05694139   -0.03440387
     atom   10 type  1   force =    -0.00361121   -0.00884269    0.01273688
     atom   11 type  1   force =     0.00012745   -0.00114273    0.01012631
     atom   12 type  1   force =    -0.06046591   -0.03651479   -0.02736113
     atom   13 type  2   force =    -0.01631092    0.02019329   -0.02492891
     atom   14 type  2   force =    -0.00071824    0.00135595   -0.00414556
     atom   15 type  2   force =     0.01095207   -0.01499202    0.00809169
     atom   16 type  2   force =    -0.01620648   -0.02015417   -0.02512526
     atom   17 type  2   force =    -0.00051376   -0.00120662   -0.00417179
     atom   18 type  2   force =     0.01212012    0.01278749   -0.01524235
     atom   19 type  2   force =     0.00399958   -0.00230808   -0.06017922
     atom   20 type  2   force =     0.00059204   -0.00004520   -0.00486501
     atom   21 type  2   force =    -0.00448246   -0.01171798    0.02419412
     atom   22 type  2   force =     0.00082208    0.00309617   -0.00212667
     atom   23 type  2   force =     0.00150034    0.00110545   -0.00462370
     atom   24 type  2   force =     0.00075613   -0.00305563   -0.00186812
     atom   25 type  2   force =     0.00023082   -0.00076968   -0.00431897
     atom   26 type  2   force =     0.00057980   -0.00026935    0.00045050
     atom   27 type  2   force =     0.00400246    0.00228141   -0.06016771
     atom   28 type  2   force =    -0.00069558   -0.00005156   -0.00728701
     atom   29 type  2   force =     0.00057457    0.00002257   -0.00480621
     atom   30 type  2   force =    -0.00078080   -0.00001216   -0.00173064
     atom   31 type  2   force =     0.01064070   -0.01594915    0.03021125
     atom   32 type  2   force =    -0.00069648    0.00022555   -0.00716580
     atom   33 type  2   force =    -0.00205947    0.00100896   -0.00245035
     The non-local contrib.  to forces
     atom    1 type  1   force =    -0.01955246    0.01743003   -0.07741891
     atom    2 type  1   force =    -0.03042519    0.06476827    0.03263054
     atom    3 type  1   force =    -0.03399630    0.06848327    0.04085994
     atom    4 type  1   force =    -0.01941047   -0.01735184   -0.07747410
     atom    5 type  1   force =    -0.03077327   -0.06479667    0.03260758
     atom    6 type  1   force =    -0.03050094   -0.07173591    0.03196526
     atom    7 type  1   force =     0.03184758   -0.07181539    0.01792817
     atom    8 type  1   force =     0.03044898   -0.06395191    0.03341440
     atom    9 type  1   force =     0.01497895   -0.12216705    0.18200165
     atom   10 type  1   force =     0.03194309    0.07181357    0.01795030
     atom   11 type  1   force =     0.03049297    0.06422168    0.03356951
     atom   12 type  1   force =     0.10708621    0.00494562    0.19791648
     atom   13 type  2   force =    -0.08632926    0.07685821    0.03787620
     atom   14 type  2   force =    -0.05376447    0.04733590    0.03190471
     atom   15 type  2   force =    -0.04239158    0.02441071    0.02974644
     atom   16 type  2   force =    -0.08571631   -0.07635890    0.03744316
     atom   17 type  2   force =    -0.05305710   -0.04667441    0.03181442
     atom   18 type  2   force =    -0.03326068   -0.01830882    0.00747721
     atom   19 type  2   force =    -0.04576147   -0.15011535   -0.04245440
     atom   20 type  2   force =    -0.05225665   -0.14667606    0.00586128
     atom   21 type  2   force =    -0.06503500   -0.16907329    0.03734934
     atom   22 type  2   force =     0.05486033    0.04896970    0.03685354
     atom   23 type  2   force =     0.05465722    0.04676563    0.03086232
     atom   24 type  2   force =     0.05500045   -0.04925292    0.03679103
     atom   25 type  2   force =     0.05265538   -0.04644394    0.03039817
     atom   26 type  2   force =     0.15183094   -0.17983206   -0.32274574
     atom   27 type  2   force =    -0.04569739    0.15006896   -0.04245229
     atom   28 type  2   force =     0.05237642    0.14634716    0.00004300
     atom   29 type  2   force =    -0.05242129    0.14651916    0.00600355
     atom   30 type  2   force =     0.05286613    0.14659847    0.01052496
     atom   31 type  2   force =    -0.03295993    0.13050712    0.03278278
     atom   32 type  2   force =     0.05238411   -0.14653095    0.00016148
     atom   33 type  2   force =     0.04980161   -0.14492346    0.00983191
     The ionic contribution  to forces
     atom    1 type  1   force =    -1.52878986    1.02840423 -240.46942543
     atom    2 type  1   force =    -1.80759927   -2.70611441  -48.29108596
     atom    3 type  1   force =    -2.11365120   -2.51531782  146.40833372
     atom    4 type  1   force =    -1.52591236   -1.02735551 -240.46986260
     atom    5 type  1   force =    -1.80318783    2.70465180  -48.28977379
     atom    6 type  1   force =    -1.48407312    2.77118484  147.51489317
     atom    7 type  1   force =     1.80518412    2.50026666 -145.90885632
     atom    8 type  1   force =     1.77580447    2.71351588   49.28628100
     atom    9 type  1   force =    -3.87490451   -1.34229629  236.81368550
     atom   10 type  1   force =     1.81769345   -2.50024303 -145.90661966
     atom   11 type  1   force =     1.83198331   -2.71292031   49.29450189
     atom   12 type  1   force =     6.37303928   -0.64042202  236.96880874
     atom   13 type  2   force =     0.85452831    0.36071834 -108.77837711
     atom   14 type  2   force =     0.86481477    0.79727526  -12.11848727
     atom   15 type  2   force =     0.09048468    0.62067198   85.55462137
     atom   16 type  2   force =     0.85580330   -0.36221570 -108.76222225
     atom   17 type  2   force =     0.86817116   -0.79905685  -12.10182721
     atom   18 type  2   force =     1.57332484   -0.98025464   85.12851586
     atom   19 type  2   force =     0.37643216    2.31165837  -98.26735615
     atom   20 type  2   force =     0.36457421    2.42155433   -0.02734308
     atom   21 type  2   force =     0.77761658    2.58029236   97.59791230
     atom   22 type  2   force =    -0.86356482    0.78164440  -60.85491844
     atom   23 type  2   force =    -0.86157515    0.79193648   36.71962666
     atom   24 type  2   force =    -0.86708572   -0.77986945  -60.85818714
     atom   25 type  2   force =    -0.87011682   -0.80409234   36.64663419
     atom   26 type  2   force =    -1.97166945    1.51938687  123.42956915
     atom   27 type  2   force =     0.37578420   -2.31348484  -98.26899383
     atom   28 type  2   force =    -0.36310951   -2.41323383  -48.84320746
     atom   29 type  2   force =     0.36112056   -2.42141904   -0.02493684
     atom   30 type  2   force =    -0.39529918   -2.39933340   48.80195950
     atom   31 type  2   force =     0.05507090   -2.03626097   98.17514902
     atom   32 type  2   force =    -0.36232035    2.41551859  -48.84321027
     atom   33 type  2   force =    -0.32857114    2.43521006   48.74419873
     The local contribution  to forces
     atom    1 type  1   force =     1.56382406   -1.06172812  240.61996248
     atom    2 type  1   force =     1.83827137    2.63948931   48.26827004
     atom    3 type  1   force =     2.15301076    2.44189402 -146.44087660
     atom    4 type  1   force =     1.56086641    1.06056490  240.62044782
     atom    5 type  1   force =     1.83456916   -2.63815374   48.26695377
     atom    6 type  1   force =     1.51244333   -2.68607608 -147.53132376
     atom    7 type  1   force =    -1.84088338   -2.41972416  145.90359320
     atom    8 type  1   force =    -1.80653134   -2.64853345  -49.31091591
     atom    9 type  1   force =     3.88858335    1.52134319 -237.03006982
     atom   10 type  1   force =    -1.85324754    2.41958607  145.90130153
     atom   11 type  1   force =    -1.86235127    2.64755853  -49.31788769
     atom   12 type  1   force =    -6.54060264    0.59898605 -237.19401909
     atom   13 type  2   force =    -0.78450961   -0.41738342  108.71549032
     atom   14 type  2   force =    -0.81176719   -0.84325709   12.08240448
     atom   15 type  2   force =    -0.03714043   -0.66008129  -85.57627374
     atom   16 type  2   force =    -0.78629330    0.41841704  108.69957209
     atom   17 type  2   force =    -0.81562763    0.84452332   12.06580845
     atom   18 type  2   force =    -1.52794352    1.01136195  -85.15123159
     atom   19 type  2   force =    -0.32667146   -2.16385253   98.24954103
     atom   20 type  2   force =    -0.31172604   -2.27492493    0.01660176
     atom   21 type  2   force =    -0.71706327   -2.42295323  -97.61106045
     atom   22 type  2   force =     0.80952666   -0.82751957   60.81584262
     atom   23 type  2   force =     0.80841546   -0.83760011  -36.75510624
     atom   24 type  2   force =     0.81284176    0.82606478   60.81943239
     atom   25 type  2   force =     0.81769445    0.84976805  -36.68134260
     atom   26 type  2   force =     1.82043323   -1.33977934 -123.10634747
     atom   27 type  2   force =    -0.32608469    2.16569562   98.25118788
     atom   28 type  2   force =     0.31003733    2.26683304   48.83579468
     atom   29 type  2   force =    -0.30812416    2.27492012    0.01411148
     atom   30 type  2   force =     0.34165363    2.25272165  -48.81420021
     atom   31 type  2   force =    -0.01146651    1.88980531  -98.17771518
     atom   32 type  2   force =     0.30923945   -2.26876352   48.83580048
     atom   33 type  2   force =     0.27670971   -2.28928184  -48.75646348
     The core correction contribution to forces
     atom    1 type  1   force =     0.00000000    0.00000000    0.00000000
     atom    2 type  1   force =     0.00000000    0.00000000    0.00000000
     atom    3 type  1   force =     0.00000000    0.00000000    0.00000000
     atom    4 type  1   force =     0.00000000    0.00000000    0.00000000
     atom    5 type  1   force =     0.00000000    0.00000000    0.00000000
     atom    6 type  1   force =     0.00000000    0.00000000    0.00000000
     atom    7 type  1   force =     0.00000000    0.00000000    0.00000000
     atom    8 type  1   force =     0.00000000    0.00000000    0.00000000
     atom    9 type  1   force =     0.00000000    0.00000000    0.00000000
     atom   10 type  1   force =     0.00000000    0.00000000    0.00000000
     atom   11 type  1   force =     0.00000000    0.00000000    0.00000000
     atom   12 type  1   force =     0.00000000    0.00000000    0.00000000
     atom   13 type  2   force =     0.00000000    0.00000000    0.00000000
     atom   14 type  2   force =     0.00000000    0.00000000    0.00000000
     atom   15 type  2   force =     0.00000000    0.00000000    0.00000000
     atom   16 type  2   force =     0.00000000    0.00000000    0.00000000
     atom   17 type  2   force =     0.00000000    0.00000000    0.00000000
     atom   18 type  2   force =     0.00000000    0.00000000    0.00000000
     atom   19 type  2   force =     0.00000000    0.00000000    0.00000000
     atom   20 type  2   force =     0.00000000    0.00000000    0.00000000
     atom   21 type  2   force =     0.00000000    0.00000000    0.00000000
     atom   22 type  2   force =     0.00000000    0.00000000    0.00000000
     atom   23 type  2   force =     0.00000000    0.00000000    0.00000000
     atom   24 type  2   force =     0.00000000    0.00000000    0.00000000
     atom   25 type  2   force =     0.00000000    0.00000000    0.00000000
     atom   26 type  2   force =     0.00000000    0.00000000    0.00000000
     atom   27 type  2   force =     0.00000000    0.00000000    0.00000000
     atom   28 type  2   force =     0.00000000    0.00000000    0.00000000
     atom   29 type  2   force =     0.00000000    0.00000000    0.00000000
     atom   30 type  2   force =     0.00000000    0.00000000    0.00000000
     atom   31 type  2   force =     0.00000000    0.00000000    0.00000000
     atom   32 type  2   force =     0.00000000    0.00000000    0.00000000
     atom   33 type  2   force =     0.00000000    0.00000000    0.00000000
     The Hubbard contrib.    to forces
     atom    1 type  1   force =     0.00000000    0.00000000    0.00000000
     atom    2 type  1   force =     0.00000000    0.00000000    0.00000000
     atom    3 type  1   force =     0.00000000    0.00000000    0.00000000
     atom    4 type  1   force =     0.00000000    0.00000000    0.00000000
     atom    5 type  1   force =     0.00000000    0.00000000    0.00000000
     atom    6 type  1   force =     0.00000000    0.00000000    0.00000000
     atom    7 type  1   force =     0.00000000    0.00000000    0.00000000
     atom    8 type  1   force =     0.00000000    0.00000000    0.00000000
     atom    9 type  1   force =     0.00000000    0.00000000    0.00000000
     atom   10 type  1   force =     0.00000000    0.00000000    0.00000000
     atom   11 type  1   force =     0.00000000    0.00000000    0.00000000
     atom   12 type  1   force =     0.00000000    0.00000000    0.00000000
     atom   13 type  2   force =     0.00000000    0.00000000    0.00000000
     atom   14 type  2   force =     0.00000000    0.00000000    0.00000000
     atom   15 type  2   force =     0.00000000    0.00000000    0.00000000
     atom   16 type  2   force =     0.00000000    0.00000000    0.00000000
     atom   17 type  2   force =     0.00000000    0.00000000    0.00000000
     atom   18 type  2   force =     0.00000000    0.00000000    0.00000000
     atom   19 type  2   force =     0.00000000    0.00000000    0.00000000
     atom   20 type  2   force =     0.00000000    0.00000000    0.00000000
     atom   21 type  2   force =     0.00000000    0.00000000    0.00000000
     atom   22 type  2   force =     0.00000000    0.00000000    0.00000000
     atom   23 type  2   force =     0.00000000    0.00000000    0.00000000
     atom   24 type  2   force =     0.00000000    0.00000000    0.00000000
     atom   25 type  2   force =     0.00000000    0.00000000    0.00000000
     atom   26 type  2   force =     0.00000000    0.00000000    0.00000000
     atom   27 type  2   force =     0.00000000    0.00000000    0.00000000
     atom   28 type  2   force =     0.00000000    0.00000000    0.00000000
     atom   29 type  2   force =     0.00000000    0.00000000    0.00000000
     atom   30 type  2   force =     0.00000000    0.00000000    0.00000000
     atom   31 type  2   force =     0.00000000    0.00000000    0.00000000
     atom   32 type  2   force =     0.00000000    0.00000000    0.00000000
     atom   33 type  2   force =     0.00000000    0.00000000    0.00000000
     The SCF correction term to forces
     atom    1 type  1   force =     0.00000000    0.00000000    0.00000000
     atom    2 type  1   force =     0.00000000    0.00000000    0.00000000
     atom    3 type  1   force =     0.00000000    0.00000000    0.00000000
     atom    4 type  1   force =     0.00000000    0.00000000    0.00000000
     atom    5 type  1   force =     0.00000000    0.00000000    0.00000000
     atom    6 type  1   force =     0.00000000    0.00000000    0.00000000
     atom    7 type  1   force =     0.00000000    0.00000000    0.00000000
     atom    8 type  1   force =     0.00000000    0.00000000    0.00000000
     atom    9 type  1   force =     0.00000000    0.00000000    0.00000000
     atom   10 type  1   force =     0.00000000    0.00000000    0.00000000
     atom   11 type  1   force =     0.00000000    0.00000000    0.00000000
     atom   12 type  1   force =     0.00000000    0.00000000    0.00000000
     atom   13 type  2   force =     0.00000000    0.00000000    0.00000000
     atom   14 type  2   force =     0.00000000    0.00000000    0.00000000
     atom   15 type  2   force =     0.00000000    0.00000000    0.00000000
     atom   16 type  2   force =     0.00000000    0.00000000    0.00000000
     atom   17 type  2   force =     0.00000000    0.00000000    0.00000000
     atom   18 type  2   force =     0.00000000    0.00000000    0.00000000
     atom   19 type  2   force =     0.00000000    0.00000000    0.00000000
     atom   20 type  2   force =     0.00000000    0.00000000    0.00000000
     atom   21 type  2   force =     0.00000000    0.00000000    0.00000000
     atom   22 type  2   force =     0.00000000    0.00000000    0.00000000
     atom   23 type  2   force =     0.00000000    0.00000000    0.00000000
     atom   24 type  2   force =     0.00000000    0.00000000    0.00000000
     atom   25 type  2   force =     0.00000000    0.00000000    0.00000000
     atom   26 type  2   force =    -0.00001471   -0.00004653    0.00002428
     atom   27 type  2   force =     0.00000000    0.00000000    0.00000000
     atom   28 type  2   force =     0.00000000    0.00000000    0.00000000
     atom   29 type  2   force =     0.00000000    0.00000000    0.00000000
     atom   30 type  2   force =     0.00000000    0.00000000    0.00000000
     atom   31 type  2   force =     0.00000000    0.00000000    0.00000000
     atom   32 type  2   force =     0.00000000    0.00000000    0.00000000
     atom   33 type  2   force =     0.00000000    0.00000000    0.00000000

     Total force =     0.000782     Total SCF correction =     0.000055
     Energy error            =      7.6E-06
     Gradient error          =      5.8E-04

     number of scf cycles    =   8
     number of bfgs steps    =   7

     energy   old            =   -1853.4403664720 Ry
     energy   new            =   -1853.4403740269 Ry

     CASE: energy  _new < energy  _old

     new trust radius        =       0.0008316341 bohr
     new conv_thr            =       0.0000000076 Ry


ATOMIC_POSITIONS (angstrom)
Hf            4.0076390000        3.7813620000        6.1529890000    0   0   0
Hf            4.0076390000        3.7813620000       11.0753320000    0   0   0
Hf            4.0076390000        3.7813620000       15.9976750000    0   0   0
Hf            1.4522770000        1.1321830000        6.1529770000    0   0   0
Hf            1.4522770000        1.1321830000       11.0753200000    0   0   0
Hf            1.4522770000        1.1321830000       15.9976630000    0   0   0
Hf            3.6579980000        1.1322110000        8.6140330000    0   0   0
Hf            3.6579980000        1.1322110000       13.5363760000    0   0   0
Hf            3.6579980000        1.1322110000       18.4587190000    0   0   0
Hf            1.1027520000        3.7813090000        8.6141070000    0   0   0
Hf            1.1027520000        3.7813090000       13.5364490000    0   0   0
Hf            1.1027520000        3.7813090000       18.4587920000    0   0   0
O             3.1707970000        2.0862730000        6.8074440000    0   0   0
O             3.1707970000        2.0862730000       11.7297860000    0   0   0
O             3.1707970000        2.0862730000       16.6521290000    0   0   0
O             0.6152330000        2.8266930000        6.8083890000    0   0   0
O             0.6152330000        2.8266930000       11.7307320000    0   0   0
O             0.6152330000        2.8266930000       16.6530750000    0   0   0
O             5.0530890000        0.2074550000        7.3799440000    0   0   0
O             5.0530890000        0.2074550000       12.3022870000    0   0   0
O             5.0530890000        0.2074550000       17.2246300000    0   0   0
O             1.9399660000        2.0865810000        9.2696970000    0   0   0
O             1.9399660000        2.0865810000       14.1920390000    0   0   0
O             4.4952530000        2.8267400000        9.2692970000    0   0   0
O             4.4952530000        2.8267400000       14.1916400000    0   0   0
O             4.5640874624        2.7960855333       18.9929264912
O             2.4978700000       -0.2075440000        7.3798460000    0   0   0
O             2.6124080000       -0.2081150000        9.8410840000    0   0   0
O             2.4978700000       -0.2075440000       12.3021890000    0   0   0
O             2.6124080000       -0.2081150000       14.7634270000    0   0   0
O             2.4978700000       -0.2075440000       17.2245320000    0   0   0
O             5.1675430000        0.2075860000        9.8410300000    0   0   0
O             5.1675430000        0.2075860000       14.7633720000    0   0   0



     Writing output data file ./hfo2.save/
     NEW-OLD atomic charge density approx. for the potential

     negative rho (up, down):  1.315E-06 0.000E+00
 
     Adding external electric field

     Computed dipole along edir(3) : 
        Elec. dipole         -2.7570 Ry au,         -7.0075 Debye
        Ion. dipole          -2.7560 Ry au,         -7.0049 Debye
        Dipole                0.4746 Ry au,          1.2064 Debye
        Dipole field          0.0010 Ry au, 
 
        E field amplitude [Ha a.u.]:  1.0000E-03
        Potential amp.       -0.0007 Ry
        Total length         62.8334 bohr
 

     total cpu time spent up to now is      618.4 secs

     Self-consistent Calculation

     iteration #  1     ecut=    50.00 Ry     beta= 0.30
     Davidson diagonalization with overlap
     ethr =  1.00E-06,  avg # of iterations =  2.0

     negative rho (up, down):  6.932E-07 0.000E+00
 
     Adding external electric field

     Computed dipole along edir(3) : 
        Elec. dipole         -2.7570 Ry au,         -7.0075 Debye
        Ion. dipole          -2.7560 Ry au,         -7.0049 Debye
        Dipole                0.4743 Ry au,          1.2056 Debye
        Dipole field          0.0010 Ry au, 
 
        E field amplitude [Ha a.u.]:  1.0000E-03
        Potential amp.       -0.0006 Ry
        Total length         62.8334 bohr
 

     total cpu time spent up to now is      637.5 secs

     total energy              =   -1853.44037411 Ry
     estimated scf accuracy    <       0.00027613 Ry

     iteration #  2     ecut=    50.00 Ry     beta= 0.30
     Davidson diagonalization with overlap
     ethr =  1.02E-07,  avg # of iterations =  1.0

     negative rho (up, down):  3.224E-07 0.000E+00
 
     Adding external electric field

     Computed dipole along edir(3) : 
        Elec. dipole         -2.7570 Ry au,         -7.0075 Debye
        Ion. dipole          -2.7560 Ry au,         -7.0049 Debye
        Dipole                0.4741 Ry au,          1.2050 Debye
        Dipole field          0.0010 Ry au, 
 
        E field amplitude [Ha a.u.]:  1.0000E-03
        Potential amp.       -0.0006 Ry
        Total length         62.8334 bohr
 

     total cpu time spent up to now is      643.8 secs

     total energy              =   -1853.44037454 Ry
     estimated scf accuracy    <       0.00002963 Ry

     iteration #  3     ecut=    50.00 Ry     beta= 0.30
     Davidson diagonalization with overlap
     ethr =  1.10E-08,  avg # of iterations =  1.0

     negative rho (up, down):  8.312E-08 0.000E+00
 
     Adding external electric field

     Computed dipole along edir(3) : 
        Elec. dipole         -2.7570 Ry au,         -7.0075 Debye
        Ion. dipole          -2.7560 Ry au,         -7.0049 Debye
        Dipole                0.4736 Ry au,          1.2038 Debye
        Dipole field          0.0010 Ry au, 
 
        E field amplitude [Ha a.u.]:  1.0000E-03
        Potential amp.       -0.0004 Ry
        Total length         62.8334 bohr
 

     total cpu time spent up to now is      647.4 secs

     total energy              =   -1853.44037461 Ry
     estimated scf accuracy    <       0.00000032 Ry

     iteration #  4     ecut=    50.00 Ry     beta= 0.30
     Davidson diagonalization with overlap
     ethr =  1.20E-10,  avg # of iterations =  2.0

     negative rho (up, down):  1.046E-08 0.000E+00
 
     Adding external electric field

     Computed dipole along edir(3) : 
        Elec. dipole         -2.7570 Ry au,         -7.0075 Debye
        Ion. dipole          -2.7560 Ry au,         -7.0049 Debye
        Dipole                0.4734 Ry au,          1.2033 Debye
        Dipole field          0.0010 Ry au, 
 
        E field amplitude [Ha a.u.]:  1.0000E-03
        Potential amp.       -0.0004 Ry
        Total length         62.8334 bohr
 

     total cpu time spent up to now is      651.2 secs

     total energy              =   -1853.44037463 Ry
     estimated scf accuracy    <       0.00000009 Ry

     iteration #  5     ecut=    50.00 Ry     beta= 0.30
     Davidson diagonalization with overlap
     ethr =  3.31E-11,  avg # of iterations =  2.1
 
     Adding external electric field

     Computed dipole along edir(3) : 
        Elec. dipole         -2.7570 Ry au,         -7.0075 Debye
        Ion. dipole          -2.7560 Ry au,         -7.0049 Debye
        Dipole                0.4732 Ry au,          1.2027 Debye
        Dipole field          0.0010 Ry au, 
 
        E field amplitude [Ha a.u.]:  1.0000E-03
        Potential amp.       -0.0003 Ry
        Total length         62.8334 bohr
 

     total cpu time spent up to now is      654.8 secs

     total energy              =   -1853.44037463 Ry
     estimated scf accuracy    <       0.00000015 Ry

     iteration #  6     ecut=    50.00 Ry     beta= 0.30
     Davidson diagonalization with overlap
     ethr =  3.31E-11,  avg # of iterations =  2.0
 
     Adding external electric field

     Computed dipole along edir(3) : 
        Elec. dipole         -2.7570 Ry au,         -7.0075 Debye
        Ion. dipole          -2.7560 Ry au,         -7.0049 Debye
        Dipole                0.4731 Ry au,          1.2026 Debye
        Dipole field          0.0010 Ry au, 
 
        E field amplitude [Ha a.u.]:  1.0000E-03
        Potential amp.       -0.0003 Ry
        Total length         62.8334 bohr
 

     total cpu time spent up to now is      658.4 secs

     total energy              =   -1853.44037463 Ry
     estimated scf accuracy    <       0.00000003 Ry

     iteration #  7     ecut=    50.00 Ry     beta= 0.30
     Davidson diagonalization with overlap
     ethr =  1.17E-11,  avg # of iterations =  2.0
 
     Adding external electric field

     Computed dipole along edir(3) : 
        Elec. dipole         -2.7570 Ry au,         -7.0075 Debye
        Ion. dipole          -2.7560 Ry au,         -7.0049 Debye
        Dipole                0.4731 Ry au,          1.2025 Debye
        Dipole field          0.0010 Ry au, 
 
        E field amplitude [Ha a.u.]:  1.0000E-03
        Potential amp.       -0.0003 Ry
        Total length         62.8334 bohr
 

     total cpu time spent up to now is      662.1 secs

     total energy              =   -1853.44037463 Ry
     estimated scf accuracy    <       0.00000002 Ry

     iteration #  8     ecut=    50.00 Ry     beta= 0.30
     Davidson diagonalization with overlap
     ethr =  5.88E-12,  avg # of iterations =  2.2
 
     Adding external electric field

     Computed dipole along edir(3) : 
        Elec. dipole         -2.7570 Ry au,         -7.0075 Debye
        Ion. dipole          -2.7560 Ry au,         -7.0049 Debye
        Dipole                0.4732 Ry au,          1.2026 Debye
        Dipole field          0.0010 Ry au, 
 
        E field amplitude [Ha a.u.]:  1.0000E-03
        Potential amp.       -0.0003 Ry
        Total length         62.8334 bohr
 

     total cpu time spent up to now is      665.8 secs

     total energy              =   -1853.44037463 Ry
     estimated scf accuracy    <       0.00000002 Ry

     iteration #  9     ecut=    50.00 Ry     beta= 0.30
     Davidson diagonalization with overlap
     ethr =  5.88E-12,  avg # of iterations =  3.0
 
     Adding external electric field

     Computed dipole along edir(3) : 
        Elec. dipole         -2.7570 Ry au,         -7.0075 Debye
        Ion. dipole          -2.7560 Ry au,         -7.0049 Debye
        Dipole                0.4732 Ry au,          1.2027 Debye
        Dipole field          0.0010 Ry au, 
 
        E field amplitude [Ha a.u.]:  1.0000E-03
        Potential amp.       -0.0003 Ry
        Total length         62.8334 bohr
 

     total cpu time spent up to now is      669.7 secs

     total energy              =   -1853.44037463 Ry
     estimated scf accuracy    <       0.00000002 Ry

     iteration # 10     ecut=    50.00 Ry     beta= 0.30
     Davidson diagonalization with overlap
     ethr =  5.88E-12,  avg # of iterations =  1.0
 
     Adding external electric field

     Computed dipole along edir(3) : 
        Elec. dipole         -2.7570 Ry au,         -7.0075 Debye
        Ion. dipole          -2.7560 Ry au,         -7.0049 Debye
        Dipole                0.4732 Ry au,          1.2028 Debye
        Dipole field          0.0010 Ry au, 
 
        E field amplitude [Ha a.u.]:  1.0000E-03
        Potential amp.       -0.0003 Ry
        Total length         62.8334 bohr
 

     total cpu time spent up to now is      673.0 secs

     total energy              =   -1853.44037463 Ry
     estimated scf accuracy    <       0.00000002 Ry

     iteration # 11     ecut=    50.00 Ry     beta= 0.30
     Davidson diagonalization with overlap
     ethr =  5.88E-12,  avg # of iterations =  2.0
 
     Adding external electric field

     Computed dipole along edir(3) : 
        Elec. dipole         -2.7570 Ry au,         -7.0075 Debye
        Ion. dipole          -2.7560 Ry au,         -7.0049 Debye
        Dipole                0.4730 Ry au,          1.2022 Debye
        Dipole field          0.0010 Ry au, 
 
        E field amplitude [Ha a.u.]:  1.0000E-03
        Potential amp.       -0.0003 Ry
        Total length         62.8334 bohr
 

     total cpu time spent up to now is      675.0 secs

     End of self-consistent calculation

          k = 0.0000 0.0000 0.0000 ( 35385 PWs)   bands (ev):

   -59.2570 -59.2436 -59.0030 -58.9875 -58.8450 -58.8410 -58.8256 -58.7849
   -58.7174 -58.7020 -58.5913 -58.5708 -29.1024 -29.0429 -28.9554 -28.8762
   -28.8302 -28.7723 -28.7662 -28.7380 -28.7001 -28.6670 -28.6496 -28.6398
   -28.6239 -28.6079 -28.5800 -28.5339 -28.5262 -28.5161 -28.4740 -28.4334
   -28.4239 -28.3762 -28.3745 -28.3627 -28.3240 -28.3160 -28.2952 -28.2708
   -28.2411 -28.1976 -28.1942 -28.1630 -28.1422 -28.1155 -28.0827 -28.0608
   -17.8379 -17.4318 -16.9252 -16.6567 -16.3957 -16.3586 -16.2167 -16.1329
   -16.0477 -16.0235 -15.9016 -15.7301 -15.5485 -15.3996 -15.3872 -15.2586
   -15.2529 -15.1317 -15.0802 -15.0111 -14.5647  -5.4540  -5.4318  -5.2614
    -5.2160  -5.0675  -4.9762  -4.6679  -4.6143  -4.4366  -4.4010  -4.2746
    -4.2291  -4.1252  -3.9053  -3.8079  -3.6416  -3.6063  -3.4436  -3.3956
    -3.3432  -3.1376  -3.0765  -2.8476  -2.8046  -2.7778  -2.6671  -2.5929
    -2.4888  -2.4350  -2.2944  -2.2260  -2.1293  -1.9877  -1.9849  -1.9576
    -1.8558  -1.7551  -1.7260  -1.7036  -1.6764  -1.6159  -1.5984  -1.2700
    -1.2414  -1.1844  -1.0667  -0.8920  -0.8673  -0.8198  -0.7127  -0.6525
    -0.5807  -0.5786  -0.3716  -0.2289  -0.1941  -0.1090   0.0712   0.1084
     0.2447   0.2584   0.3740   0.5021   2.6951   2.9331   4.1636   4.3662
     4.4264   4.8146   5.0393   5.0727   5.3482   5.4967   5.5671   5.8331
     5.9506   6.0171   6.0537   6.1993   6.2498   6.2887   6.4115   6.4582
     6.4677   6.6212   6.6508   6.7100   6.8584   6.8993   7.0035   7.0302
     7.0412   7.2106

     occupation numbers 
     1.0000   1.0000   1.0000   1.0000   1.0000   1.0000   1.0000   1.0000
     1.0000   1.0000   1.0000   1.0000   1.0000   1.0000   1.0000   1.0000
     1.0000   1.0000   1.0000   1.0000   1.0000   1.0000   1.0000   1.0000
     1.0000   1.0000   1.0000   1.0000   1.0000   1.0000   1.0000   1.0000
     1.0000   1.0000   1.0000   1.0000   1.0000   1.0000   1.0000   1.0000
     1.0000   1.0000   1.0000   1.0000   1.0000   1.0000   1.0000   1.0000
     1.0000   1.0000   1.0000   1.0000   1.0000   1.0000   1.0000   1.0000
     1.0000   1.0000   1.0000   1.0000   1.0000   1.0000   1.0000   1.0000
     1.0000   1.0000   1.0000   1.0000   1.0000   1.0000   1.0000   1.0000
     1.0000   1.0000   1.0000   1.0000   1.0000   1.0000   1.0000   1.0000
     1.0000   1.0000   1.0000   1.0000   1.0000   1.0000   1.0000   1.0000
     1.0000   1.0000   1.0000   1.0000   1.0000   1.0000   1.0000   1.0000
     1.0000   1.0000   1.0000   1.0000   1.0000   1.0000   1.0000   1.0000
     1.0000   1.0000   1.0000   1.0000   1.0000   1.0000   1.0000   1.0000
     1.0000   1.0000   1.0000   1.0000   1.0000   1.0000   1.0000   1.0000
     1.0000   1.0000   1.0000   1.0000   1.0000   1.0000   1.0000   1.0000
     1.0000   1.0000   1.0000   1.0000   1.0000   0.9998   0.4157   0.1383
     0.0935   0.0059   0.0011   0.0009   0.0001   0.0000   0.0000   0.0000
     0.0000   0.0000   0.0000   0.0000   0.0000   0.0000   0.0000   0.0000
     0.0000   0.0000   0.0000   0.0000   0.0000   0.0000   0.0000   0.0000
     0.0000   0.0000

          k = 0.0000 0.2600 0.0000 ( 35369 PWs)   bands (ev):

   -59.2553 -59.2452 -59.0013 -58.9892 -58.8447 -58.8392 -58.8273 -58.7851
   -58.7157 -58.7037 -58.5904 -58.5719 -29.0861 -28.9915 -28.9302 -28.8722
   -28.8051 -28.7785 -28.7505 -28.7205 -28.6945 -28.6722 -28.6543 -28.6434
   -28.6365 -28.5895 -28.5759 -28.5452 -28.5235 -28.5187 -28.4936 -28.4447
   -28.4217 -28.4080 -28.3937 -28.3773 -28.3570 -28.3058 -28.2753 -28.2664
   -28.2621 -28.2312 -28.2016 -28.1760 -28.1426 -28.1155 -28.0988 -28.0850
   -17.5761 -17.2203 -16.8093 -16.5958 -16.3700 -16.2884 -16.1456 -16.0853
   -16.0299 -15.9887 -15.9560 -15.7548 -15.6119 -15.5583 -15.4518 -15.4013
   -15.3585 -15.2373 -15.1444 -15.0928 -14.6192  -5.4012  -5.2649  -5.0843
    -4.9660  -4.9273  -4.7068  -4.6010  -4.5501  -4.5129  -4.3656  -4.3023
    -4.1848  -3.9445  -3.8838  -3.7040  -3.6551  -3.5707  -3.4825  -3.3929
    -3.3256  -3.2628  -3.2381  -3.0316  -2.9311  -2.8194  -2.7047  -2.6466
    -2.5383  -2.4323  -2.3440  -2.2929  -2.2129  -2.1605  -2.0547  -2.0293
    -1.9134  -1.8283  -1.6721  -1.5508  -1.4868  -1.4355  -1.3410  -1.2130
    -1.2080  -1.1119  -0.9754  -0.9245  -0.8665  -0.8171  -0.7671  -0.7304
    -0.6670  -0.5785  -0.5253  -0.4025  -0.3159  -0.2490  -0.2183  -0.1909
     0.0799   0.2157   0.3156   0.4455   3.0581   3.2968   4.2355   4.2525
     4.3771   4.8348   4.9120   5.1456   5.2212   5.2527   5.3471   5.4431
     5.6752   5.7187   5.8487   5.8784   5.9795   6.1250   6.1588   6.3615
     6.5487   6.6243   6.6926   6.7425   6.9368   6.9935   7.0730   7.1640
     7.2416   7.3375

     occupation numbers 
     1.0000   1.0000   1.0000   1.0000   1.0000   1.0000   1.0000   1.0000
     1.0000   1.0000   1.0000   1.0000   1.0000   1.0000   1.0000   1.0000
     1.0000   1.0000   1.0000   1.0000   1.0000   1.0000   1.0000   1.0000
     1.0000   1.0000   1.0000   1.0000   1.0000   1.0000   1.0000   1.0000
     1.0000   1.0000   1.0000   1.0000   1.0000   1.0000   1.0000   1.0000
     1.0000   1.0000   1.0000   1.0000   1.0000   1.0000   1.0000   1.0000
     1.0000   1.0000   1.0000   1.0000   1.0000   1.0000   1.0000   1.0000
     1.0000   1.0000   1.0000   1.0000   1.0000   1.0000   1.0000   1.0000
     1.0000   1.0000   1.0000   1.0000   1.0000   1.0000   1.0000   1.0000
     1.0000   1.0000   1.0000   1.0000   1.0000   1.0000   1.0000   1.0000
     1.0000   1.0000   1.0000   1.0000   1.0000   1.0000   1.0000   1.0000
     1.0000   1.0000   1.0000   1.0000   1.0000   1.0000   1.0000   1.0000
     1.0000   1.0000   1.0000   1.0000   1.0000   1.0000   1.0000   1.0000
     1.0000   1.0000   1.0000   1.0000   1.0000   1.0000   1.0000   1.0000
     1.0000   1.0000   1.0000   1.0000   1.0000   1.0000   1.0000   1.0000
     1.0000   1.0000   1.0000   1.0000   1.0000   1.0000   1.0000   1.0000
     1.0000   1.0000   1.0000   1.0000   0.9996   0.9976   0.2956   0.2703
     0.1290   0.0051   0.0029   0.0005   0.0003   0.0002   0.0001   0.0001
     0.0000   0.0000   0.0000   0.0000   0.0000   0.0000   0.0000   0.0000
     0.0000   0.0000   0.0000   0.0000   0.0000   0.0000   0.0000   0.0000
     0.0000   0.0000

          k = 0.0000-0.5200 0.0000 ( 35392 PWs)   bands (ev):

   -59.2527 -59.2477 -58.9988 -58.9917 -58.8444 -58.8367 -58.8298 -58.7853
   -58.7133 -58.7060 -58.5893 -58.5731 -29.0672 -28.9218 -28.8857 -28.8808
   -28.7850 -28.7797 -28.7573 -28.7196 -28.6956 -28.6767 -28.6478 -28.6323
   -28.6235 -28.5967 -28.5762 -28.5540 -28.5234 -28.5134 -28.4912 -28.4598
   -28.4551 -28.4215 -28.4150 -28.3737 -28.3636 -28.3418 -28.3072 -28.2903
   -28.2661 -28.2310 -28.1880 -28.1672 -28.1497 -28.1412 -28.1201 -28.0933
   -17.2001 -16.9087 -16.6561 -16.5324 -16.3382 -16.2143 -16.1817 -16.0675
   -16.0429 -16.0052 -15.9563 -15.9380 -15.7912 -15.6304 -15.6273 -15.4332
   -15.4248 -15.3021 -15.1982 -15.1732 -14.6714  -5.2002  -5.1287  -4.9909
    -4.7959  -4.6343  -4.5523  -4.4668  -4.4530  -4.2774  -4.2464  -4.2255
    -4.1564  -4.0565  -3.9474  -3.8822  -3.8290  -3.7679  -3.5856  -3.5482
    -3.2884  -3.2244  -3.1339  -3.0902  -2.8864  -2.8554  -2.7640  -2.6399
    -2.6017  -2.4279  -2.3668  -2.2804  -2.2195  -2.0795  -2.0112  -1.9536
    -1.8396  -1.6461  -1.5885  -1.5313  -1.4623  -1.4498  -1.3289  -1.3067
    -1.2589  -1.1746  -1.1657  -1.1052  -1.0331  -0.9587  -0.8956  -0.8303
    -0.7552  -0.6413  -0.5742  -0.5501  -0.4332  -0.3096  -0.2329  -0.2212
     0.0370   0.1604   0.3115   0.3955   3.6363   3.7974   4.0665   4.1365
     4.3657   4.5093   4.5766   5.0254   5.1031   5.2344   5.2468   5.2789
     5.4621   5.5095   5.5621   5.6803   5.7412   5.9698   6.1605   6.3045
     6.4443   6.4813   6.5786   6.8429   6.9842   7.1055   7.1350   7.1935
     7.2726   7.2834

     occupation numbers 
     1.0000   1.0000   1.0000   1.0000   1.0000   1.0000   1.0000   1.0000
     1.0000   1.0000   1.0000   1.0000   1.0000   1.0000   1.0000   1.0000
     1.0000   1.0000   1.0000   1.0000   1.0000   1.0000   1.0000   1.0000
     1.0000   1.0000   1.0000   1.0000   1.0000   1.0000   1.0000   1.0000
     1.0000   1.0000   1.0000   1.0000   1.0000   1.0000   1.0000   1.0000
     1.0000   1.0000   1.0000   1.0000   1.0000   1.0000   1.0000   1.0000
     1.0000   1.0000   1.0000   1.0000   1.0000   1.0000   1.0000   1.0000
     1.0000   1.0000   1.0000   1.0000   1.0000   1.0000   1.0000   1.0000
     1.0000   1.0000   1.0000   1.0000   1.0000   1.0000   1.0000   1.0000
     1.0000   1.0000   1.0000   1.0000   1.0000   1.0000   1.0000   1.0000
     1.0000   1.0000   1.0000   1.0000   1.0000   1.0000   1.0000   1.0000
     1.0000   1.0000   1.0000   1.0000   1.0000   1.0000   1.0000   1.0000
     1.0000   1.0000   1.0000   1.0000   1.0000   1.0000   1.0000   1.0000
     1.0000   1.0000   1.0000   1.0000   1.0000   1.0000   1.0000   1.0000
     1.0000   1.0000   1.0000   1.0000   1.0000   1.0000   1.0000   1.0000
     1.0000   1.0000   1.0000   1.0000   1.0000   1.0000   1.0000   1.0000
     1.0000   1.0000   1.0000   1.0000   0.9717   0.9131   0.5924   0.4648
     0.1387   0.0531   0.0331   0.0013   0.0007   0.0003   0.0002   0.0002
     0.0001   0.0000   0.0000   0.0000   0.0000   0.0000   0.0000   0.0000
     0.0000   0.0000   0.0000   0.0000   0.0000   0.0000   0.0000   0.0000
     0.0000   0.0000

          k = 0.2500 0.0000 0.0000 ( 35470 PWs)   bands (ev):

   -59.2550 -59.2456 -59.0007 -58.9898 -58.8447 -58.8387 -58.8279 -58.7852
   -58.7152 -58.7042 -58.5901 -58.5721 -29.0652 -29.0109 -28.9247 -28.8645
   -28.7924 -28.7907 -28.7595 -28.7184 -28.6817 -28.6637 -28.6518 -28.6385
   -28.6179 -28.6112 -28.5849 -28.5578 -28.5295 -28.5203 -28.4898 -28.4313
   -28.4175 -28.4137 -28.3983 -28.3761 -28.3453 -28.3095 -28.2912 -28.2733
   -28.2515 -28.2289 -28.2036 -28.1744 -28.1424 -28.1138 -28.1025 -28.0865
   -17.5668 -17.2080 -16.7900 -16.6573 -16.3631 -16.3409 -16.2275 -16.1503
   -16.0119 -16.0093 -15.8515 -15.7878 -15.5614 -15.5417 -15.4154 -15.3948
   -15.3175 -15.2614 -15.1699 -15.1102 -14.6225  -5.2076  -5.0820  -4.9491
    -4.8944  -4.7932  -4.6662  -4.5706  -4.5269  -4.3574  -4.3064  -4.1946
    -4.0910  -4.0348  -4.0007  -3.9248  -3.8100  -3.7250  -3.5349  -3.3894
    -3.3430  -3.2518  -3.2078  -3.0398  -3.0252  -2.8391  -2.7725  -2.5756
    -2.5190  -2.3917  -2.3417  -2.2897  -2.2268  -2.1459  -2.0374  -1.9155
    -1.8748  -1.7835  -1.7315  -1.6312  -1.5844  -1.5589  -1.5309  -1.3899
    -1.3578  -1.2680  -1.1528  -1.1056  -0.9729  -0.8732  -0.7996  -0.6570
    -0.6092  -0.5475  -0.4354  -0.4011  -0.3431  -0.1991  -0.1616  -0.0515
    -0.0225   0.0733   0.1186   0.3169   2.9616   3.2727   4.1657   4.3318
     4.6341   4.8627   4.9112   5.1608   5.1778   5.5372   5.5847   5.7183
     5.8606   5.9156   6.0535   6.1245   6.2056   6.3070   6.3639   6.4729
     6.5365   6.6253   6.6460   6.7235   6.7731   6.8821   6.9273   7.0652
     7.1518   7.2516

     occupation numbers 
     1.0000   1.0000   1.0000   1.0000   1.0000   1.0000   1.0000   1.0000
     1.0000   1.0000   1.0000   1.0000   1.0000   1.0000   1.0000   1.0000
     1.0000   1.0000   1.0000   1.0000   1.0000   1.0000   1.0000   1.0000
     1.0000   1.0000   1.0000   1.0000   1.0000   1.0000   1.0000   1.0000
     1.0000   1.0000   1.0000   1.0000   1.0000   1.0000   1.0000   1.0000
     1.0000   1.0000   1.0000   1.0000   1.0000   1.0000   1.0000   1.0000
     1.0000   1.0000   1.0000   1.0000   1.0000   1.0000   1.0000   1.0000
     1.0000   1.0000   1.0000   1.0000   1.0000   1.0000   1.0000   1.0000
     1.0000   1.0000   1.0000   1.0000   1.0000   1.0000   1.0000   1.0000
     1.0000   1.0000   1.0000   1.0000   1.0000   1.0000   1.0000   1.0000
     1.0000   1.0000   1.0000   1.0000   1.0000   1.0000   1.0000   1.0000
     1.0000   1.0000   1.0000   1.0000   1.0000   1.0000   1.0000   1.0000
     1.0000   1.0000   1.0000   1.0000   1.0000   1.0000   1.0000   1.0000
     1.0000   1.0000   1.0000   1.0000   1.0000   1.0000   1.0000   1.0000
     1.0000   1.0000   1.0000   1.0000   1.0000   1.0000   1.0000   1.0000
     1.0000   1.0000   1.0000   1.0000   1.0000   1.0000   1.0000   1.0000
     1.0000   1.0000   1.0000   1.0000   0.9998   0.9980   0.4120   0.1714
     0.0219   0.0042   0.0029   0.0005   0.0004   0.0000   0.0000   0.0000
     0.0000   0.0000   0.0000   0.0000   0.0000   0.0000   0.0000   0.0000
     0.0000   0.0000   0.0000   0.0000   0.0000   0.0000   0.0000   0.0000
     0.0000   0.0000

          k = 0.2500 0.2600 0.0000 ( 35420 PWs)   bands (ev):

   -59.2538 -59.2467 -58.9995 -58.9910 -58.8445 -58.8375 -58.8290 -58.7853
   -58.7140 -58.7053 -58.5896 -58.5728 -29.0795 -29.0176 -28.9337 -28.8765
   -28.8143 -28.7775 -28.7500 -28.7227 -28.7029 -28.6702 -28.6425 -28.6349
   -28.6223 -28.6111 -28.5872 -28.5478 -28.5256 -28.4992 -28.4725 -28.4554
   -28.4441 -28.4209 -28.3890 -28.3693 -28.3339 -28.3236 -28.2951 -28.2703
   -28.2442 -28.2177 -28.1938 -28.1592 -28.1523 -28.1277 -28.1064 -28.0689
   -17.3843 -17.0691 -16.7475 -16.6715 -16.4126 -16.3485 -16.2390 -16.1735
   -16.0271 -16.0024 -15.9094 -15.7436 -15.6279 -15.5398 -15.4662 -15.4187
   -15.3696 -15.2830 -15.1508 -15.0798 -14.6730  -5.1851  -5.0365  -4.8005
    -4.7470  -4.6849  -4.6219  -4.4969  -4.4068  -4.3280  -4.2926  -4.1942
    -4.0862  -3.9981  -3.9469  -3.8491  -3.6362  -3.5255  -3.4074  -3.3428
    -3.3133  -3.2596  -3.1925  -3.1308  -3.0129  -2.9803  -2.8753  -2.7462
    -2.5291  -2.4545  -2.3782  -2.3107  -2.2230  -2.1578  -2.0853  -1.8979
    -1.8117  -1.7776  -1.7326  -1.6203  -1.5713  -1.4941  -1.4307  -1.3956
    -1.3167  -1.2478  -1.1449  -1.0700  -1.0239  -0.9774  -0.9348  -0.7846
    -0.6827  -0.6427  -0.5484  -0.4529  -0.4450  -0.3952  -0.2540  -0.1601
    -0.1133  -0.0054   0.1144   0.3030   3.1577   3.4914   4.0784   4.1326
     4.5990   4.7726   4.8711   5.0445   5.1709   5.2156   5.3696   5.4806
     5.5788   5.7678   5.8399   5.9070   6.0178   6.0903   6.1411   6.3676
     6.4306   6.6105   6.6974   6.7533   6.7722   6.9279   6.9995   7.1288
     7.2102   7.2513

     occupation numbers 
     1.0000   1.0000   1.0000   1.0000   1.0000   1.0000   1.0000   1.0000
     1.0000   1.0000   1.0000   1.0000   1.0000   1.0000   1.0000   1.0000
     1.0000   1.0000   1.0000   1.0000   1.0000   1.0000   1.0000   1.0000
     1.0000   1.0000   1.0000   1.0000   1.0000   1.0000   1.0000   1.0000
     1.0000   1.0000   1.0000   1.0000   1.0000   1.0000   1.0000   1.0000
     1.0000   1.0000   1.0000   1.0000   1.0000   1.0000   1.0000   1.0000
     1.0000   1.0000   1.0000   1.0000   1.0000   1.0000   1.0000   1.0000
     1.0000   1.0000   1.0000   1.0000   1.0000   1.0000   1.0000   1.0000
     1.0000   1.0000   1.0000   1.0000   1.0000   1.0000   1.0000   1.0000
     1.0000   1.0000   1.0000   1.0000   1.0000   1.0000   1.0000   1.0000
     1.0000   1.0000   1.0000   1.0000   1.0000   1.0000   1.0000   1.0000
     1.0000   1.0000   1.0000   1.0000   1.0000   1.0000   1.0000   1.0000
     1.0000   1.0000   1.0000   1.0000   1.0000   1.0000   1.0000   1.0000
     1.0000   1.0000   1.0000   1.0000   1.0000   1.0000   1.0000   1.0000
     1.0000   1.0000   1.0000   1.0000   1.0000   1.0000   1.0000   1.0000
     1.0000   1.0000   1.0000   1.0000   1.0000   1.0000   1.0000   1.0000
     1.0000   1.0000   1.0000   1.0000   0.9991   0.9901   0.5710   0.4719
     0.0282   0.0080   0.0039   0.0011   0.0004   0.0003   0.0001   0.0000
     0.0000   0.0000   0.0000   0.0000   0.0000   0.0000   0.0000   0.0000
     0.0000   0.0000   0.0000   0.0000   0.0000   0.0000   0.0000   0.0000
     0.0000   0.0000

          k = 0.2500-0.5200 0.0000 ( 35366 PWs)   bands (ev):

   -59.2520 -59.2484 -58.9977 -58.9927 -58.8443 -58.8357 -58.8308 -58.7854
   -58.7124 -58.7069 -58.5890 -58.5735 -29.0857 -29.0284 -28.9342 -28.9159
   -28.7910 -28.7871 -28.7527 -28.7427 -28.6925 -28.6757 -28.6554 -28.6491
   -28.6170 -28.6035 -28.5981 -28.5709 -28.5271 -28.5158 -28.4920 -28.4604
   -28.4250 -28.3911 -28.3777 -28.3589 -28.3439 -28.3042 -28.2825 -28.2513
   -28.2425 -28.2176 -28.1900 -28.1519 -28.1358 -28.1162 -28.1045 -28.0925
   -17.1423 -16.8731 -16.7192 -16.6790 -16.4619 -16.3920 -16.3162 -16.2593
   -16.1252 -16.0442 -15.9974 -15.7388 -15.6888 -15.5489 -15.4375 -15.4004
   -15.3124 -15.2702 -15.1745 -15.1227 -14.5939  -5.0551  -5.0223  -4.8164
    -4.6093  -4.5756  -4.4833  -4.3410  -4.3158  -4.2112  -4.1700  -4.0890
    -4.0360  -3.9375  -3.8715  -3.7882  -3.7410  -3.6370  -3.5648  -3.4260
    -3.3471  -3.3084  -3.0076  -2.9635  -2.9005  -2.7957  -2.7313  -2.6629
    -2.6072  -2.4618  -2.4092  -2.3538  -2.2850  -2.2639  -2.2122  -2.0453
    -1.9481  -1.8964  -1.8595  -1.7250  -1.5908  -1.4999  -1.3972  -1.3831
    -1.3344  -1.2401  -1.1926  -1.1295  -1.0322  -0.9879  -0.8866  -0.8466
    -0.7437  -0.7164  -0.6015  -0.5582  -0.4907  -0.4350  -0.2921  -0.2276
    -0.2154  -0.0668   0.1043   0.2842   3.6701   3.7256   4.0442   4.1253
     4.4603   4.4830   4.6649   4.9798   5.0243   5.0974   5.1628   5.3025
     5.3825   5.4569   5.6020   5.6969   5.7718   5.9885   6.1107   6.1797
     6.3739   6.4773   6.6675   6.7115   6.8695   6.9568   7.0332   7.1890
     7.2313   7.2804

     occupation numbers 
     1.0000   1.0000   1.0000   1.0000   1.0000   1.0000   1.0000   1.0000
     1.0000   1.0000   1.0000   1.0000   1.0000   1.0000   1.0000   1.0000
     1.0000   1.0000   1.0000   1.0000   1.0000   1.0000   1.0000   1.0000
     1.0000   1.0000   1.0000   1.0000   1.0000   1.0000   1.0000   1.0000
     1.0000   1.0000   1.0000   1.0000   1.0000   1.0000   1.0000   1.0000
     1.0000   1.0000   1.0000   1.0000   1.0000   1.0000   1.0000   1.0000
     1.0000   1.0000   1.0000   1.0000   1.0000   1.0000   1.0000   1.0000
     1.0000   1.0000   1.0000   1.0000   1.0000   1.0000   1.0000   1.0000
     1.0000   1.0000   1.0000   1.0000   1.0000   1.0000   1.0000   1.0000
     1.0000   1.0000   1.0000   1.0000   1.0000   1.0000   1.0000   1.0000
     1.0000   1.0000   1.0000   1.0000   1.0000   1.0000   1.0000   1.0000
     1.0000   1.0000   1.0000   1.0000   1.0000   1.0000   1.0000   1.0000
     1.0000   1.0000   1.0000   1.0000   1.0000   1.0000   1.0000   1.0000
     1.0000   1.0000   1.0000   1.0000   1.0000   1.0000   1.0000   1.0000
     1.0000   1.0000   1.0000   1.0000   1.0000   1.0000   1.0000   1.0000
     1.0000   1.0000   1.0000   1.0000   1.0000   1.0000   1.0000   1.0000
     1.0000   1.0000   1.0000   1.0000   0.9640   0.9468   0.6313   0.4854
     0.0744   0.0637   0.0176   0.0018   0.0013   0.0007   0.0005   0.0002
     0.0001   0.0001   0.0000   0.0000   0.0000   0.0000   0.0000   0.0000
     0.0000   0.0000   0.0000   0.0000   0.0000   0.0000   0.0000   0.0000
     0.0000   0.0000

          k = 0.2500-0.2600 0.0000 ( 35420 PWs)   bands (ev):

   -59.2538 -59.2467 -58.9995 -58.9910 -58.8445 -58.8375 -58.8290 -58.7852
   -58.7140 -58.7053 -58.5896 -58.5728 -29.0795 -29.0176 -28.9337 -28.8765
   -28.8143 -28.7776 -28.7501 -28.7238 -28.7031 -28.6724 -28.6571 -28.6385
   -28.6315 -28.6170 -28.5876 -28.5654 -28.5374 -28.4988 -28.4778 -28.4602
   -28.4286 -28.4123 -28.3830 -28.3480 -28.3323 -28.3138 -28.2986 -28.2595
   -28.2285 -28.2182 -28.1972 -28.1634 -28.1428 -28.1391 -28.0963 -28.0725
   -17.3849 -17.0813 -16.7710 -16.6723 -16.4251 -16.3573 -16.2532 -16.1961
   -16.0476 -16.0199 -15.9097 -15.7445 -15.6280 -15.5384 -15.4360 -15.4093
   -15.3208 -15.2877 -15.1726 -15.1180 -14.5485  -5.1835  -5.0351  -4.7905
    -4.7466  -4.6956  -4.6292  -4.4803  -4.4024  -4.3423  -4.2864  -4.1899
    -4.1020  -3.9929  -3.9390  -3.8440  -3.6241  -3.5117  -3.3842  -3.3415
    -3.3189  -3.2462  -3.1802  -3.1396  -3.0212  -2.9499  -2.8447  -2.7458
    -2.5562  -2.5131  -2.3936  -2.3234  -2.1808  -2.1326  -2.0594  -1.9683
    -1.8967  -1.7896  -1.7651  -1.6581  -1.5962  -1.5218  -1.4524  -1.4169
    -1.2886  -1.2582  -1.1879  -1.1105  -1.0184  -0.9846  -0.8354  -0.7760
    -0.6555  -0.5952  -0.4945  -0.4495  -0.4263  -0.3955  -0.2927  -0.1570
    -0.1195   0.0070   0.1306   0.2839   3.3610   3.4918   4.0787   4.3253
     4.4696   4.5992   4.8706   5.1651   5.2114   5.2867   5.4734   5.5556
     5.6794   5.8025   5.8651   5.9328   5.9806   6.0315   6.1915   6.2402
     6.3716   6.4744   6.6287   6.7268   6.7715   6.8973   7.0235   7.0756
     7.1525   7.2150

     occupation numbers 
     1.0000   1.0000   1.0000   1.0000   1.0000   1.0000   1.0000   1.0000
     1.0000   1.0000   1.0000   1.0000   1.0000   1.0000   1.0000   1.0000
     1.0000   1.0000   1.0000   1.0000   1.0000   1.0000   1.0000   1.0000
     1.0000   1.0000   1.0000   1.0000   1.0000   1.0000   1.0000   1.0000
     1.0000   1.0000   1.0000   1.0000   1.0000   1.0000   1.0000   1.0000
     1.0000   1.0000   1.0000   1.0000   1.0000   1.0000   1.0000   1.0000
     1.0000   1.0000   1.0000   1.0000   1.0000   1.0000   1.0000   1.0000
     1.0000   1.0000   1.0000   1.0000   1.0000   1.0000   1.0000   1.0000
     1.0000   1.0000   1.0000   1.0000   1.0000   1.0000   1.0000   1.0000
     1.0000   1.0000   1.0000   1.0000   1.0000   1.0000   1.0000   1.0000
     1.0000   1.0000   1.0000   1.0000   1.0000   1.0000   1.0000   1.0000
     1.0000   1.0000   1.0000   1.0000   1.0000   1.0000   1.0000   1.0000
     1.0000   1.0000   1.0000   1.0000   1.0000   1.0000   1.0000   1.0000
     1.0000   1.0000   1.0000   1.0000   1.0000   1.0000   1.0000   1.0000
     1.0000   1.0000   1.0000   1.0000   1.0000   1.0000   1.0000   1.0000
     1.0000   1.0000   1.0000   1.0000   1.0000   1.0000   1.0000   1.0000
     1.0000   1.0000   1.0000   1.0000   0.9962   0.9900   0.5704   0.1782
     0.0698   0.0281   0.0039   0.0005   0.0003   0.0002   0.0000   0.0000
     0.0000   0.0000   0.0000   0.0000   0.0000   0.0000   0.0000   0.0000
     0.0000   0.0000   0.0000   0.0000   0.0000   0.0000   0.0000   0.0000
     0.0000   0.0000

          k =-0.5000 0.0000 0.0000 ( 35502 PWs)   bands (ev):

   -59.2503 -59.2502 -58.9959 -58.9946 -58.8443 -58.8334 -58.8331 -58.7855
   -58.7110 -58.7084 -58.5886 -58.5738 -28.9983 -28.9980 -28.8718 -28.8716
   -28.7837 -28.7834 -28.7162 -28.7160 -28.6852 -28.6851 -28.6504 -28.6503
   -28.5976 -28.5794 -28.5762 -28.5690 -28.5407 -28.5402 -28.4856 -28.4840
   -28.4254 -28.4205 -28.4042 -28.3955 -28.3651 -28.3452 -28.2873 -28.2797
   -28.2724 -28.2279 -28.1918 -28.1875 -28.1601 -28.1273 -28.1233 -28.0941
   -16.9618 -16.9608 -16.6849 -16.6785 -16.4987 -16.4787 -16.2581 -16.2408
   -15.9934 -15.9816 -15.7969 -15.7964 -15.5855 -15.5850 -15.4605 -15.4585
   -15.4056 -15.3549 -15.3080 -15.2498 -14.6824  -4.8434  -4.8424  -4.5920
    -4.5909  -4.4194  -4.4081  -4.2924  -4.2828  -4.1949  -4.1848  -4.0519
    -3.9873  -3.8774  -3.8719  -3.7911  -3.7841  -3.6757  -3.6539  -3.5431
    -3.5287  -3.4222  -3.4115  -3.3144  -3.2991  -3.1827  -3.1389  -2.7464
    -2.6843  -2.5474  -2.4796  -2.3737  -2.3190  -2.1951  -2.1587  -2.0780
    -1.9649  -1.8368  -1.7638  -1.6656  -1.6154  -1.5328  -1.3694  -1.3431
    -1.2852  -1.2486  -1.1404  -1.0816  -1.0398  -0.9296  -0.7824  -0.7167
    -0.7079  -0.6229  -0.5551  -0.4521  -0.4107  -0.4036  -0.3934  -0.2303
    -0.2031  -0.1155  -0.0858   0.2303   3.3797   3.9825   3.9904   3.9914
     4.6288   5.0191   5.0197   5.0894   5.1836   5.1840   5.4219   5.8521
     5.8530   5.9200   5.9244   6.0316   6.1417   6.1852   6.3146   6.3974
     6.4819   6.6057   6.6750   6.7663   6.8199   7.0097   7.0269   7.0738
     7.0876   7.1212

     occupation numbers 
     1.0000   1.0000   1.0000   1.0000   1.0000   1.0000   1.0000   1.0000
     1.0000   1.0000   1.0000   1.0000   1.0000   1.0000   1.0000   1.0000
     1.0000   1.0000   1.0000   1.0000   1.0000   1.0000   1.0000   1.0000
     1.0000   1.0000   1.0000   1.0000   1.0000   1.0000   1.0000   1.0000
     1.0000   1.0000   1.0000   1.0000   1.0000   1.0000   1.0000   1.0000
     1.0000   1.0000   1.0000   1.0000   1.0000   1.0000   1.0000   1.0000
     1.0000   1.0000   1.0000   1.0000   1.0000   1.0000   1.0000   1.0000
     1.0000   1.0000   1.0000   1.0000   1.0000   1.0000   1.0000   1.0000
     1.0000   1.0000   1.0000   1.0000   1.0000   1.0000   1.0000   1.0000
     1.0000   1.0000   1.0000   1.0000   1.0000   1.0000   1.0000   1.0000
     1.0000   1.0000   1.0000   1.0000   1.0000   1.0000   1.0000   1.0000
     1.0000   1.0000   1.0000   1.0000   1.0000   1.0000   1.0000   1.0000
     1.0000   1.0000   1.0000   1.0000   1.0000   1.0000   1.0000   1.0000
     1.0000   1.0000   1.0000   1.0000   1.0000   1.0000   1.0000   1.0000
     1.0000   1.0000   1.0000   1.0000   1.0000   1.0000   1.0000   1.0000
     1.0000   1.0000   1.0000   1.0000   1.0000   1.0000   1.0000   1.0000
     1.0000   1.0000   1.0000   1.0000   0.9956   0.7293   0.7176   0.7162
     0.0228   0.0013   0.0013   0.0008   0.0004   0.0004   0.0001   0.0000
     0.0000   0.0000   0.0000   0.0000   0.0000   0.0000   0.0000   0.0000
     0.0000   0.0000   0.0000   0.0000   0.0000   0.0000   0.0000   0.0000
     0.0000   0.0000

          k =-0.5000 0.2600 0.0000 ( 35450 PWs)   bands (ev):

   -59.2503 -59.2502 -58.9958 -58.9946 -58.8443 -58.8334 -58.8331 -58.7855
   -58.7110 -58.7083 -58.5887 -58.5738 -29.0533 -29.0531 -28.9222 -28.9221
   -28.7938 -28.7936 -28.7433 -28.7430 -28.6784 -28.6769 -28.6509 -28.6484
   -28.6196 -28.6040 -28.5893 -28.5804 -28.5255 -28.5219 -28.4950 -28.4707
   -28.4278 -28.3895 -28.3738 -28.3615 -28.3396 -28.3128 -28.2637 -28.2478
   -28.2429 -28.2225 -28.1954 -28.1548 -28.1379 -28.1147 -28.1063 -28.0932
   -16.9676 -16.9667 -16.7065 -16.7028 -16.5628 -16.5436 -16.3490 -16.3360
   -16.0552 -16.0434 -15.8244 -15.8231 -15.5596 -15.5555 -15.4234 -15.4036
   -15.3070 -15.2737 -15.2046 -15.1551 -14.5983  -4.8941  -4.8910  -4.5821
    -4.5721  -4.3821  -4.3605  -4.2605  -4.2557  -4.1243  -4.1125  -3.9925
    -3.9397  -3.8639  -3.8454  -3.7502  -3.7347  -3.6608  -3.6347  -3.4753
    -3.4493  -3.2522  -3.2350  -3.1500  -3.1288  -2.9238  -2.9046  -2.7153
    -2.6830  -2.5598  -2.5312  -2.3364  -2.2712  -2.2291  -2.1959  -2.0269
    -1.9898  -1.9742  -1.8898  -1.7622  -1.6825  -1.6000  -1.5480  -1.4193
    -1.3648  -1.2805  -1.2335  -1.1751  -1.0703  -1.0232  -0.9010  -0.8718
    -0.7281  -0.6380  -0.5854  -0.5398  -0.4974  -0.4099  -0.3927  -0.2905
    -0.2437  -0.0982  -0.0456   0.1819   3.5421   3.9086   3.9093   4.0938
     4.4447   4.7998   4.8005   4.9963   4.9978   5.2096   5.5049   5.5205
     5.5671   5.7517   5.7917   5.9506   6.0129   6.1167   6.1802   6.2473
     6.2943   6.4454   6.5260   6.5962   6.7263   6.7973   6.9670   7.0301
     7.0842   7.1664

     occupation numbers 
     1.0000   1.0000   1.0000   1.0000   1.0000   1.0000   1.0000   1.0000
     1.0000   1.0000   1.0000   1.0000   1.0000   1.0000   1.0000   1.0000
     1.0000   1.0000   1.0000   1.0000   1.0000   1.0000   1.0000   1.0000
     1.0000   1.0000   1.0000   1.0000   1.0000   1.0000   1.0000   1.0000
     1.0000   1.0000   1.0000   1.0000   1.0000   1.0000   1.0000   1.0000
     1.0000   1.0000   1.0000   1.0000   1.0000   1.0000   1.0000   1.0000
     1.0000   1.0000   1.0000   1.0000   1.0000   1.0000   1.0000   1.0000
     1.0000   1.0000   1.0000   1.0000   1.0000   1.0000   1.0000   1.0000
     1.0000   1.0000   1.0000   1.0000   1.0000   1.0000   1.0000   1.0000
     1.0000   1.0000   1.0000   1.0000   1.0000   1.0000   1.0000   1.0000
     1.0000   1.0000   1.0000   1.0000   1.0000   1.0000   1.0000   1.0000
     1.0000   1.0000   1.0000   1.0000   1.0000   1.0000   1.0000   1.0000
     1.0000   1.0000   1.0000   1.0000   1.0000   1.0000   1.0000   1.0000
     1.0000   1.0000   1.0000   1.0000   1.0000   1.0000   1.0000   1.0000
     1.0000   1.0000   1.0000   1.0000   1.0000   1.0000   1.0000   1.0000
     1.0000   1.0000   1.0000   1.0000   1.0000   1.0000   1.0000   1.0000
     1.0000   1.0000   1.0000   1.0000   0.9856   0.8226   0.8219   0.5431
     0.0827   0.0066   0.0066   0.0016   0.0015   0.0003   0.0000   0.0000
     0.0000   0.0000   0.0000   0.0000   0.0000   0.0000   0.0000   0.0000
     0.0000   0.0000   0.0000   0.0000   0.0000   0.0000   0.0000   0.0000
     0.0000   0.0000

          k =-0.5000-0.5200 0.0000 ( 35320 PWs)   bands (ev):

   -59.2502 -59.2501 -58.9958 -58.9946 -58.8442 -58.8334 -58.8330 -58.7854
   -58.7110 -58.7083 -58.5888 -58.5739 -29.0929 -29.0926 -28.9689 -28.9688
   -28.8266 -28.8262 -28.7436 -28.7424 -28.6935 -28.6922 -28.6673 -28.6545
   -28.6379 -28.6258 -28.5791 -28.5617 -28.5209 -28.4897 -28.4869 -28.4715
   -28.4165 -28.3818 -28.3386 -28.3292 -28.3275 -28.3070 -28.2366 -28.2242
   -28.2072 -28.2046 -28.1950 -28.1549 -28.1214 -28.1096 -28.0784 -28.0734
   -16.9783 -16.9777 -16.7290 -16.7279 -16.6011 -16.5918 -16.4362 -16.4189
   -16.1210 -16.0926 -15.8551 -15.8519 -15.5254 -15.5228 -15.3627 -15.3501
   -15.2070 -15.2019 -15.1427 -15.0846 -14.5248  -4.7643  -4.7612  -4.5265
    -4.5247  -4.3862  -4.3695  -4.2243  -4.2048  -4.1084  -4.0840  -4.0093
    -4.0043  -3.8943  -3.8674  -3.8405  -3.8235  -3.6481  -3.5979  -3.2595
    -3.2095  -3.0883  -3.0454  -3.0349  -2.9239  -2.7886  -2.7863  -2.7551
    -2.7193  -2.5766  -2.5649  -2.4019  -2.3644  -2.1454  -2.0794  -1.9919
    -1.9531  -1.9143  -1.8892  -1.8213  -1.8035  -1.7260  -1.6437  -1.5042
    -1.3119  -1.2933  -1.2377  -1.2037  -1.1380  -1.0751  -0.9749  -0.8626
    -0.7793  -0.7633  -0.7186  -0.6404  -0.5030  -0.4941  -0.4517  -0.3784
    -0.2945  -0.1541  -0.1414   0.1190   3.7875   3.7955   3.7968   3.9903
     4.4813   4.4816   4.6239   5.0733   5.0829   5.1409   5.2322   5.2449
     5.4256   5.4907   5.5105   5.7671   5.8647   5.9651   6.0844   6.0897
     6.2038   6.3260   6.4842   6.5614   6.6729   6.8208   6.8958   7.0688
     7.1245   7.2838

     occupation numbers 
     1.0000   1.0000   1.0000   1.0000   1.0000   1.0000   1.0000   1.0000
     1.0000   1.0000   1.0000   1.0000   1.0000   1.0000   1.0000   1.0000
     1.0000   1.0000   1.0000   1.0000   1.0000   1.0000   1.0000   1.0000
     1.0000   1.0000   1.0000   1.0000   1.0000   1.0000   1.0000   1.0000
     1.0000   1.0000   1.0000   1.0000   1.0000   1.0000   1.0000   1.0000
     1.0000   1.0000   1.0000   1.0000   1.0000   1.0000   1.0000   1.0000
     1.0000   1.0000   1.0000   1.0000   1.0000   1.0000   1.0000   1.0000
     1.0000   1.0000   1.0000   1.0000   1.0000   1.0000   1.0000   1.0000
     1.0000   1.0000   1.0000   1.0000   1.0000   1.0000   1.0000   1.0000
     1.0000   1.0000   1.0000   1.0000   1.0000   1.0000   1.0000   1.0000
     1.0000   1.0000   1.0000   1.0000   1.0000   1.0000   1.0000   1.0000
     1.0000   1.0000   1.0000   1.0000   1.0000   1.0000   1.0000   1.0000
     1.0000   1.0000   1.0000   1.0000   1.0000   1.0000   1.0000   1.0000
     1.0000   1.0000   1.0000   1.0000   1.0000   1.0000   1.0000   1.0000
     1.0000   1.0000   1.0000   1.0000   1.0000   1.0000   1.0000   1.0000
     1.0000   1.0000   1.0000   1.0000   1.0000   1.0000   1.0000   1.0000
     1.0000   1.0000   1.0000   1.0000   0.9187   0.9141   0.9134   0.7178
     0.0645   0.0643   0.0236   0.0009   0.0008   0.0005   0.0003   0.0003
     0.0001   0.0000   0.0000   0.0000   0.0000   0.0000   0.0000   0.0000
     0.0000   0.0000   0.0000   0.0000   0.0000   0.0000   0.0000   0.0000
     0.0000   0.0000

     the Fermi energy is     4.1173 ev

!    total energy              =   -1853.44037463 Ry
     estimated scf accuracy    <          7.3E-10 Ry
     smearing contrib. (-TS)   =      -0.03682900 Ry
     internal energy E=F+TS    =   -1853.40354563 Ry

     The total energy is F=E-TS. E is the sum of the following terms:
     one-electron contribution =  -41393.58288138 Ry
     hartree contribution      =   20724.00898685 Ry
     xc contribution           =    -289.34730964 Ry
     ewald contribution        =   19105.51813049 Ry
     electric field correction =      -0.00047195 Ry

     convergence has been achieved in  11 iterations

     Forces acting on atoms (cartesian axes, Ry/au):

     atom    1 type  1   force =     0.01547948   -0.01587359    0.07319645
     atom    2 type  1   force =     0.00024731   -0.00185418    0.00988645
     atom    3 type  1   force =     0.00534715   -0.00495606    0.00823974
     atom    4 type  1   force =     0.01554130    0.01584130    0.07318941
     atom    5 type  1   force =     0.00060918    0.00170283    0.00986014
     atom    6 type  1   force =    -0.00211564    0.01338869    0.01547678
     atom    7 type  1   force =    -0.00385166    0.00872859    0.01284584
     atom    8 type  1   force =    -0.00028264    0.00103688    0.00873789
     atom    9 type  1   force =     0.02866811    0.05695216   -0.03437845
     atom   10 type  1   force =    -0.00361097   -0.00884082    0.01281294
     atom   11 type  1   force =     0.00012800   -0.00114247    0.01013909
     atom   12 type  1   force =    -0.06046992   -0.03653450   -0.02732946
     atom   13 type  2   force =    -0.01630977    0.02019186   -0.02494316
     atom   14 type  2   force =    -0.00071773    0.00135638   -0.00416290
     atom   15 type  2   force =     0.01096243   -0.01498190    0.00807857
     atom   16 type  2   force =    -0.01620555   -0.02015227   -0.02513953
     atom   17 type  2   force =    -0.00051304   -0.00120654   -0.00418939
     atom   18 type  2   force =     0.01210434    0.01278963   -0.01524922
     atom   19 type  2   force =     0.00399928   -0.00230725   -0.06019126
     atom   20 type  2   force =     0.00059238   -0.00004495   -0.00488513
     atom   21 type  2   force =    -0.00448357   -0.01172444    0.02417584
     atom   22 type  2   force =     0.00082090    0.00309469   -0.00213785
     atom   23 type  2   force =     0.00150100    0.00110730   -0.00464726
     atom   24 type  2   force =     0.00075518   -0.00305382   -0.00187951
     atom   25 type  2   force =     0.00023202   -0.00077051   -0.00434354
     atom   26 type  2   force =     0.00058160   -0.00026788    0.00037913
     atom   27 type  2   force =     0.00400213    0.00228149   -0.06018001
     atom   28 type  2   force =    -0.00069461   -0.00005154   -0.00729952
     atom   29 type  2   force =     0.00057491    0.00002305   -0.00482610
     atom   30 type  2   force =    -0.00078109   -0.00001220   -0.00175676
     atom   31 type  2   force =     0.01064426   -0.01595508    0.03017450
     atom   32 type  2   force =    -0.00069557    0.00022610   -0.00717822
     atom   33 type  2   force =    -0.00205920    0.00100905   -0.00247552
     The non-local contrib.  to forces
     atom    1 type  1   force =    -0.01955411    0.01743435   -0.07741980
     atom    2 type  1   force =    -0.03042547    0.06476817    0.03263565
     atom    3 type  1   force =    -0.03399216    0.06847606    0.04085954
     atom    4 type  1   force =    -0.01941212   -0.01735615   -0.07747500
     atom    5 type  1   force =    -0.03077352   -0.06479653    0.03261279
     atom    6 type  1   force =    -0.03049935   -0.07172832    0.03195890
     atom    7 type  1   force =     0.03184791   -0.07181469    0.01794644
     atom    8 type  1   force =     0.03044799   -0.06395111    0.03340742
     atom    9 type  1   force =     0.01496106   -0.12214327    0.18195520
     atom   10 type  1   force =     0.03194341    0.07181289    0.01796856
     atom   11 type  1   force =     0.03049329    0.06422045    0.03356248
     atom   12 type  1   force =     0.10704074    0.00498478    0.19787340
     atom   13 type  2   force =    -0.08632913    0.07685681    0.03788676
     atom   14 type  2   force =    -0.05376439    0.04733639    0.03190555
     atom   15 type  2   force =    -0.04237801    0.02442858    0.02975127
     atom   16 type  2   force =    -0.08571620   -0.07635750    0.03745373
     atom   17 type  2   force =    -0.05305665   -0.04667498    0.03181524
     atom   18 type  2   force =    -0.03328658   -0.01831154    0.00749558
     atom   19 type  2   force =    -0.04576142   -0.15011549   -0.04244079
     atom   20 type  2   force =    -0.05225659   -0.14667579    0.00585770
     atom   21 type  2   force =    -0.06503562   -0.16908502    0.03734574
     atom   22 type  2   force =     0.05485923    0.04896847    0.03686929
     atom   23 type  2   force =     0.05465803    0.04676779    0.03085711
     atom   24 type  2   force =     0.05499931   -0.04925170    0.03680674
     atom   25 type  2   force =     0.05265574   -0.04644552    0.03039119
     atom   26 type  2   force =     0.15170252   -0.17976440   -0.32297210
     atom   27 type  2   force =    -0.04569734    0.15006909   -0.04243870
     atom   28 type  2   force =     0.05237732    0.14634668    0.00005617
     atom   29 type  2   force =    -0.05242160    0.14651912    0.00599985
     atom   30 type  2   force =     0.05286542    0.14659803    0.01051430
     atom   31 type  2   force =    -0.03295665    0.13049659    0.03275556
     atom   32 type  2   force =     0.05238500   -0.14653045    0.00017463
     atom   33 type  2   force =     0.04980180   -0.14492298    0.00982318
     The ionic contribution  to forces
     atom    1 type  1   force =    -1.52878986    1.02840423 -240.46924490
     atom    2 type  1   force =    -1.80759922   -2.70611466  -48.29090455
     atom    3 type  1   force =    -2.11358794   -2.51553634  146.40900486
     atom    4 type  1   force =    -1.52591236   -1.02735551 -240.46968208
     atom    5 type  1   force =    -1.80318788    2.70465194  -48.28959418
     atom    6 type  1   force =    -1.48405974    2.77121157  147.51474447
     atom    7 type  1   force =     1.80518413    2.50026667 -145.90867579
     atom    8 type  1   force =     1.77580942    2.71352002   49.28646200
     atom    9 type  1   force =    -3.87568845   -1.34204331  236.81122007
     atom   10 type  1   force =     1.81769344   -2.50024304 -145.90643915
     atom   11 type  1   force =     1.83197704   -2.71292508   49.29467922
     atom   12 type  1   force =     6.37242613   -0.63984458  236.96649221
     atom   13 type  2   force =     0.85452831    0.36071834 -108.77828684
     atom   14 type  2   force =     0.86481533    0.79727572  -12.11839671
     atom   15 type  2   force =     0.09075483    0.62095014   85.55482753
     atom   16 type  2   force =     0.85580330   -0.36221570 -108.76213198
     atom   17 type  2   force =     0.86817058   -0.79905660  -12.10173684
     atom   18 type  2   force =     1.57296678   -0.98009544   85.12859704
     atom   19 type  2   force =     0.37643216    2.31165837  -98.26726588
     atom   20 type  2   force =     0.36457309    2.42155362   -0.02725307
     atom   21 type  2   force =     0.77737299    2.57988055   97.59769686
     atom   22 type  2   force =    -0.86356481    0.78164442  -60.85482821
     atom   23 type  2   force =    -0.86156848    0.79194539   36.71970572
     atom   24 type  2   force =    -0.86708574   -0.77986944  -60.85809684
     atom   25 type  2   force =    -0.87012374   -0.80408564   36.64674711
     atom   26 type  2   force =    -1.97029078    1.51898882  123.43104330
     atom   27 type  2   force =     0.37578420   -2.31348484  -98.26890357
     atom   28 type  2   force =    -0.36310945   -2.41323387  -48.84311722
     atom   29 type  2   force =     0.36112170   -2.42141993   -0.02484726
     atom   30 type  2   force =    -0.39527655   -2.39935234   48.80203867
     atom   31 type  2   force =     0.05534441   -2.03650453   98.17498884
     atom   32 type  2   force =    -0.36232041    2.41551856  -48.84312003
     atom   33 type  2   force =    -0.32859245    2.43519248   48.74427721
     The local contribution  to forces
     atom    1 type  1   force =     1.56382165   -1.06171435  240.61994519
     atom    2 type  1   force =     1.83827192    2.63949063   48.26823109
     atom    3 type  1   force =     2.15292911    2.44210233 -146.44156105
     atom    4 type  1   force =     1.56086398    1.06055113  240.62043051
     atom    5 type  1   force =     1.83457039   -2.63815490   48.26691723
     atom    6 type  1   force =     1.51244173   -2.68609712 -147.53116626
     atom    7 type  1   force =    -1.84088363   -2.41972551  145.90368885
     atom    8 type  1   force =    -1.80653985   -2.64853390  -49.31107808
     atom    9 type  1   force =     3.88939564    1.52113723 -237.02750404
     atom   10 type  1   force =    -1.85324776    2.41958745  145.90139718
     atom   11 type  1   force =    -1.86234294    2.64755999  -49.31804898
     atom   12 type  1   force =    -6.53994387    0.59832536 -237.19164308
     atom   13 type  2   force =    -0.78450957   -0.41738481  108.71551309
     atom   14 type  2   force =    -0.81176893   -0.84325751   12.08236484
     atom   15 type  2   force =    -0.03741287   -0.66036052  -85.57646765
     atom   16 type  2   force =    -0.78629325    0.41841843  108.69959490
     atom   17 type  2   force =    -0.81562730    0.84452281   12.06576887
     atom   18 type  2   force =    -1.52757898    1.01119580  -85.15130776
     atom   19 type  2   force =    -0.32667162   -2.16385226   98.24957832
     atom   20 type  2   force =    -0.31172412   -2.27492497    0.01654217
     atom   21 type  2   force =    -0.71682104   -2.42252491  -97.61083456
     atom   22 type  2   force =     0.80952618   -0.82752055   60.81588453
     atom   23 type  2   force =     0.80841107   -0.83760778  -36.75518160
     atom   24 type  2   force =     0.81284133    0.82606566   60.81947408
     atom   25 type  2   force =     0.81770011    0.84975876  -36.68145306
     atom   26 type  2   force =     1.81915890   -1.33947774 -123.10768296
     atom   27 type  2   force =    -0.32608488    2.16569537   98.25122515
     atom   28 type  2   force =     0.31003764    2.26683376   48.83581893
     atom   29 type  2   force =    -0.30812523    2.27492199    0.01405302
     atom   30 type  2   force =     0.34163005    2.25273993  -48.81427996
     atom   31 type  2   force =    -0.01174247    1.89004921  -98.17753902
     atom   32 type  2   force =     0.30923994   -2.26876411   48.83582462
     atom   33 type  2   force =     0.27673131   -2.28926254  -48.75654550
     The core correction contribution to forces
     atom    1 type  1   force =     0.00000000    0.00000000    0.00000000
     atom    2 type  1   force =     0.00000000    0.00000000    0.00000000
     atom    3 type  1   force =     0.00000000    0.00000000    0.00000000
     atom    4 type  1   force =     0.00000000    0.00000000    0.00000000
     atom    5 type  1   force =     0.00000000    0.00000000    0.00000000
     atom    6 type  1   force =     0.00000000    0.00000000    0.00000000
     atom    7 type  1   force =     0.00000000    0.00000000    0.00000000
     atom    8 type  1   force =     0.00000000    0.00000000    0.00000000
     atom    9 type  1   force =     0.00000000    0.00000000    0.00000000
     atom   10 type  1   force =     0.00000000    0.00000000    0.00000000
     atom   11 type  1   force =     0.00000000    0.00000000    0.00000000
     atom   12 type  1   force =     0.00000000    0.00000000    0.00000000
     atom   13 type  2   force =     0.00000000    0.00000000    0.00000000
     atom   14 type  2   force =     0.00000000    0.00000000    0.00000000
     atom   15 type  2   force =     0.00000000    0.00000000    0.00000000
     atom   16 type  2   force =     0.00000000    0.00000000    0.00000000
     atom   17 type  2   force =     0.00000000    0.00000000    0.00000000
     atom   18 type  2   force =     0.00000000    0.00000000    0.00000000
     atom   19 type  2   force =     0.00000000    0.00000000    0.00000000
     atom   20 type  2   force =     0.00000000    0.00000000    0.00000000
     atom   21 type  2   force =     0.00000000    0.00000000    0.00000000
     atom   22 type  2   force =     0.00000000    0.00000000    0.00000000
     atom   23 type  2   force =     0.00000000    0.00000000    0.00000000
     atom   24 type  2   force =     0.00000000    0.00000000    0.00000000
     atom   25 type  2   force =     0.00000000    0.00000000    0.00000000
     atom   26 type  2   force =     0.00000000    0.00000000    0.00000000
     atom   27 type  2   force =     0.00000000    0.00000000    0.00000000
     atom   28 type  2   force =     0.00000000    0.00000000    0.00000000
     atom   29 type  2   force =     0.00000000    0.00000000    0.00000000
     atom   30 type  2   force =     0.00000000    0.00000000    0.00000000
     atom   31 type  2   force =     0.00000000    0.00000000    0.00000000
     atom   32 type  2   force =     0.00000000    0.00000000    0.00000000
     atom   33 type  2   force =     0.00000000    0.00000000    0.00000000
     The Hubbard contrib.    to forces
     atom    1 type  1   force =     0.00000000    0.00000000    0.00000000
     atom    2 type  1   force =     0.00000000    0.00000000    0.00000000
     atom    3 type  1   force =     0.00000000    0.00000000    0.00000000
     atom    4 type  1   force =     0.00000000    0.00000000    0.00000000
     atom    5 type  1   force =     0.00000000    0.00000000    0.00000000
     atom    6 type  1   force =     0.00000000    0.00000000    0.00000000
     atom    7 type  1   force =     0.00000000    0.00000000    0.00000000
     atom    8 type  1   force =     0.00000000    0.00000000    0.00000000
     atom    9 type  1   force =     0.00000000    0.00000000    0.00000000
     atom   10 type  1   force =     0.00000000    0.00000000    0.00000000
     atom   11 type  1   force =     0.00000000    0.00000000    0.00000000
     atom   12 type  1   force =     0.00000000    0.00000000    0.00000000
     atom   13 type  2   force =     0.00000000    0.00000000    0.00000000
     atom   14 type  2   force =     0.00000000    0.00000000    0.00000000
     atom   15 type  2   force =     0.00000000    0.00000000    0.00000000
     atom   16 type  2   force =     0.00000000    0.00000000    0.00000000
     atom   17 type  2   force =     0.00000000    0.00000000    0.00000000
     atom   18 type  2   force =     0.00000000    0.00000000    0.00000000
     atom   19 type  2   force =     0.00000000    0.00000000    0.00000000
     atom   20 type  2   force =     0.00000000    0.00000000    0.00000000
     atom   21 type  2   force =     0.00000000    0.00000000    0.00000000
     atom   22 type  2   force =     0.00000000    0.00000000    0.00000000
     atom   23 type  2   force =     0.00000000    0.00000000    0.00000000
     atom   24 type  2   force =     0.00000000    0.00000000    0.00000000
     atom   25 type  2   force =     0.00000000    0.00000000    0.00000000
     atom   26 type  2   force =     0.00000000    0.00000000    0.00000000
     atom   27 type  2   force =     0.00000000    0.00000000    0.00000000
     atom   28 type  2   force =     0.00000000    0.00000000    0.00000000
     atom   29 type  2   force =     0.00000000    0.00000000    0.00000000
     atom   30 type  2   force =     0.00000000    0.00000000    0.00000000
     atom   31 type  2   force =     0.00000000    0.00000000    0.00000000
     atom   32 type  2   force =     0.00000000    0.00000000    0.00000000
     atom   33 type  2   force =     0.00000000    0.00000000    0.00000000
     The SCF correction term to forces
     atom    1 type  1   force =     0.00000000    0.00000000    0.00000000
     atom    2 type  1   force =     0.00000000    0.00000000    0.00000000
     atom    3 type  1   force =     0.00000000    0.00000000    0.00000000
     atom    4 type  1   force =     0.00000000    0.00000000    0.00000000
     atom    5 type  1   force =     0.00000000    0.00000000    0.00000000
     atom    6 type  1   force =     0.00000000    0.00000000    0.00000000
     atom    7 type  1   force =     0.00000000    0.00000000    0.00000000
     atom    8 type  1   force =     0.00000000    0.00000000    0.00000000
     atom    9 type  1   force =     0.00000000    0.00000000    0.00000000
     atom   10 type  1   force =     0.00000000    0.00000000    0.00000000
     atom   11 type  1   force =     0.00000000    0.00000000    0.00000000
     atom   12 type  1   force =     0.00000000    0.00000000    0.00000000
     atom   13 type  2   force =     0.00000000    0.00000000    0.00000000
     atom   14 type  2   force =     0.00000000    0.00000000    0.00000000
     atom   15 type  2   force =     0.00000000    0.00000000    0.00000000
     atom   16 type  2   force =     0.00000000    0.00000000    0.00000000
     atom   17 type  2   force =     0.00000000    0.00000000    0.00000000
     atom   18 type  2   force =     0.00000000    0.00000000    0.00000000
     atom   19 type  2   force =     0.00000000    0.00000000    0.00000000
     atom   20 type  2   force =     0.00000000    0.00000000    0.00000000
     atom   21 type  2   force =     0.00000000    0.00000000    0.00000000
     atom   22 type  2   force =     0.00000000    0.00000000    0.00000000
     atom   23 type  2   force =     0.00000000    0.00000000    0.00000000
     atom   24 type  2   force =     0.00000000    0.00000000    0.00000000
     atom   25 type  2   force =     0.00000000    0.00000000    0.00000000
     atom   26 type  2   force =     0.00001087   -0.00001656    0.00001877
     atom   27 type  2   force =     0.00000000    0.00000000    0.00000000
     atom   28 type  2   force =     0.00000000    0.00000000    0.00000000
     atom   29 type  2   force =     0.00000000    0.00000000    0.00000000
     atom   30 type  2   force =     0.00000000    0.00000000    0.00000000
     atom   31 type  2   force =     0.00000000    0.00000000    0.00000000
     atom   32 type  2   force =     0.00000000    0.00000000    0.00000000
     atom   33 type  2   force =     0.00000000    0.00000000    0.00000000

     Total force =     0.000744     Total SCF correction =     0.000027
     Energy error            =      6.0E-07
     Gradient error          =      5.8E-04

     number of scf cycles    =   9
     number of bfgs steps    =   8

     energy   old            =   -1853.4403740269 Ry
     energy   new            =   -1853.4403746282 Ry

     CASE: energy  _new < energy  _old


     WARNING: bfgs curvature condition failed, Theta= 0.859
     new trust radius        =       0.0009147976 bohr
     new conv_thr            =       0.0000000010 Ry


ATOMIC_POSITIONS (angstrom)
Hf            4.0076390000        3.7813620000        6.1529890000    0   0   0
Hf            4.0076390000        3.7813620000       11.0753320000    0   0   0
Hf            4.0076390000        3.7813620000       15.9976750000    0   0   0
Hf            1.4522770000        1.1321830000        6.1529770000    0   0   0
Hf            1.4522770000        1.1321830000       11.0753200000    0   0   0
Hf            1.4522770000        1.1321830000       15.9976630000    0   0   0
Hf            3.6579980000        1.1322110000        8.6140330000    0   0   0
Hf            3.6579980000        1.1322110000       13.5363760000    0   0   0
Hf            3.6579980000        1.1322110000       18.4587190000    0   0   0
Hf            1.1027520000        3.7813090000        8.6141070000    0   0   0
Hf            1.1027520000        3.7813090000       13.5364490000    0   0   0
Hf            1.1027520000        3.7813090000       18.4587920000    0   0   0
O             3.1707970000        2.0862730000        6.8074440000    0   0   0
O             3.1707970000        2.0862730000       11.7297860000    0   0   0
O             3.1707970000        2.0862730000       16.6521290000    0   0   0
O             0.6152330000        2.8266930000        6.8083890000    0   0   0
O             0.6152330000        2.8266930000       11.7307320000    0   0   0
O             0.6152330000        2.8266930000       16.6530750000    0   0   0
O             5.0530890000        0.2074550000        7.3799440000    0   0   0
O             5.0530890000        0.2074550000       12.3022870000    0   0   0
O             5.0530890000        0.2074550000       17.2246300000    0   0   0
O             1.9399660000        2.0865810000        9.2696970000    0   0   0
O             1.9399660000        2.0865810000       14.1920390000    0   0   0
O             4.4952530000        2.8267400000        9.2692970000    0   0   0
O             4.4952530000        2.8267400000       14.1916400000    0   0   0
O             4.5643812695        2.7957918524       18.9931750309
O             2.4978700000       -0.2075440000        7.3798460000    0   0   0
O             2.6124080000       -0.2081150000        9.8410840000    0   0   0
O             2.4978700000       -0.2075440000       12.3021890000    0   0   0
O             2.6124080000       -0.2081150000       14.7634270000    0   0   0
O             2.4978700000       -0.2075440000       17.2245320000    0   0   0
O             5.1675430000        0.2075860000        9.8410300000    0   0   0
O             5.1675430000        0.2075860000       14.7633720000    0   0   0



     Writing output data file ./hfo2.save/
     NEW-OLD atomic charge density approx. for the potential

     negative rho (up, down):  1.334E-06 0.000E+00
 
     Adding external electric field

     Computed dipole along edir(3) : 
        Elec. dipole         -2.7569 Ry au,         -7.0075 Debye
        Ion. dipole          -2.7559 Ry au,         -7.0049 Debye
        Dipole                0.4730 Ry au,          1.2022 Debye
        Dipole field          0.0010 Ry au, 
 
        E field amplitude [Ha a.u.]:  1.0000E-03
        Potential amp.       -0.0003 Ry
        Total length         62.8334 bohr
 

     total cpu time spent up to now is      676.4 secs

     Self-consistent Calculation

     iteration #  1     ecut=    50.00 Ry     beta= 0.30
     Davidson diagonalization with overlap
     ethr =  1.00E-06,  avg # of iterations =  2.0

     Threshold (ethr) on eigenvalues was too large:
     Diagonalizing with lowered threshold

     Davidson diagonalization with overlap
     ethr =  2.84E-09,  avg # of iterations =  1.0

     negative rho (up, down):  6.198E-07 0.000E+00
 
     Adding external electric field

     Computed dipole along edir(3) : 
        Elec. dipole         -2.7569 Ry au,         -7.0075 Debye
        Ion. dipole          -2.7559 Ry au,         -7.0049 Debye
        Dipole                0.4730 Ry au,          1.2023 Debye
        Dipole field          0.0010 Ry au, 
 
        E field amplitude [Ha a.u.]:  1.0000E-03
        Potential amp.       -0.0003 Ry
        Total length         62.8334 bohr
 

     total cpu time spent up to now is      698.3 secs

     total energy              =   -1853.44037527 Ry
     estimated scf accuracy    <       0.00000772 Ry

     iteration #  2     ecut=    50.00 Ry     beta= 0.30
     Davidson diagonalization with overlap
     ethr =  2.86E-09,  avg # of iterations =  1.0

     negative rho (up, down):  2.478E-07 0.000E+00
 
     Adding external electric field

     Computed dipole along edir(3) : 
        Elec. dipole         -2.7569 Ry au,         -7.0075 Debye
        Ion. dipole          -2.7559 Ry au,         -7.0049 Debye
        Dipole                0.4731 Ry au,          1.2024 Debye
        Dipole field          0.0010 Ry au, 
 
        E field amplitude [Ha a.u.]:  1.0000E-03
        Potential amp.       -0.0003 Ry
        Total length         62.8334 bohr
 

     total cpu time spent up to now is      704.3 secs

     total energy              =   -1853.44037527 Ry
     estimated scf accuracy    <       0.00000084 Ry

     iteration #  3     ecut=    50.00 Ry     beta= 0.30
     Davidson diagonalization with overlap
     ethr =  3.13E-10,  avg # of iterations =  1.0

     negative rho (up, down):  1.202E-07 0.000E+00
 
     Adding external electric field

     Computed dipole along edir(3) : 
        Elec. dipole         -2.7569 Ry au,         -7.0075 Debye
        Ion. dipole          -2.7559 Ry au,         -7.0049 Debye
        Dipole                0.4731 Ry au,          1.2026 Debye
        Dipole field          0.0010 Ry au, 
 
        E field amplitude [Ha a.u.]:  1.0000E-03
        Potential amp.       -0.0003 Ry
        Total length         62.8334 bohr
 

     total cpu time spent up to now is      708.1 secs

     total energy              =   -1853.44037526 Ry
     estimated scf accuracy    <       0.00000005 Ry

     iteration #  4     ecut=    50.00 Ry     beta= 0.30
     Davidson diagonalization with overlap
     ethr =  1.75E-11,  avg # of iterations =  4.2

     negative rho (up, down):  2.617E-08 0.000E+00
 
     Adding external electric field

     Computed dipole along edir(3) : 
        Elec. dipole         -2.7569 Ry au,         -7.0075 Debye
        Ion. dipole          -2.7559 Ry au,         -7.0049 Debye
        Dipole                0.4732 Ry au,          1.2027 Debye
        Dipole field          0.0010 Ry au, 
 
        E field amplitude [Ha a.u.]:  1.0000E-03
        Potential amp.       -0.0003 Ry
        Total length         62.8334 bohr
 

     total cpu time spent up to now is      712.0 secs

     total energy              =   -1853.44037527 Ry
     estimated scf accuracy    <          8.4E-09 Ry

     iteration #  5     ecut=    50.00 Ry     beta= 0.30
     Davidson diagonalization with overlap
     ethr =  3.11E-12,  avg # of iterations =  2.1
 
     Adding external electric field

     Computed dipole along edir(3) : 
        Elec. dipole         -2.7569 Ry au,         -7.0075 Debye
        Ion. dipole          -2.7559 Ry au,         -7.0049 Debye
        Dipole                0.4732 Ry au,          1.2027 Debye
        Dipole field          0.0010 Ry au, 
 
        E field amplitude [Ha a.u.]:  1.0000E-03
        Potential amp.       -0.0003 Ry
        Total length         62.8334 bohr
 

     total cpu time spent up to now is      715.8 secs

     total energy              =   -1853.44037527 Ry
     estimated scf accuracy    <          6.4E-09 Ry

     iteration #  6     ecut=    50.00 Ry     beta= 0.30
     Davidson diagonalization with overlap
     ethr =  2.38E-12,  avg # of iterations =  2.4
 
     Adding external electric field

     Computed dipole along edir(3) : 
        Elec. dipole         -2.7569 Ry au,         -7.0075 Debye
        Ion. dipole          -2.7559 Ry au,         -7.0049 Debye
        Dipole                0.4732 Ry au,          1.2027 Debye
        Dipole field          0.0010 Ry au, 
 
        E field amplitude [Ha a.u.]:  1.0000E-03
        Potential amp.       -0.0003 Ry
        Total length         62.8334 bohr
 

     total cpu time spent up to now is      719.7 secs

     total energy              =   -1853.44037527 Ry
     estimated scf accuracy    <          3.1E-09 Ry

     iteration #  7     ecut=    50.00 Ry     beta= 0.30
     Davidson diagonalization with overlap
     ethr =  1.14E-12,  avg # of iterations =  4.2
 
     Adding external electric field

     Computed dipole along edir(3) : 
        Elec. dipole         -2.7569 Ry au,         -7.0075 Debye
        Ion. dipole          -2.7559 Ry au,         -7.0049 Debye
        Dipole                0.4732 Ry au,          1.2027 Debye
        Dipole field          0.0010 Ry au, 
 
        E field amplitude [Ha a.u.]:  1.0000E-03
        Potential amp.       -0.0003 Ry
        Total length         62.8334 bohr
 

     total cpu time spent up to now is      723.7 secs

     total energy              =   -1853.44037527 Ry
     estimated scf accuracy    <          2.3E-09 Ry

     iteration #  8     ecut=    50.00 Ry     beta= 0.30
     Davidson diagonalization with overlap
     ethr =  8.69E-13,  avg # of iterations =  1.2
 
     Adding external electric field

     Computed dipole along edir(3) : 
        Elec. dipole         -2.7569 Ry au,         -7.0075 Debye
        Ion. dipole          -2.7559 Ry au,         -7.0049 Debye
        Dipole                0.4732 Ry au,          1.2026 Debye
        Dipole field          0.0010 Ry au, 
 
        E field amplitude [Ha a.u.]:  1.0000E-03
        Potential amp.       -0.0003 Ry
        Total length         62.8334 bohr
 

     total cpu time spent up to now is      727.1 secs

     total energy              =   -1853.44037527 Ry
     estimated scf accuracy    <          2.2E-09 Ry

     iteration #  9     ecut=    50.00 Ry     beta= 0.30
     Davidson diagonalization with overlap
     ethr =  8.22E-13,  avg # of iterations =  2.0
 
     Adding external electric field

     Computed dipole along edir(3) : 
        Elec. dipole         -2.7569 Ry au,         -7.0075 Debye
        Ion. dipole          -2.7559 Ry au,         -7.0049 Debye
        Dipole                0.4733 Ry au,          1.2031 Debye
        Dipole field          0.0010 Ry au, 
 
        E field amplitude [Ha a.u.]:  1.0000E-03
        Potential amp.       -0.0004 Ry
        Total length         62.8334 bohr
 

     total cpu time spent up to now is      729.1 secs

     End of self-consistent calculation

          k = 0.0000 0.0000 0.0000 ( 35385 PWs)   bands (ev):

   -59.2571 -59.2437 -59.0030 -58.9876 -58.8449 -58.8410 -58.8256 -58.7848
   -58.7174 -58.7020 -58.5915 -58.5709 -29.1025 -29.0429 -28.9554 -28.8763
   -28.8303 -28.7724 -28.7662 -28.7381 -28.7002 -28.6671 -28.6497 -28.6399
   -28.6239 -28.6080 -28.5800 -28.5339 -28.5262 -28.5161 -28.4740 -28.4334
   -28.4239 -28.3762 -28.3744 -28.3627 -28.3240 -28.3160 -28.2953 -28.2708
   -28.2411 -28.1977 -28.1942 -28.1630 -28.1423 -28.1156 -28.0828 -28.0609
   -17.8379 -17.4319 -16.9252 -16.6567 -16.3957 -16.3586 -16.2167 -16.1329
   -16.0478 -16.0237 -15.9017 -15.7302 -15.5485 -15.3996 -15.3873 -15.2587
   -15.2529 -15.1318 -15.0804 -15.0112 -14.5646  -5.4540  -5.4318  -5.2614
    -5.2161  -5.0676  -4.9763  -4.6680  -4.6144  -4.4367  -4.4010  -4.2747
    -4.2291  -4.1252  -3.9054  -3.8080  -3.6417  -3.6064  -3.4437  -3.3956
    -3.3432  -3.1376  -3.0766  -2.8477  -2.8047  -2.7779  -2.6671  -2.5930
    -2.4889  -2.4350  -2.2945  -2.2260  -2.1294  -1.9877  -1.9850  -1.9576
    -1.8558  -1.7551  -1.7260  -1.7037  -1.6765  -1.6160  -1.5984  -1.2700
    -1.2414  -1.1844  -1.0667  -0.8921  -0.8674  -0.8198  -0.7127  -0.6526
    -0.5807  -0.5787  -0.3717  -0.2290  -0.1941  -0.1091   0.0712   0.1084
     0.2446   0.2584   0.3740   0.5019   2.6951   2.9330   4.1636   4.3661
     4.4263   4.8146   5.0392   5.0726   5.3480   5.4967   5.5671   5.8331
     5.9506   6.0171   6.0536   6.1993   6.2498   6.2886   6.4115   6.4582
     6.4676   6.6211   6.6508   6.7099   6.8583   6.8992   7.0035   7.0303
     7.0411   7.2105

     occupation numbers 
     1.0000   1.0000   1.0000   1.0000   1.0000   1.0000   1.0000   1.0000
     1.0000   1.0000   1.0000   1.0000   1.0000   1.0000   1.0000   1.0000
     1.0000   1.0000   1.0000   1.0000   1.0000   1.0000   1.0000   1.0000
     1.0000   1.0000   1.0000   1.0000   1.0000   1.0000   1.0000   1.0000
     1.0000   1.0000   1.0000   1.0000   1.0000   1.0000   1.0000   1.0000
     1.0000   1.0000   1.0000   1.0000   1.0000   1.0000   1.0000   1.0000
     1.0000   1.0000   1.0000   1.0000   1.0000   1.0000   1.0000   1.0000
     1.0000   1.0000   1.0000   1.0000   1.0000   1.0000   1.0000   1.0000
     1.0000   1.0000   1.0000   1.0000   1.0000   1.0000   1.0000   1.0000
     1.0000   1.0000   1.0000   1.0000   1.0000   1.0000   1.0000   1.0000
     1.0000   1.0000   1.0000   1.0000   1.0000   1.0000   1.0000   1.0000
     1.0000   1.0000   1.0000   1.0000   1.0000   1.0000   1.0000   1.0000
     1.0000   1.0000   1.0000   1.0000   1.0000   1.0000   1.0000   1.0000
     1.0000   1.0000   1.0000   1.0000   1.0000   1.0000   1.0000   1.0000
     1.0000   1.0000   1.0000   1.0000   1.0000   1.0000   1.0000   1.0000
     1.0000   1.0000   1.0000   1.0000   1.0000   1.0000   1.0000   1.0000
     1.0000   1.0000   1.0000   1.0000   1.0000   0.9998   0.4156   0.1383
     0.0935   0.0059   0.0011   0.0009   0.0001   0.0000   0.0000   0.0000
     0.0000   0.0000   0.0000   0.0000   0.0000   0.0000   0.0000   0.0000
     0.0000   0.0000   0.0000   0.0000   0.0000   0.0000   0.0000   0.0000
     0.0000   0.0000

          k = 0.0000 0.2600 0.0000 ( 35369 PWs)   bands (ev):

   -59.2554 -59.2453 -59.0013 -58.9893 -58.8446 -58.8392 -58.8273 -58.7851
   -58.7158 -58.7037 -58.5905 -58.5720 -29.0861 -28.9915 -28.9302 -28.8723
   -28.8052 -28.7785 -28.7505 -28.7205 -28.6946 -28.6722 -28.6543 -28.6435
   -28.6365 -28.5896 -28.5759 -28.5452 -28.5235 -28.5187 -28.4937 -28.4447
   -28.4217 -28.4080 -28.3937 -28.3774 -28.3570 -28.3058 -28.2753 -28.2665
   -28.2621 -28.2313 -28.2016 -28.1760 -28.1427 -28.1156 -28.0989 -28.0851
   -17.5761 -17.2204 -16.8094 -16.5958 -16.3700 -16.2884 -16.1456 -16.0854
   -16.0299 -15.9888 -15.9561 -15.7549 -15.6119 -15.5584 -15.4519 -15.4014
   -15.3585 -15.2373 -15.1445 -15.0929 -14.6191  -5.4013  -5.2650  -5.0844
    -4.9661  -4.9274  -4.7069  -4.6010  -4.5501  -4.5130  -4.3657  -4.3024
    -4.1849  -3.9446  -3.8839  -3.7040  -3.6551  -3.5708  -3.4826  -3.3929
    -3.3257  -3.2629  -3.2382  -3.0317  -2.9311  -2.8195  -2.7048  -2.6467
    -2.5383  -2.4323  -2.3441  -2.2930  -2.2129  -2.1606  -2.0547  -2.0293
    -1.9134  -1.8283  -1.6722  -1.5509  -1.4868  -1.4355  -1.3411  -1.2130
    -1.2080  -1.1119  -0.9754  -0.9245  -0.8665  -0.8171  -0.7671  -0.7304
    -0.6671  -0.5785  -0.5255  -0.4025  -0.3160  -0.2491  -0.2184  -0.1910
     0.0799   0.2157   0.3155   0.4453   3.0581   3.2967   4.2354   4.2525
     4.3771   4.8348   4.9120   5.1455   5.2212   5.2525   5.3470   5.4430
     5.6751   5.7186   5.8486   5.8783   5.9794   6.1249   6.1587   6.3615
     6.5486   6.6245   6.6926   6.7425   6.9367   6.9934   7.0730   7.1639
     7.2415   7.3376

     occupation numbers 
     1.0000   1.0000   1.0000   1.0000   1.0000   1.0000   1.0000   1.0000
     1.0000   1.0000   1.0000   1.0000   1.0000   1.0000   1.0000   1.0000
     1.0000   1.0000   1.0000   1.0000   1.0000   1.0000   1.0000   1.0000
     1.0000   1.0000   1.0000   1.0000   1.0000   1.0000   1.0000   1.0000
     1.0000   1.0000   1.0000   1.0000   1.0000   1.0000   1.0000   1.0000
     1.0000   1.0000   1.0000   1.0000   1.0000   1.0000   1.0000   1.0000
     1.0000   1.0000   1.0000   1.0000   1.0000   1.0000   1.0000   1.0000
     1.0000   1.0000   1.0000   1.0000   1.0000   1.0000   1.0000   1.0000
     1.0000   1.0000   1.0000   1.0000   1.0000   1.0000   1.0000   1.0000
     1.0000   1.0000   1.0000   1.0000   1.0000   1.0000   1.0000   1.0000
     1.0000   1.0000   1.0000   1.0000   1.0000   1.0000   1.0000   1.0000
     1.0000   1.0000   1.0000   1.0000   1.0000   1.0000   1.0000   1.0000
     1.0000   1.0000   1.0000   1.0000   1.0000   1.0000   1.0000   1.0000
     1.0000   1.0000   1.0000   1.0000   1.0000   1.0000   1.0000   1.0000
     1.0000   1.0000   1.0000   1.0000   1.0000   1.0000   1.0000   1.0000
     1.0000   1.0000   1.0000   1.0000   1.0000   1.0000   1.0000   1.0000
     1.0000   1.0000   1.0000   1.0000   0.9996   0.9976   0.2956   0.2702
     0.1290   0.0051   0.0029   0.0005   0.0003   0.0002   0.0001   0.0001
     0.0000   0.0000   0.0000   0.0000   0.0000   0.0000   0.0000   0.0000
     0.0000   0.0000   0.0000   0.0000   0.0000   0.0000   0.0000   0.0000
     0.0000   0.0000

          k = 0.0000-0.5200 0.0000 ( 35392 PWs)   bands (ev):

   -59.2528 -59.2478 -58.9988 -58.9917 -58.8443 -58.8367 -58.8298 -58.7853
   -58.7134 -58.7061 -58.5895 -58.5733 -29.0673 -28.9219 -28.8857 -28.8808
   -28.7850 -28.7798 -28.7573 -28.7197 -28.6957 -28.6768 -28.6478 -28.6323
   -28.6236 -28.5967 -28.5762 -28.5541 -28.5235 -28.5134 -28.4912 -28.4598
   -28.4551 -28.4215 -28.4150 -28.3737 -28.3637 -28.3418 -28.3072 -28.2903
   -28.2662 -28.2310 -28.1881 -28.1673 -28.1498 -28.1413 -28.1202 -28.0933
   -17.2001 -16.9088 -16.6562 -16.5324 -16.3383 -16.2143 -16.1818 -16.0675
   -16.0430 -16.0053 -15.9564 -15.9380 -15.7913 -15.6305 -15.6274 -15.4332
   -15.4248 -15.3021 -15.1982 -15.1734 -14.6713  -5.2002  -5.1287  -4.9909
    -4.7960  -4.6343  -4.5524  -4.4669  -4.4530  -4.2775  -4.2464  -4.2256
    -4.1564  -4.0566  -3.9475  -3.8823  -3.8291  -3.7679  -3.5856  -3.5483
    -3.2884  -3.2245  -3.1340  -3.0902  -2.8864  -2.8555  -2.7640  -2.6400
    -2.6018  -2.4279  -2.3669  -2.2804  -2.2196  -2.0796  -2.0112  -1.9537
    -1.8397  -1.6461  -1.5886  -1.5313  -1.4623  -1.4498  -1.3289  -1.3068
    -1.2589  -1.1746  -1.1658  -1.1053  -1.0331  -0.9588  -0.8957  -0.8303
    -0.7553  -0.6415  -0.5743  -0.5502  -0.4333  -0.3098  -0.2330  -0.2213
     0.0370   0.1604   0.3114   0.3954   3.6364   3.7973   4.0662   4.1364
     4.3657   4.5093   4.5766   5.0253   5.1030   5.2343   5.2467   5.2788
     5.4619   5.5094   5.5620   5.6802   5.7411   5.9699   6.1604   6.3045
     6.4443   6.4814   6.5786   6.8432   6.9841   7.1055   7.1350   7.1935
     7.2726   7.2833

     occupation numbers 
     1.0000   1.0000   1.0000   1.0000   1.0000   1.0000   1.0000   1.0000
     1.0000   1.0000   1.0000   1.0000   1.0000   1.0000   1.0000   1.0000
     1.0000   1.0000   1.0000   1.0000   1.0000   1.0000   1.0000   1.0000
     1.0000   1.0000   1.0000   1.0000   1.0000   1.0000   1.0000   1.0000
     1.0000   1.0000   1.0000   1.0000   1.0000   1.0000   1.0000   1.0000
     1.0000   1.0000   1.0000   1.0000   1.0000   1.0000   1.0000   1.0000
     1.0000   1.0000   1.0000   1.0000   1.0000   1.0000   1.0000   1.0000
     1.0000   1.0000   1.0000   1.0000   1.0000   1.0000   1.0000   1.0000
     1.0000   1.0000   1.0000   1.0000   1.0000   1.0000   1.0000   1.0000
     1.0000   1.0000   1.0000   1.0000   1.0000   1.0000   1.0000   1.0000
     1.0000   1.0000   1.0000   1.0000   1.0000   1.0000   1.0000   1.0000
     1.0000   1.0000   1.0000   1.0000   1.0000   1.0000   1.0000   1.0000
     1.0000   1.0000   1.0000   1.0000   1.0000   1.0000   1.0000   1.0000
     1.0000   1.0000   1.0000   1.0000   1.0000   1.0000   1.0000   1.0000
     1.0000   1.0000   1.0000   1.0000   1.0000   1.0000   1.0000   1.0000
     1.0000   1.0000   1.0000   1.0000   1.0000   1.0000   1.0000   1.0000
     1.0000   1.0000   1.0000   1.0000   0.9716   0.9131   0.5928   0.4648
     0.1388   0.0531   0.0331   0.0013   0.0007   0.0003   0.0002   0.0002
     0.0001   0.0000   0.0000   0.0000   0.0000   0.0000   0.0000   0.0000
     0.0000   0.0000   0.0000   0.0000   0.0000   0.0000   0.0000   0.0000
     0.0000   0.0000

          k = 0.2500 0.0000 0.0000 ( 35470 PWs)   bands (ev):

   -59.2551 -59.2456 -59.0008 -58.9898 -58.8446 -58.8387 -58.8279 -58.7852
   -58.7153 -58.7042 -58.5902 -58.5723 -29.0653 -29.0109 -28.9247 -28.8645
   -28.7925 -28.7908 -28.7595 -28.7184 -28.6818 -28.6637 -28.6519 -28.6386
   -28.6180 -28.6113 -28.5849 -28.5578 -28.5295 -28.5204 -28.4898 -28.4313
   -28.4175 -28.4137 -28.3983 -28.3761 -28.3453 -28.3095 -28.2913 -28.2733
   -28.2516 -28.2289 -28.2036 -28.1744 -28.1425 -28.1139 -28.1026 -28.0866
   -17.5668 -17.2081 -16.7901 -16.6573 -16.3632 -16.3410 -16.2275 -16.1504
   -16.0120 -16.0094 -15.8516 -15.7879 -15.5614 -15.5417 -15.4154 -15.3949
   -15.3176 -15.2615 -15.1700 -15.1103 -14.6223  -5.2076  -5.0820  -4.9492
    -4.8945  -4.7933  -4.6663  -4.5707  -4.5270  -4.3575  -4.3064  -4.1946
    -4.0910  -4.0349  -4.0007  -3.9249  -3.8101  -3.7252  -3.5349  -3.3894
    -3.3430  -3.2518  -3.2079  -3.0399  -3.0253  -2.8391  -2.7726  -2.5757
    -2.5191  -2.3918  -2.3417  -2.2898  -2.2268  -2.1460  -2.0375  -1.9156
    -1.8748  -1.7836  -1.7316  -1.6312  -1.5845  -1.5589  -1.5310  -1.3900
    -1.3578  -1.2681  -1.1529  -1.1057  -0.9730  -0.8732  -0.7997  -0.6571
    -0.6092  -0.5476  -0.4355  -0.4012  -0.3432  -0.1992  -0.1616  -0.0516
    -0.0225   0.0732   0.1185   0.3167   2.9616   3.2727   4.1657   4.3317
     4.6340   4.8626   4.9111   5.1606   5.1778   5.5372   5.5846   5.7183
     5.8605   5.9155   6.0535   6.1245   6.2056   6.3069   6.3639   6.4729
     6.5364   6.6253   6.6460   6.7235   6.7731   6.8821   6.9273   7.0652
     7.1517   7.2514

     occupation numbers 
     1.0000   1.0000   1.0000   1.0000   1.0000   1.0000   1.0000   1.0000
     1.0000   1.0000   1.0000   1.0000   1.0000   1.0000   1.0000   1.0000
     1.0000   1.0000   1.0000   1.0000   1.0000   1.0000   1.0000   1.0000
     1.0000   1.0000   1.0000   1.0000   1.0000   1.0000   1.0000   1.0000
     1.0000   1.0000   1.0000   1.0000   1.0000   1.0000   1.0000   1.0000
     1.0000   1.0000   1.0000   1.0000   1.0000   1.0000   1.0000   1.0000
     1.0000   1.0000   1.0000   1.0000   1.0000   1.0000   1.0000   1.0000
     1.0000   1.0000   1.0000   1.0000   1.0000   1.0000   1.0000   1.0000
     1.0000   1.0000   1.0000   1.0000   1.0000   1.0000   1.0000   1.0000
     1.0000   1.0000   1.0000   1.0000   1.0000   1.0000   1.0000   1.0000
     1.0000   1.0000   1.0000   1.0000   1.0000   1.0000   1.0000   1.0000
     1.0000   1.0000   1.0000   1.0000   1.0000   1.0000   1.0000   1.0000
     1.0000   1.0000   1.0000   1.0000   1.0000   1.0000   1.0000   1.0000
     1.0000   1.0000   1.0000   1.0000   1.0000   1.0000   1.0000   1.0000
     1.0000   1.0000   1.0000   1.0000   1.0000   1.0000   1.0000   1.0000
     1.0000   1.0000   1.0000   1.0000   1.0000   1.0000   1.0000   1.0000
     1.0000   1.0000   1.0000   1.0000   0.9998   0.9980   0.4119   0.1714
     0.0219   0.0042   0.0029   0.0005   0.0004   0.0000   0.0000   0.0000
     0.0000   0.0000   0.0000   0.0000   0.0000   0.0000   0.0000   0.0000
     0.0000   0.0000   0.0000   0.0000   0.0000   0.0000   0.0000   0.0000
     0.0000   0.0000

          k = 0.2500 0.2600 0.0000 ( 35420 PWs)   bands (ev):

   -59.2539 -59.2467 -58.9995 -58.9910 -58.8443 -58.8375 -58.8290 -58.7853
   -58.7141 -58.7054 -58.5897 -58.5729 -29.0795 -29.0177 -28.9337 -28.8765
   -28.8144 -28.7775 -28.7501 -28.7228 -28.7030 -28.6702 -28.6425 -28.6349
   -28.6224 -28.6112 -28.5872 -28.5479 -28.5257 -28.4992 -28.4725 -28.4554
   -28.4441 -28.4209 -28.3890 -28.3693 -28.3340 -28.3236 -28.2951 -28.2703
   -28.2442 -28.2177 -28.1938 -28.1593 -28.1524 -28.1277 -28.1065 -28.0690
   -17.3844 -17.0692 -16.7475 -16.6716 -16.4126 -16.3486 -16.2391 -16.1736
   -16.0272 -16.0025 -15.9095 -15.7436 -15.6280 -15.5399 -15.4663 -15.4187
   -15.3696 -15.2830 -15.1509 -15.0799 -14.6730  -5.1851  -5.0366  -4.8005
    -4.7470  -4.6849  -4.6220  -4.4969  -4.4069  -4.3280  -4.2927  -4.1943
    -4.0863  -3.9982  -3.9469  -3.8491  -3.6363  -3.5255  -3.4074  -3.3429
    -3.3134  -3.2596  -3.1925  -3.1308  -3.0130  -2.9804  -2.8754  -2.7462
    -2.5292  -2.4546  -2.3783  -2.3107  -2.2230  -2.1578  -2.0853  -1.8980
    -1.8117  -1.7776  -1.7327  -1.6204  -1.5714  -1.4942  -1.4307  -1.3956
    -1.3167  -1.2478  -1.1449  -1.0700  -1.0239  -0.9774  -0.9348  -0.7847
    -0.6828  -0.6427  -0.5485  -0.4530  -0.4451  -0.3953  -0.2541  -0.1601
    -0.1134  -0.0054   0.1143   0.3028   3.1577   3.4913   4.0783   4.1326
     4.5989   4.7724   4.8711   5.0446   5.1708   5.2156   5.3693   5.4805
     5.5787   5.7677   5.8399   5.9069   6.0177   6.0902   6.1410   6.3676
     6.4306   6.6105   6.6975   6.7534   6.7724   6.9280   6.9995   7.1288
     7.2101   7.2512

     occupation numbers 
     1.0000   1.0000   1.0000   1.0000   1.0000   1.0000   1.0000   1.0000
     1.0000   1.0000   1.0000   1.0000   1.0000   1.0000   1.0000   1.0000
     1.0000   1.0000   1.0000   1.0000   1.0000   1.0000   1.0000   1.0000
     1.0000   1.0000   1.0000   1.0000   1.0000   1.0000   1.0000   1.0000
     1.0000   1.0000   1.0000   1.0000   1.0000   1.0000   1.0000   1.0000
     1.0000   1.0000   1.0000   1.0000   1.0000   1.0000   1.0000   1.0000
     1.0000   1.0000   1.0000   1.0000   1.0000   1.0000   1.0000   1.0000
     1.0000   1.0000   1.0000   1.0000   1.0000   1.0000   1.0000   1.0000
     1.0000   1.0000   1.0000   1.0000   1.0000   1.0000   1.0000   1.0000
     1.0000   1.0000   1.0000   1.0000   1.0000   1.0000   1.0000   1.0000
     1.0000   1.0000   1.0000   1.0000   1.0000   1.0000   1.0000   1.0000
     1.0000   1.0000   1.0000   1.0000   1.0000   1.0000   1.0000   1.0000
     1.0000   1.0000   1.0000   1.0000   1.0000   1.0000   1.0000   1.0000
     1.0000   1.0000   1.0000   1.0000   1.0000   1.0000   1.0000   1.0000
     1.0000   1.0000   1.0000   1.0000   1.0000   1.0000   1.0000   1.0000
     1.0000   1.0000   1.0000   1.0000   1.0000   1.0000   1.0000   1.0000
     1.0000   1.0000   1.0000   1.0000   0.9991   0.9901   0.5710   0.4718
     0.0282   0.0080   0.0039   0.0011   0.0004   0.0003   0.0001   0.0000
     0.0000   0.0000   0.0000   0.0000   0.0000   0.0000   0.0000   0.0000
     0.0000   0.0000   0.0000   0.0000   0.0000   0.0000   0.0000   0.0000
     0.0000   0.0000

          k = 0.2500-0.5200 0.0000 ( 35366 PWs)   bands (ev):

   -59.2520 -59.2485 -58.9978 -58.9927 -58.8442 -58.8357 -58.8308 -58.7853
   -58.7125 -58.7070 -58.5892 -58.5736 -29.0858 -29.0284 -28.9342 -28.9160
   -28.7910 -28.7871 -28.7527 -28.7428 -28.6925 -28.6758 -28.6555 -28.6492
   -28.6171 -28.6035 -28.5981 -28.5709 -28.5271 -28.5158 -28.4920 -28.4605
   -28.4250 -28.3911 -28.3778 -28.3590 -28.3439 -28.3042 -28.2825 -28.2513
   -28.2425 -28.2176 -28.1900 -28.1520 -28.1359 -28.1163 -28.1046 -28.0926
   -17.1424 -16.8732 -16.7192 -16.6791 -16.4619 -16.3921 -16.3162 -16.2594
   -16.1253 -16.0443 -15.9975 -15.7389 -15.6889 -15.5490 -15.4375 -15.4004
   -15.3124 -15.2703 -15.1746 -15.1228 -14.5938  -5.0551  -5.0224  -4.8164
    -4.6094  -4.5756  -4.4833  -4.3410  -4.3159  -4.2113  -4.1700  -4.0891
    -4.0361  -3.9376  -3.8715  -3.7883  -3.7410  -3.6371  -3.5648  -3.4261
    -3.3472  -3.3085  -3.0076  -2.9635  -2.9005  -2.7958  -2.7314  -2.6630
    -2.6073  -2.4619  -2.4093  -2.3539  -2.2850  -2.2640  -2.2123  -2.0455
    -1.9482  -1.8964  -1.8595  -1.7251  -1.5908  -1.4999  -1.3973  -1.3831
    -1.3344  -1.2401  -1.1927  -1.1295  -1.0323  -0.9879  -0.8866  -0.8467
    -0.7437  -0.7165  -0.6016  -0.5583  -0.4908  -0.4350  -0.2923  -0.2277
    -0.2155  -0.0669   0.1043   0.2841   3.6702   3.7255   4.0441   4.1252
     4.4601   4.4830   4.6648   4.9797   5.0242   5.0974   5.1627   5.3024
     5.3824   5.4566   5.6020   5.6969   5.7718   5.9885   6.1107   6.1796
     6.3740   6.4776   6.6677   6.7115   6.8695   6.9568   7.0332   7.1889
     7.2313   7.2804

     occupation numbers 
     1.0000   1.0000   1.0000   1.0000   1.0000   1.0000   1.0000   1.0000
     1.0000   1.0000   1.0000   1.0000   1.0000   1.0000   1.0000   1.0000
     1.0000   1.0000   1.0000   1.0000   1.0000   1.0000   1.0000   1.0000
     1.0000   1.0000   1.0000   1.0000   1.0000   1.0000   1.0000   1.0000
     1.0000   1.0000   1.0000   1.0000   1.0000   1.0000   1.0000   1.0000
     1.0000   1.0000   1.0000   1.0000   1.0000   1.0000   1.0000   1.0000
     1.0000   1.0000   1.0000   1.0000   1.0000   1.0000   1.0000   1.0000
     1.0000   1.0000   1.0000   1.0000   1.0000   1.0000   1.0000   1.0000
     1.0000   1.0000   1.0000   1.0000   1.0000   1.0000   1.0000   1.0000
     1.0000   1.0000   1.0000   1.0000   1.0000   1.0000   1.0000   1.0000
     1.0000   1.0000   1.0000   1.0000   1.0000   1.0000   1.0000   1.0000
     1.0000   1.0000   1.0000   1.0000   1.0000   1.0000   1.0000   1.0000
     1.0000   1.0000   1.0000   1.0000   1.0000   1.0000   1.0000   1.0000
     1.0000   1.0000   1.0000   1.0000   1.0000   1.0000   1.0000   1.0000
     1.0000   1.0000   1.0000   1.0000   1.0000   1.0000   1.0000   1.0000
     1.0000   1.0000   1.0000   1.0000   1.0000   1.0000   1.0000   1.0000
     1.0000   1.0000   1.0000   1.0000   0.9639   0.9468   0.6313   0.4855
     0.0745   0.0637   0.0176   0.0018   0.0013   0.0007   0.0005   0.0002
     0.0001   0.0001   0.0000   0.0000   0.0000   0.0000   0.0000   0.0000
     0.0000   0.0000   0.0000   0.0000   0.0000   0.0000   0.0000   0.0000
     0.0000   0.0000

          k = 0.2500-0.2600 0.0000 ( 35420 PWs)   bands (ev):

   -59.2539 -59.2467 -58.9995 -58.9910 -58.8444 -58.8375 -58.8290 -58.7852
   -58.7141 -58.7054 -58.5897 -58.5729 -29.0796 -29.0176 -28.9337 -28.8765
   -28.8144 -28.7777 -28.7501 -28.7239 -28.7032 -28.6724 -28.6571 -28.6385
   -28.6315 -28.6170 -28.5876 -28.5654 -28.5375 -28.4989 -28.4779 -28.4603
   -28.4286 -28.4123 -28.3830 -28.3480 -28.3323 -28.3139 -28.2986 -28.2595
   -28.2285 -28.2183 -28.1973 -28.1635 -28.1429 -28.1392 -28.0964 -28.0727
   -17.3849 -17.0814 -16.7711 -16.6724 -16.4251 -16.3574 -16.2532 -16.1962
   -16.0477 -16.0199 -15.9098 -15.7445 -15.6280 -15.5384 -15.4360 -15.4094
   -15.3209 -15.2877 -15.1727 -15.1181 -14.5483  -5.1835  -5.0351  -4.7906
    -4.7466  -4.6956  -4.6293  -4.4804  -4.4025  -4.3424  -4.2865  -4.1899
    -4.1021  -3.9929  -3.9391  -3.8441  -3.6242  -3.5117  -3.3843  -3.3416
    -3.3189  -3.2462  -3.1802  -3.1396  -3.0212  -2.9499  -2.8447  -2.7458
    -2.5563  -2.5132  -2.3936  -2.3235  -2.1808  -2.1326  -2.0595  -1.9682
    -1.8968  -1.7896  -1.7651  -1.6582  -1.5963  -1.5218  -1.4524  -1.4169
    -1.2886  -1.2583  -1.1879  -1.1106  -1.0185  -0.9846  -0.8354  -0.7761
    -0.6555  -0.5953  -0.4946  -0.4496  -0.4264  -0.3955  -0.2928  -0.1571
    -0.1196   0.0070   0.1305   0.2838   3.3611   3.4917   4.0787   4.3252
     4.4695   4.5992   4.8705   5.1651   5.2114   5.2866   5.4734   5.5556
     5.6794   5.8024   5.8649   5.9327   5.9806   6.0314   6.1914   6.2403
     6.3717   6.4746   6.6286   6.7268   6.7714   6.8973   7.0235   7.0756
     7.1525   7.2149

     occupation numbers 
     1.0000   1.0000   1.0000   1.0000   1.0000   1.0000   1.0000   1.0000
     1.0000   1.0000   1.0000   1.0000   1.0000   1.0000   1.0000   1.0000
     1.0000   1.0000   1.0000   1.0000   1.0000   1.0000   1.0000   1.0000
     1.0000   1.0000   1.0000   1.0000   1.0000   1.0000   1.0000   1.0000
     1.0000   1.0000   1.0000   1.0000   1.0000   1.0000   1.0000   1.0000
     1.0000   1.0000   1.0000   1.0000   1.0000   1.0000   1.0000   1.0000
     1.0000   1.0000   1.0000   1.0000   1.0000   1.0000   1.0000   1.0000
     1.0000   1.0000   1.0000   1.0000   1.0000   1.0000   1.0000   1.0000
     1.0000   1.0000   1.0000   1.0000   1.0000   1.0000   1.0000   1.0000
     1.0000   1.0000   1.0000   1.0000   1.0000   1.0000   1.0000   1.0000
     1.0000   1.0000   1.0000   1.0000   1.0000   1.0000   1.0000   1.0000
     1.0000   1.0000   1.0000   1.0000   1.0000   1.0000   1.0000   1.0000
     1.0000   1.0000   1.0000   1.0000   1.0000   1.0000   1.0000   1.0000
     1.0000   1.0000   1.0000   1.0000   1.0000   1.0000   1.0000   1.0000
     1.0000   1.0000   1.0000   1.0000   1.0000   1.0000   1.0000   1.0000
     1.0000   1.0000   1.0000   1.0000   1.0000   1.0000   1.0000   1.0000
     1.0000   1.0000   1.0000   1.0000   0.9962   0.9900   0.5704   0.1783
     0.0699   0.0281   0.0039   0.0005   0.0003   0.0002   0.0000   0.0000
     0.0000   0.0000   0.0000   0.0000   0.0000   0.0000   0.0000   0.0000
     0.0000   0.0000   0.0000   0.0000   0.0000   0.0000   0.0000   0.0000
     0.0000   0.0000

          k =-0.5000 0.0000 0.0000 ( 35502 PWs)   bands (ev):

   -59.2504 -59.2503 -58.9959 -58.9947 -58.8442 -58.8334 -58.8331 -58.7855
   -58.7111 -58.7084 -58.5887 -58.5739 -28.9984 -28.9981 -28.8718 -28.8716
   -28.7838 -28.7835 -28.7162 -28.7160 -28.6852 -28.6851 -28.6504 -28.6503
   -28.5975 -28.5794 -28.5763 -28.5691 -28.5407 -28.5402 -28.4856 -28.4840
   -28.4254 -28.4205 -28.4042 -28.3955 -28.3651 -28.3452 -28.2873 -28.2798
   -28.2724 -28.2279 -28.1919 -28.1875 -28.1602 -28.1274 -28.1234 -28.0942
   -16.9619 -16.9608 -16.6850 -16.6785 -16.4987 -16.4788 -16.2582 -16.2408
   -15.9934 -15.9817 -15.7970 -15.7964 -15.5855 -15.5850 -15.4606 -15.4585
   -15.4057 -15.3550 -15.3081 -15.2499 -14.6823  -4.8434  -4.8425  -4.5921
    -4.5910  -4.4194  -4.4081  -4.2924  -4.2829  -4.1949  -4.1849  -4.0519
    -3.9874  -3.8775  -3.8719  -3.7912  -3.7841  -3.6758  -3.6540  -3.5432
    -3.5288  -3.4223  -3.4116  -3.3145  -3.2992  -3.1828  -3.1390  -2.7464
    -2.6844  -2.5474  -2.4797  -2.3737  -2.3190  -2.1952  -2.1588  -2.0780
    -1.9650  -1.8368  -1.7639  -1.6657  -1.6154  -1.5329  -1.3694  -1.3431
    -1.2853  -1.2486  -1.1405  -1.0816  -1.0398  -0.9295  -0.7825  -0.7168
    -0.7080  -0.6230  -0.5553  -0.4521  -0.4107  -0.4036  -0.3935  -0.2303
    -0.2032  -0.1156  -0.0858   0.2301   3.3798   3.9824   3.9904   3.9913
     4.6287   5.0190   5.0196   5.0892   5.1835   5.1839   5.4218   5.8520
     5.8530   5.9200   5.9244   6.0318   6.1417   6.1852   6.3146   6.3974
     6.4819   6.6057   6.6748   6.7663   6.8199   7.0096   7.0268   7.0737
     7.0875   7.1212

     occupation numbers 
     1.0000   1.0000   1.0000   1.0000   1.0000   1.0000   1.0000   1.0000
     1.0000   1.0000   1.0000   1.0000   1.0000   1.0000   1.0000   1.0000
     1.0000   1.0000   1.0000   1.0000   1.0000   1.0000   1.0000   1.0000
     1.0000   1.0000   1.0000   1.0000   1.0000   1.0000   1.0000   1.0000
     1.0000   1.0000   1.0000   1.0000   1.0000   1.0000   1.0000   1.0000
     1.0000   1.0000   1.0000   1.0000   1.0000   1.0000   1.0000   1.0000
     1.0000   1.0000   1.0000   1.0000   1.0000   1.0000   1.0000   1.0000
     1.0000   1.0000   1.0000   1.0000   1.0000   1.0000   1.0000   1.0000
     1.0000   1.0000   1.0000   1.0000   1.0000   1.0000   1.0000   1.0000
     1.0000   1.0000   1.0000   1.0000   1.0000   1.0000   1.0000   1.0000
     1.0000   1.0000   1.0000   1.0000   1.0000   1.0000   1.0000   1.0000
     1.0000   1.0000   1.0000   1.0000   1.0000   1.0000   1.0000   1.0000
     1.0000   1.0000   1.0000   1.0000   1.0000   1.0000   1.0000   1.0000
     1.0000   1.0000   1.0000   1.0000   1.0000   1.0000   1.0000   1.0000
     1.0000   1.0000   1.0000   1.0000   1.0000   1.0000   1.0000   1.0000
     1.0000   1.0000   1.0000   1.0000   1.0000   1.0000   1.0000   1.0000
     1.0000   1.0000   1.0000   1.0000   0.9956   0.7294   0.7176   0.7162
     0.0228   0.0013   0.0013   0.0008   0.0004   0.0004   0.0001   0.0000
     0.0000   0.0000   0.0000   0.0000   0.0000   0.0000   0.0000   0.0000
     0.0000   0.0000   0.0000   0.0000   0.0000   0.0000   0.0000   0.0000
     0.0000   0.0000

          k =-0.5000 0.2600 0.0000 ( 35450 PWs)   bands (ev):

   -59.2503 -59.2502 -58.9959 -58.9946 -58.8442 -58.8334 -58.8331 -58.7854
   -58.7111 -58.7084 -58.5888 -58.5740 -29.0534 -29.0531 -28.9222 -28.9222
   -28.7938 -28.7936 -28.7434 -28.7431 -28.6784 -28.6770 -28.6510 -28.6484
   -28.6197 -28.6040 -28.5893 -28.5804 -28.5255 -28.5219 -28.4950 -28.4707
   -28.4278 -28.3895 -28.3738 -28.3615 -28.3396 -28.3128 -28.2636 -28.2478
   -28.2429 -28.2225 -28.1955 -28.1549 -28.1380 -28.1148 -28.1064 -28.0933
   -16.9676 -16.9668 -16.7065 -16.7028 -16.5629 -16.5437 -16.3490 -16.3361
   -16.0552 -16.0435 -15.8245 -15.8232 -15.5597 -15.5555 -15.4234 -15.4036
   -15.3071 -15.2737 -15.2047 -15.1552 -14.5982  -4.8941  -4.8911  -4.5822
    -4.5722  -4.3822  -4.3606  -4.2606  -4.2557  -4.1243  -4.1125  -3.9926
    -3.9398  -3.8639  -3.8454  -3.7503  -3.7348  -3.6609  -3.6347  -3.4754
    -3.4494  -3.2522  -3.2351  -3.1501  -3.1289  -2.9238  -2.9046  -2.7154
    -2.6830  -2.5598  -2.5313  -2.3364  -2.2712  -2.2292  -2.1960  -2.0269
    -1.9899  -1.9742  -1.8899  -1.7622  -1.6826  -1.6001  -1.5481  -1.4193
    -1.3649  -1.2805  -1.2335  -1.1752  -1.0704  -1.0232  -0.9011  -0.8719
    -0.7282  -0.6381  -0.5855  -0.5399  -0.4974  -0.4100  -0.3927  -0.2906
    -0.2438  -0.0982  -0.0457   0.1818   3.5421   3.9086   3.9092   4.0938
     4.4444   4.7997   4.8004   4.9962   4.9978   5.2096   5.5048   5.5204
     5.5669   5.7516   5.7916   5.9506   6.0129   6.1167   6.1802   6.2473
     6.2943   6.4456   6.5260   6.5964   6.7263   6.7974   6.9669   7.0301
     7.0841   7.1663

     occupation numbers 
     1.0000   1.0000   1.0000   1.0000   1.0000   1.0000   1.0000   1.0000
     1.0000   1.0000   1.0000   1.0000   1.0000   1.0000   1.0000   1.0000
     1.0000   1.0000   1.0000   1.0000   1.0000   1.0000   1.0000   1.0000
     1.0000   1.0000   1.0000   1.0000   1.0000   1.0000   1.0000   1.0000
     1.0000   1.0000   1.0000   1.0000   1.0000   1.0000   1.0000   1.0000
     1.0000   1.0000   1.0000   1.0000   1.0000   1.0000   1.0000   1.0000
     1.0000   1.0000   1.0000   1.0000   1.0000   1.0000   1.0000   1.0000
     1.0000   1.0000   1.0000   1.0000   1.0000   1.0000   1.0000   1.0000
     1.0000   1.0000   1.0000   1.0000   1.0000   1.0000   1.0000   1.0000
     1.0000   1.0000   1.0000   1.0000   1.0000   1.0000   1.0000   1.0000
     1.0000   1.0000   1.0000   1.0000   1.0000   1.0000   1.0000   1.0000
     1.0000   1.0000   1.0000   1.0000   1.0000   1.0000   1.0000   1.0000
     1.0000   1.0000   1.0000   1.0000   1.0000   1.0000   1.0000   1.0000
     1.0000   1.0000   1.0000   1.0000   1.0000   1.0000   1.0000   1.0000
     1.0000   1.0000   1.0000   1.0000   1.0000   1.0000   1.0000   1.0000
     1.0000   1.0000   1.0000   1.0000   1.0000   1.0000   1.0000   1.0000
     1.0000   1.0000   1.0000   1.0000   0.9856   0.8226   0.8219   0.5431
     0.0828   0.0066   0.0066   0.0016   0.0015   0.0003   0.0000   0.0000
     0.0000   0.0000   0.0000   0.0000   0.0000   0.0000   0.0000   0.0000
     0.0000   0.0000   0.0000   0.0000   0.0000   0.0000   0.0000   0.0000
     0.0000   0.0000

          k =-0.5000-0.5200 0.0000 ( 35320 PWs)   bands (ev):

   -59.2503 -59.2502 -58.9958 -58.9946 -58.8441 -58.8334 -58.8330 -58.7854
   -58.7111 -58.7084 -58.5889 -58.5740 -29.0929 -29.0927 -28.9689 -28.9688
   -28.8266 -28.8262 -28.7436 -28.7424 -28.6936 -28.6923 -28.6673 -28.6545
   -28.6379 -28.6258 -28.5791 -28.5617 -28.5209 -28.4897 -28.4870 -28.4715
   -28.4165 -28.3818 -28.3386 -28.3292 -28.3275 -28.3070 -28.2365 -28.2242
   -28.2072 -28.2047 -28.1950 -28.1550 -28.1214 -28.1096 -28.0785 -28.0735
   -16.9784 -16.9777 -16.7291 -16.7279 -16.6012 -16.5918 -16.4362 -16.4190
   -16.1210 -16.0927 -15.8552 -15.8520 -15.5255 -15.5228 -15.3628 -15.3502
   -15.2070 -15.2019 -15.1428 -15.0847 -14.5247  -4.7643  -4.7613  -4.5265
    -4.5248  -4.3863  -4.3695  -4.2243  -4.2048  -4.1085  -4.0841  -4.0093
    -4.0043  -3.8944  -3.8675  -3.8405  -3.8236  -3.6481  -3.5979  -3.2596
    -3.2096  -3.0884  -3.0454  -3.0349  -2.9240  -2.7886  -2.7863  -2.7551
    -2.7193  -2.5767  -2.5649  -2.4020  -2.3644  -2.1454  -2.0795  -1.9920
    -1.9531  -1.9143  -1.8893  -1.8213  -1.8035  -1.7260  -1.6437  -1.5042
    -1.3120  -1.2933  -1.2378  -1.2037  -1.1381  -1.0752  -0.9750  -0.8626
    -0.7794  -0.7633  -0.7187  -0.6405  -0.5031  -0.4941  -0.4518  -0.3785
    -0.2947  -0.1542  -0.1415   0.1188   3.7874   3.7954   3.7967   3.9904
     4.4812   4.4815   4.6236   5.0732   5.0829   5.1407   5.2321   5.2449
     5.4256   5.4902   5.5104   5.7670   5.8646   5.9651   6.0847   6.0897
     6.2038   6.3264   6.4842   6.5615   6.6729   6.8207   6.8958   7.0687
     7.1245   7.2837

     occupation numbers 
     1.0000   1.0000   1.0000   1.0000   1.0000   1.0000   1.0000   1.0000
     1.0000   1.0000   1.0000   1.0000   1.0000   1.0000   1.0000   1.0000
     1.0000   1.0000   1.0000   1.0000   1.0000   1.0000   1.0000   1.0000
     1.0000   1.0000   1.0000   1.0000   1.0000   1.0000   1.0000   1.0000
     1.0000   1.0000   1.0000   1.0000   1.0000   1.0000   1.0000   1.0000
     1.0000   1.0000   1.0000   1.0000   1.0000   1.0000   1.0000   1.0000
     1.0000   1.0000   1.0000   1.0000   1.0000   1.0000   1.0000   1.0000
     1.0000   1.0000   1.0000   1.0000   1.0000   1.0000   1.0000   1.0000
     1.0000   1.0000   1.0000   1.0000   1.0000   1.0000   1.0000   1.0000
     1.0000   1.0000   1.0000   1.0000   1.0000   1.0000   1.0000   1.0000
     1.0000   1.0000   1.0000   1.0000   1.0000   1.0000   1.0000   1.0000
     1.0000   1.0000   1.0000   1.0000   1.0000   1.0000   1.0000   1.0000
     1.0000   1.0000   1.0000   1.0000   1.0000   1.0000   1.0000   1.0000
     1.0000   1.0000   1.0000   1.0000   1.0000   1.0000   1.0000   1.0000
     1.0000   1.0000   1.0000   1.0000   1.0000   1.0000   1.0000   1.0000
     1.0000   1.0000   1.0000   1.0000   1.0000   1.0000   1.0000   1.0000
     1.0000   1.0000   1.0000   1.0000   0.9187   0.9141   0.9134   0.7176
     0.0645   0.0643   0.0236   0.0009   0.0008   0.0005   0.0003   0.0003
     0.0001   0.0000   0.0000   0.0000   0.0000   0.0000   0.0000   0.0000
     0.0000   0.0000   0.0000   0.0000   0.0000   0.0000   0.0000   0.0000
     0.0000   0.0000

     the Fermi energy is     4.1173 ev

!    total energy              =   -1853.44037527 Ry
     estimated scf accuracy    <          3.2E-10 Ry
     smearing contrib. (-TS)   =      -0.03683108 Ry
     internal energy E=F+TS    =   -1853.40354419 Ry

     The total energy is F=E-TS. E is the sum of the following terms:
     one-electron contribution =  -41393.46549679 Ry
     hartree contribution      =   20723.94766577 Ry
     xc contribution           =    -289.34733562 Ry
     ewald contribution        =   19105.46209440 Ry
     electric field correction =      -0.00047195 Ry

     convergence has been achieved in   9 iterations

     Forces acting on atoms (cartesian axes, Ry/au):

     atom    1 type  1   force =     0.01547975   -0.01587422    0.07318119
     atom    2 type  1   force =     0.00024710   -0.00185431    0.00987219
     atom    3 type  1   force =     0.00534277   -0.00494925    0.00822310
     atom    4 type  1   force =     0.01554159    0.01584187    0.07317415
     atom    5 type  1   force =     0.00060900    0.00170290    0.00984587
     atom    6 type  1   force =    -0.00211336    0.01338327    0.01547528
     atom    7 type  1   force =    -0.00385171    0.00872897    0.01281920
     atom    8 type  1   force =    -0.00028242    0.00103622    0.00873756
     atom    9 type  1   force =     0.02866351    0.05693581   -0.03436419
     atom   10 type  1   force =    -0.00361103   -0.00884124    0.01278630
     atom   11 type  1   force =     0.00012822   -0.00114179    0.01013878
     atom   12 type  1   force =    -0.06045668   -0.03654507   -0.02730738
     atom   13 type  2   force =    -0.01630976    0.02019209   -0.02493898
     atom   14 type  2   force =    -0.00071769    0.00135609   -0.00415709
     atom   15 type  2   force =     0.01097078   -0.01497373    0.00809225
     atom   16 type  2   force =    -0.01620555   -0.02015253   -0.02513539
     atom   17 type  2   force =    -0.00051301   -0.00120628   -0.00418359
     atom   18 type  2   force =     0.01209235    0.01279257   -0.01523579
     atom   19 type  2   force =     0.00399937   -0.00230728   -0.06018766
     atom   20 type  2   force =     0.00059220   -0.00004491   -0.00487862
     atom   21 type  2   force =    -0.00448441   -0.01173045    0.02418510
     atom   22 type  2   force =     0.00082130    0.00309519   -0.00213536
     atom   23 type  2   force =     0.00150029    0.00110590   -0.00463790
     atom   24 type  2   force =     0.00075557   -0.00305438   -0.00187704
     atom   25 type  2   force =     0.00023129   -0.00076950   -0.00433520
     atom   26 type  2   force =     0.00057297   -0.00024456    0.00036485
     atom   27 type  2   force =     0.00400221    0.00228146   -0.06017640
     atom   28 type  2   force =    -0.00069489   -0.00005145   -0.00729645
     atom   29 type  2   force =     0.00057473    0.00002298   -0.00481965
     atom   30 type  2   force =    -0.00078078   -0.00001223   -0.00174990
     atom   31 type  2   force =     0.01065083   -0.01595717    0.03016333
     atom   32 type  2   force =    -0.00069583    0.00022599   -0.00717516
     atom   33 type  2   force =    -0.00205871    0.00100903   -0.00246739
     The non-local contrib.  to forces
     atom    1 type  1   force =    -0.01955342    0.01743308   -0.07741696
     atom    2 type  1   force =    -0.03042537    0.06476820    0.03263554
     atom    3 type  1   force =    -0.03398761    0.06847193    0.04086997
     atom    4 type  1   force =    -0.01941143   -0.01735488   -0.07747215
     atom    5 type  1   force =    -0.03077345   -0.06479655    0.03261269
     atom    6 type  1   force =    -0.03049947   -0.07172367    0.03196415
     atom    7 type  1   force =     0.03184781   -0.07181497    0.01794108
     atom    8 type  1   force =     0.03044808   -0.06395084    0.03341290
     atom    9 type  1   force =     0.01491632   -0.12213382    0.18190110
     atom   10 type  1   force =     0.03194330    0.07181317    0.01796321
     atom   11 type  1   force =     0.03049339    0.06422013    0.03356806
     atom   12 type  1   force =     0.10700361    0.00504146    0.19783016
     atom   13 type  2   force =    -0.08632876    0.07685687    0.03788582
     atom   14 type  2   force =    -0.05376439    0.04733606    0.03190790
     atom   15 type  2   force =    -0.04236622    0.02444234    0.02976153
     atom   16 type  2   force =    -0.08571584   -0.07635756    0.03745279
     atom   17 type  2   force =    -0.05305662   -0.04667466    0.03181757
     atom   18 type  2   force =    -0.03330470   -0.01830889    0.00750643
     atom   19 type  2   force =    -0.04576149   -0.15011523   -0.04244295
     atom   20 type  2   force =    -0.05225660   -0.14667580    0.00586151
     atom   21 type  2   force =    -0.06503731   -0.16909539    0.03734670
     atom   22 type  2   force =     0.05485966    0.04896888    0.03686504
     atom   23 type  2   force =     0.05465753    0.04676691    0.03086481
     atom   24 type  2   force =     0.05499974   -0.04925210    0.03680248
     atom   25 type  2   force =     0.05265517   -0.04644484    0.03039791
     atom   26 type  2   force =     0.15156094   -0.17966726   -0.32315643
     atom   27 type  2   force =    -0.04569740    0.15006884   -0.04244084
     atom   28 type  2   force =     0.05237701    0.14634686    0.00005289
     atom   29 type  2   force =    -0.05242167    0.14651919    0.00600347
     atom   30 type  2   force =     0.05286582    0.14659811    0.01051816
     atom   31 type  2   force =    -0.03294760    0.13049334    0.03272994
     atom   32 type  2   force =     0.05238470   -0.14653063    0.00017136
     atom   33 type  2   force =     0.04980226   -0.14492284    0.00982985
     The ionic contribution  to forces
     atom    1 type  1   force =    -1.52878986    1.02840423 -240.46910160
     atom    2 type  1   force =    -1.80759932   -2.70611482  -48.29076031
     atom    3 type  1   force =    -2.11358959   -2.51570393  146.40968272
     atom    4 type  1   force =    -1.52591236   -1.02735551 -240.46953878
     atom    5 type  1   force =    -1.80318777    2.70465199  -48.28945180
     atom    6 type  1   force =    -1.48398867    2.77119654  147.51455483
     atom    7 type  1   force =     1.80518414    2.50026667 -145.90853248
     atom    8 type  1   force =     1.77581156    2.71352199   49.28660641
     atom    9 type  1   force =    -3.87704409   -1.34214628  236.80913667
     atom   10 type  1   force =     1.81769343   -2.50024304 -145.90629585
     atom   11 type  1   force =     1.83197356   -2.71292782   49.29481899
     atom   12 type  1   force =     6.37223297   -0.63869272  236.96449329
     atom   13 type  2   force =     0.85452831    0.36071834 -108.77821519
     atom   14 type  2   force =     0.86481580    0.79727618  -12.11832472
     atom   15 type  2   force =     0.09097080    0.62124039   85.55504528
     atom   16 type  2   force =     0.85580330   -0.36221570 -108.76206033
     atom   17 type  2   force =     0.86817009   -0.79905625  -12.10166531
     atom   18 type  2   force =     1.57268271   -0.97988202   85.12852246
     atom   19 type  2   force =     0.37643215    2.31165836  -98.26719423
     atom   20 type  2   force =     0.36457187    2.42155276   -0.02718179
     atom   21 type  2   force =     0.77709433    2.57938115   97.59751469
     atom   22 type  2   force =    -0.86356479    0.78164444  -60.85475658
     atom   23 type  2   force =    -0.86155870    0.79195415   36.71976602
     atom   24 type  2   force =    -0.86708576   -0.77986942  -60.85802515
     atom   25 type  2   force =    -0.87013391   -0.80407666   36.64683731
     atom   26 type  2   force =    -1.96878430    1.51841888  123.43244929
     atom   27 type  2   force =     0.37578421   -2.31348484  -98.26883191
     atom   28 type  2   force =    -0.36310939   -2.41323391  -48.84304557
     atom   29 type  2   force =     0.36112294   -2.42142085   -0.02477576
     atom   30 type  2   force =    -0.39525248   -2.39937232   48.80210983
     atom   31 type  2   force =     0.05566423   -2.03677981   98.17493185
     atom   32 type  2   force =    -0.36232047    2.41551853  -48.84304840
     atom   33 type  2   force =    -0.32861493    2.43517131   48.74433611
     The local contribution  to forces
     atom    1 type  1   force =     1.56382360   -1.06171609  240.61975132
     atom    2 type  1   force =     1.83827163    2.63949028   48.26803921
     atom    3 type  1   force =     2.15292093    2.44227979 -146.44225929
     atom    4 type  1   force =     1.56086595    1.06055285  240.62023666
     atom    5 type  1   force =     1.83457003   -2.63815445   48.26672725
     atom    6 type  1   force =     1.51237412   -2.68609013 -147.53097427
     atom    7 type  1   force =    -1.84088366   -2.41972493  145.90344603
     atom    8 type  1   force =    -1.80654195   -2.64853683  -49.31121433
     atom    9 type  1   force =     3.89078821    1.52120883 -237.02535425
     atom   10 type  1   force =    -1.85324775    2.41958688  145.90115440
     atom   11 type  1   force =    -1.86233881    2.64756388  -49.31818085
     atom   12 type  1   force =    -6.53968693    0.59710599 -237.18958292
     atom   13 type  2   force =    -0.78450894   -0.41738532  108.71540822
     atom   14 type  2   force =    -0.81176916   -0.84325796   12.08227845
     atom   15 type  2   force =    -0.03763420   -0.66065785  -85.57668637
     atom   16 type  2   force =    -0.78629264    0.41841894  108.69949003
     atom   17 type  2   force =    -0.81562651    0.84452244   12.06568287
     atom   18 type  2   force =    -1.52728552    1.01098170  -85.15123703
     atom   19 type  2   force =    -0.32667166   -2.16385214   98.24946593
     atom   20 type  2   force =    -0.31172305   -2.27492362    0.01646457
     atom   21 type  2   force =    -0.71654165   -2.42201879  -97.61065198
     atom   22 type  2   force =     0.80952646   -0.82751997   60.81576551
     atom   23 type  2   force =     0.80840116   -0.83761749  -36.75523307
     atom   24 type  2   force =     0.81284165    0.82606505   60.81935499
     atom   25 type  2   force =     0.81770980    0.84975032  -36.68153482
     atom   26 type  2   force =     1.81779451   -1.33899594 -123.10890931
     atom   27 type  2   force =    -0.32608492    2.16569525   98.25111277
     atom   28 type  2   force =     0.31003738    2.26683361   48.83570581
     atom   29 type  2   force =    -0.30812657    2.27492246    0.01397543
     atom   30 type  2   force =     0.34160599    2.25276004  -48.81434076
     atom   31 type  2   force =    -0.01206594    1.89032635  -98.17747394
     atom   32 type  2   force =     0.30923983   -2.26876390   48.83571151
     atom   33 type  2   force =     0.27675402   -2.28924133  -48.75659574
     The core correction contribution to forces
     atom    1 type  1   force =     0.00000000    0.00000000    0.00000000
     atom    2 type  1   force =     0.00000000    0.00000000    0.00000000
     atom    3 type  1   force =     0.00000000    0.00000000    0.00000000
     atom    4 type  1   force =     0.00000000    0.00000000    0.00000000
     atom    5 type  1   force =     0.00000000    0.00000000    0.00000000
     atom    6 type  1   force =     0.00000000    0.00000000    0.00000000
     atom    7 type  1   force =     0.00000000    0.00000000    0.00000000
     atom    8 type  1   force =     0.00000000    0.00000000    0.00000000
     atom    9 type  1   force =     0.00000000    0.00000000    0.00000000
     atom   10 type  1   force =     0.00000000    0.00000000    0.00000000
     atom   11 type  1   force =     0.00000000    0.00000000    0.00000000
     atom   12 type  1   force =     0.00000000    0.00000000    0.00000000
     atom   13 type  2   force =     0.00000000    0.00000000    0.00000000
     atom   14 type  2   force =     0.00000000    0.00000000    0.00000000
     atom   15 type  2   force =     0.00000000    0.00000000    0.00000000
     atom   16 type  2   force =     0.00000000    0.00000000    0.00000000
     atom   17 type  2   force =     0.00000000    0.00000000    0.00000000
     atom   18 type  2   force =     0.00000000    0.00000000    0.00000000
     atom   19 type  2   force =     0.00000000    0.00000000    0.00000000
     atom   20 type  2   force =     0.00000000    0.00000000    0.00000000
     atom   21 type  2   force =     0.00000000    0.00000000    0.00000000
     atom   22 type  2   force =     0.00000000    0.00000000    0.00000000
     atom   23 type  2   force =     0.00000000    0.00000000    0.00000000
     atom   24 type  2   force =     0.00000000    0.00000000    0.00000000
     atom   25 type  2   force =     0.00000000    0.00000000    0.00000000
     atom   26 type  2   force =     0.00000000    0.00000000    0.00000000
     atom   27 type  2   force =     0.00000000    0.00000000    0.00000000
     atom   28 type  2   force =     0.00000000    0.00000000    0.00000000
     atom   29 type  2   force =     0.00000000    0.00000000    0.00000000
     atom   30 type  2   force =     0.00000000    0.00000000    0.00000000
     atom   31 type  2   force =     0.00000000    0.00000000    0.00000000
     atom   32 type  2   force =     0.00000000    0.00000000    0.00000000
     atom   33 type  2   force =     0.00000000    0.00000000    0.00000000
     The Hubbard contrib.    to forces
     atom    1 type  1   force =     0.00000000    0.00000000    0.00000000
     atom    2 type  1   force =     0.00000000    0.00000000    0.00000000
     atom    3 type  1   force =     0.00000000    0.00000000    0.00000000
     atom    4 type  1   force =     0.00000000    0.00000000    0.00000000
     atom    5 type  1   force =     0.00000000    0.00000000    0.00000000
     atom    6 type  1   force =     0.00000000    0.00000000    0.00000000
     atom    7 type  1   force =     0.00000000    0.00000000    0.00000000
     atom    8 type  1   force =     0.00000000    0.00000000    0.00000000
     atom    9 type  1   force =     0.00000000    0.00000000    0.00000000
     atom   10 type  1   force =     0.00000000    0.00000000    0.00000000
     atom   11 type  1   force =     0.00000000    0.00000000    0.00000000
     atom   12 type  1   force =     0.00000000    0.00000000    0.00000000
     atom   13 type  2   force =     0.00000000    0.00000000    0.00000000
     atom   14 type  2   force =     0.00000000    0.00000000    0.00000000
     atom   15 type  2   force =     0.00000000    0.00000000    0.00000000
     atom   16 type  2   force =     0.00000000    0.00000000    0.00000000
     atom   17 type  2   force =     0.00000000    0.00000000    0.00000000
     atom   18 type  2   force =     0.00000000    0.00000000    0.00000000
     atom   19 type  2   force =     0.00000000    0.00000000    0.00000000
     atom   20 type  2   force =     0.00000000    0.00000000    0.00000000
     atom   21 type  2   force =     0.00000000    0.00000000    0.00000000
     atom   22 type  2   force =     0.00000000    0.00000000    0.00000000
     atom   23 type  2   force =     0.00000000    0.00000000    0.00000000
     atom   24 type  2   force =     0.00000000    0.00000000    0.00000000
     atom   25 type  2   force =     0.00000000    0.00000000    0.00000000
     atom   26 type  2   force =     0.00000000    0.00000000    0.00000000
     atom   27 type  2   force =     0.00000000    0.00000000    0.00000000
     atom   28 type  2   force =     0.00000000    0.00000000    0.00000000
     atom   29 type  2   force =     0.00000000    0.00000000    0.00000000
     atom   30 type  2   force =     0.00000000    0.00000000    0.00000000
     atom   31 type  2   force =     0.00000000    0.00000000    0.00000000
     atom   32 type  2   force =     0.00000000    0.00000000    0.00000000
     atom   33 type  2   force =     0.00000000    0.00000000    0.00000000
     The SCF correction term to forces
     atom    1 type  1   force =     0.00000000    0.00000000    0.00000000
     atom    2 type  1   force =     0.00000000    0.00000000    0.00000000
     atom    3 type  1   force =     0.00000000    0.00000000    0.00000000
     atom    4 type  1   force =     0.00000000    0.00000000    0.00000000
     atom    5 type  1   force =     0.00000000    0.00000000    0.00000000
     atom    6 type  1   force =     0.00000000    0.00000000    0.00000000
     atom    7 type  1   force =     0.00000000    0.00000000    0.00000000
     atom    8 type  1   force =     0.00000000    0.00000000    0.00000000
     atom    9 type  1   force =     0.00000000    0.00000000    0.00000000
     atom   10 type  1   force =     0.00000000    0.00000000    0.00000000
     atom   11 type  1   force =     0.00000000    0.00000000    0.00000000
     atom   12 type  1   force =     0.00000000    0.00000000    0.00000000
     atom   13 type  2   force =     0.00000000    0.00000000    0.00000000
     atom   14 type  2   force =     0.00000000    0.00000000    0.00000000
     atom   15 type  2   force =     0.00000000    0.00000000    0.00000000
     atom   16 type  2   force =     0.00000000    0.00000000    0.00000000
     atom   17 type  2   force =     0.00000000    0.00000000    0.00000000
     atom   18 type  2   force =     0.00000000    0.00000000    0.00000000
     atom   19 type  2   force =     0.00000000    0.00000000    0.00000000
     atom   20 type  2   force =     0.00000000    0.00000000    0.00000000
     atom   21 type  2   force =     0.00000000    0.00000000    0.00000000
     atom   22 type  2   force =     0.00000000    0.00000000    0.00000000
     atom   23 type  2   force =     0.00000000    0.00000000    0.00000000
     atom   24 type  2   force =     0.00000000    0.00000000    0.00000000
     atom   25 type  2   force =     0.00000000    0.00000000    0.00000000
     atom   26 type  2   force =     0.00000177   -0.00000222    0.00001273
     atom   27 type  2   force =     0.00000000    0.00000000    0.00000000
     atom   28 type  2   force =     0.00000000    0.00000000    0.00000000
     atom   29 type  2   force =     0.00000000    0.00000000    0.00000000
     atom   30 type  2   force =     0.00000000    0.00000000    0.00000000
     atom   31 type  2   force =     0.00000000    0.00000000    0.00000000
     atom   32 type  2   force =     0.00000000    0.00000000    0.00000000
     atom   33 type  2   force =     0.00000000    0.00000000    0.00000000

     Total force =     0.000722     Total SCF correction =     0.000013
     Energy error            =      6.4E-07
     Gradient error          =      5.7E-04

     number of scf cycles    =  10
     number of bfgs steps    =   9

     energy   old            =   -1853.4403746282 Ry
     energy   new            =   -1853.4403752678 Ry

     CASE: energy  _new < energy  _old

     new trust radius        =       0.0013721963 bohr
     new conv_thr            =       0.0000000010 Ry


ATOMIC_POSITIONS (angstrom)
Hf            4.0076390000        3.7813620000        6.1529890000    0   0   0
Hf            4.0076390000        3.7813620000       11.0753320000    0   0   0
Hf            4.0076390000        3.7813620000       15.9976750000    0   0   0
Hf            1.4522770000        1.1321830000        6.1529770000    0   0   0
Hf            1.4522770000        1.1321830000       11.0753200000    0   0   0
Hf            1.4522770000        1.1321830000       15.9976630000    0   0   0
Hf            3.6579980000        1.1322110000        8.6140330000    0   0   0
Hf            3.6579980000        1.1322110000       13.5363760000    0   0   0
Hf            3.6579980000        1.1322110000       18.4587190000    0   0   0
Hf            1.1027520000        3.7813090000        8.6141070000    0   0   0
Hf            1.1027520000        3.7813090000       13.5364490000    0   0   0
Hf            1.1027520000        3.7813090000       18.4587920000    0   0   0
O             3.1707970000        2.0862730000        6.8074440000    0   0   0
O             3.1707970000        2.0862730000       11.7297860000    0   0   0
O             3.1707970000        2.0862730000       16.6521290000    0   0   0
O             0.6152330000        2.8266930000        6.8083890000    0   0   0
O             0.6152330000        2.8266930000       11.7307320000    0   0   0
O             0.6152330000        2.8266930000       16.6530750000    0   0   0
O             5.0530890000        0.2074550000        7.3799440000    0   0   0
O             5.0530890000        0.2074550000       12.3022870000    0   0   0
O             5.0530890000        0.2074550000       17.2246300000    0   0   0
O             1.9399660000        2.0865810000        9.2696970000    0   0   0
O             1.9399660000        2.0865810000       14.1920390000    0   0   0
O             4.4952530000        2.8267400000        9.2692970000    0   0   0
O             4.4952530000        2.8267400000       14.1916400000    0   0   0
O             4.5648480838        2.7953810326       18.9935499757
O             2.4978700000       -0.2075440000        7.3798460000    0   0   0
O             2.6124080000       -0.2081150000        9.8410840000    0   0   0
O             2.4978700000       -0.2075440000       12.3021890000    0   0   0
O             2.6124080000       -0.2081150000       14.7634270000    0   0   0
O             2.4978700000       -0.2075440000       17.2245320000    0   0   0
O             5.1675430000        0.2075860000        9.8410300000    0   0   0
O             5.1675430000        0.2075860000       14.7633720000    0   0   0



     Writing output data file ./hfo2.save/
     NEW-OLD atomic charge density approx. for the potential

     negative rho (up, down):  2.785E-06 0.000E+00
 
     Adding external electric field

     Computed dipole along edir(3) : 
        Elec. dipole         -2.7569 Ry au,         -7.0074 Debye
        Ion. dipole          -2.7559 Ry au,         -7.0049 Debye
        Dipole                0.4733 Ry au,          1.2031 Debye
        Dipole field          0.0010 Ry au, 
 
        E field amplitude [Ha a.u.]:  1.0000E-03
        Potential amp.       -0.0004 Ry
        Total length         62.8334 bohr
 

     total cpu time spent up to now is      730.6 secs

     Self-consistent Calculation

     iteration #  1     ecut=    50.00 Ry     beta= 0.30
     Davidson diagonalization with overlap
     ethr =  1.00E-06,  avg # of iterations =  2.0

     Threshold (ethr) on eigenvalues was too large:
     Diagonalizing with lowered threshold

     Davidson diagonalization with overlap
     ethr =  1.93E-09,  avg # of iterations =  1.0

     negative rho (up, down):  1.509E-06 0.000E+00
 
     Adding external electric field

     Computed dipole along edir(3) : 
        Elec. dipole         -2.7569 Ry au,         -7.0074 Debye
        Ion. dipole          -2.7559 Ry au,         -7.0049 Debye
        Dipole                0.4733 Ry au,          1.2030 Debye
        Dipole field          0.0010 Ry au, 
 
        E field amplitude [Ha a.u.]:  1.0000E-03
        Potential amp.       -0.0004 Ry
        Total length         62.8334 bohr
 

     total cpu time spent up to now is      744.4 secs

     total energy              =   -1853.44037622 Ry
     estimated scf accuracy    <       0.00000525 Ry

     iteration #  2     ecut=    50.00 Ry     beta= 0.30
     Davidson diagonalization with overlap
     ethr =  1.95E-09,  avg # of iterations =  1.0

     negative rho (up, down):  7.431E-07 0.000E+00
 
     Adding external electric field

     Computed dipole along edir(3) : 
        Elec. dipole         -2.7569 Ry au,         -7.0074 Debye
        Ion. dipole          -2.7559 Ry au,         -7.0049 Debye
        Dipole                0.4732 Ry au,          1.2028 Debye
        Dipole field          0.0010 Ry au, 
 
        E field amplitude [Ha a.u.]:  1.0000E-03
        Potential amp.       -0.0003 Ry
        Total length         62.8334 bohr
 

     total cpu time spent up to now is      754.4 secs

     total energy              =   -1853.44037621 Ry
     estimated scf accuracy    <       0.00000067 Ry

     iteration #  3     ecut=    50.00 Ry     beta= 0.30
     Davidson diagonalization with overlap
     ethr =  2.49E-10,  avg # of iterations =  1.4

     negative rho (up, down):  3.707E-07 0.000E+00
 
     Adding external electric field

     Computed dipole along edir(3) : 
        Elec. dipole         -2.7569 Ry au,         -7.0074 Debye
        Ion. dipole          -2.7559 Ry au,         -7.0049 Debye
        Dipole                0.4731 Ry au,          1.2026 Debye
        Dipole field          0.0010 Ry au, 
 
        E field amplitude [Ha a.u.]:  1.0000E-03
        Potential amp.       -0.0003 Ry
        Total length         62.8334 bohr
 

     total cpu time spent up to now is      758.3 secs

     total energy              =   -1853.44037618 Ry
     estimated scf accuracy    <       0.00000006 Ry

     iteration #  4     ecut=    50.00 Ry     beta= 0.30
     Davidson diagonalization with overlap
     ethr =  2.26E-11,  avg # of iterations =  4.7

     negative rho (up, down):  1.195E-07 0.000E+00
 
     Adding external electric field

     Computed dipole along edir(3) : 
        Elec. dipole         -2.7569 Ry au,         -7.0074 Debye
        Ion. dipole          -2.7559 Ry au,         -7.0049 Debye
        Dipole                0.4731 Ry au,          1.2025 Debye
        Dipole field          0.0010 Ry au, 
 
        E field amplitude [Ha a.u.]:  1.0000E-03
        Potential amp.       -0.0003 Ry
        Total length         62.8334 bohr
 

     total cpu time spent up to now is      762.2 secs

     total energy              =   -1853.44037619 Ry
     estimated scf accuracy    <          9.1E-09 Ry

     iteration #  5     ecut=    50.00 Ry     beta= 0.30
     Davidson diagonalization with overlap
     ethr =  3.36E-12,  avg # of iterations =  2.4

     negative rho (up, down):  2.055E-08 0.000E+00
 
     Adding external electric field

     Computed dipole along edir(3) : 
        Elec. dipole         -2.7569 Ry au,         -7.0074 Debye
        Ion. dipole          -2.7559 Ry au,         -7.0049 Debye
        Dipole                0.4731 Ry au,          1.2024 Debye
        Dipole field          0.0010 Ry au, 
 
        E field amplitude [Ha a.u.]:  1.0000E-03
        Potential amp.       -0.0003 Ry
        Total length         62.8334 bohr
 

     total cpu time spent up to now is      766.0 secs

     total energy              =   -1853.44037619 Ry
     estimated scf accuracy    <          9.3E-09 Ry

     iteration #  6     ecut=    50.00 Ry     beta= 0.30
     Davidson diagonalization with overlap
     ethr =  3.36E-12,  avg # of iterations =  1.5
 
     Adding external electric field

     Computed dipole along edir(3) : 
        Elec. dipole         -2.7569 Ry au,         -7.0074 Debye
        Ion. dipole          -2.7559 Ry au,         -7.0049 Debye
        Dipole                0.4731 Ry au,          1.2024 Debye
        Dipole field          0.0010 Ry au, 
 
        E field amplitude [Ha a.u.]:  1.0000E-03
        Potential amp.       -0.0003 Ry
        Total length         62.8334 bohr
 

     total cpu time spent up to now is      769.7 secs

     total energy              =   -1853.44037619 Ry
     estimated scf accuracy    <          2.4E-09 Ry

     iteration #  7     ecut=    50.00 Ry     beta= 0.30
     Davidson diagonalization with overlap
     ethr =  8.76E-13,  avg # of iterations =  2.4
 
     Adding external electric field

     Computed dipole along edir(3) : 
        Elec. dipole         -2.7569 Ry au,         -7.0074 Debye
        Ion. dipole          -2.7559 Ry au,         -7.0049 Debye
        Dipole                0.4732 Ry au,          1.2028 Debye
        Dipole field          0.0010 Ry au, 
 
        E field amplitude [Ha a.u.]:  1.0000E-03
        Potential amp.       -0.0003 Ry
        Total length         62.8334 bohr
 

     total cpu time spent up to now is      771.7 secs

     End of self-consistent calculation

          k = 0.0000 0.0000 0.0000 ( 35385 PWs)   bands (ev):

   -59.2572 -59.2438 -59.0032 -58.9877 -58.8447 -58.8412 -58.8258 -58.7848
   -58.7176 -58.7022 -58.5917 -58.5711 -29.1026 -29.0431 -28.9556 -28.8764
   -28.8304 -28.7725 -28.7664 -28.7382 -28.7003 -28.6671 -28.6498 -28.6400
   -28.6241 -28.6081 -28.5802 -28.5341 -28.5264 -28.5162 -28.4742 -28.4336
   -28.4241 -28.3763 -28.3744 -28.3628 -28.3242 -28.3162 -28.2954 -28.2709
   -28.2413 -28.1979 -28.1942 -28.1632 -28.1424 -28.1157 -28.0830 -28.0611
   -17.8381 -17.4321 -16.9254 -16.6569 -16.3959 -16.3588 -16.2169 -16.1331
   -16.0480 -16.0239 -15.9018 -15.7303 -15.5487 -15.3998 -15.3875 -15.2589
   -15.2531 -15.1320 -15.0806 -15.0114 -14.5644  -5.4542  -5.4320  -5.2616
    -5.2163  -5.0677  -4.9765  -4.6681  -4.6146  -4.4369  -4.4012  -4.2749
    -4.2293  -4.1254  -3.9056  -3.8082  -3.6418  -3.6066  -3.4439  -3.3958
    -3.3433  -3.1378  -3.0768  -2.8478  -2.8049  -2.7781  -2.6672  -2.5932
    -2.4891  -2.4352  -2.2946  -2.2262  -2.1295  -1.9879  -1.9851  -1.9578
    -1.8560  -1.7553  -1.7261  -1.7039  -1.6767  -1.6161  -1.5985  -1.2702
    -1.2416  -1.1846  -1.0667  -0.8922  -0.8676  -0.8199  -0.7129  -0.6528
    -0.5809  -0.5789  -0.3719  -0.2291  -0.1943  -0.1092   0.0710   0.1082
     0.2444   0.2582   0.3738   0.5017   2.6950   2.9329   4.1636   4.3660
     4.4262   4.8144   5.0391   5.0725   5.3477   5.4965   5.5669   5.8329
     5.9507   6.0171   6.0534   6.1993   6.2496   6.2884   6.4114   6.4581
     6.4675   6.6209   6.6506   6.7097   6.8581   6.8991   7.0033   7.0303
     7.0410   7.2102

     occupation numbers 
     1.0000   1.0000   1.0000   1.0000   1.0000   1.0000   1.0000   1.0000
     1.0000   1.0000   1.0000   1.0000   1.0000   1.0000   1.0000   1.0000
     1.0000   1.0000   1.0000   1.0000   1.0000   1.0000   1.0000   1.0000
     1.0000   1.0000   1.0000   1.0000   1.0000   1.0000   1.0000   1.0000
     1.0000   1.0000   1.0000   1.0000   1.0000   1.0000   1.0000   1.0000
     1.0000   1.0000   1.0000   1.0000   1.0000   1.0000   1.0000   1.0000
     1.0000   1.0000   1.0000   1.0000   1.0000   1.0000   1.0000   1.0000
     1.0000   1.0000   1.0000   1.0000   1.0000   1.0000   1.0000   1.0000
     1.0000   1.0000   1.0000   1.0000   1.0000   1.0000   1.0000   1.0000
     1.0000   1.0000   1.0000   1.0000   1.0000   1.0000   1.0000   1.0000
     1.0000   1.0000   1.0000   1.0000   1.0000   1.0000   1.0000   1.0000
     1.0000   1.0000   1.0000   1.0000   1.0000   1.0000   1.0000   1.0000
     1.0000   1.0000   1.0000   1.0000   1.0000   1.0000   1.0000   1.0000
     1.0000   1.0000   1.0000   1.0000   1.0000   1.0000   1.0000   1.0000
     1.0000   1.0000   1.0000   1.0000   1.0000   1.0000   1.0000   1.0000
     1.0000   1.0000   1.0000   1.0000   1.0000   1.0000   1.0000   1.0000
     1.0000   1.0000   1.0000   1.0000   1.0000   0.9998   0.4154   0.1383
     0.0935   0.0059   0.0011   0.0009   0.0001   0.0000   0.0000   0.0000
     0.0000   0.0000   0.0000   0.0000   0.0000   0.0000   0.0000   0.0000
     0.0000   0.0000   0.0000   0.0000   0.0000   0.0000   0.0000   0.0000
     0.0000   0.0000

          k = 0.0000 0.2600 0.0000 ( 35369 PWs)   bands (ev):

   -59.2555 -59.2454 -59.0015 -58.9894 -58.8444 -58.8394 -58.8275 -58.7851
   -58.7160 -58.7039 -58.5907 -58.5722 -29.0863 -28.9916 -28.9304 -28.8724
   -28.8053 -28.7787 -28.7507 -28.7207 -28.6947 -28.6723 -28.6545 -28.6437
   -28.6366 -28.5897 -28.5760 -28.5454 -28.5237 -28.5189 -28.4938 -28.4448
   -28.4218 -28.4081 -28.3938 -28.3776 -28.3572 -28.3059 -28.2754 -28.2666
   -28.2623 -28.2314 -28.2017 -28.1761 -28.1428 -28.1157 -28.0990 -28.0852
   -17.5763 -17.2205 -16.8095 -16.5960 -16.3702 -16.2886 -16.1458 -16.0856
   -16.0301 -15.9890 -15.9562 -15.7550 -15.6121 -15.5586 -15.4521 -15.4016
   -15.3587 -15.2375 -15.1447 -15.0931 -14.6189  -5.4014  -5.2652  -5.0845
    -4.9662  -4.9276  -4.7070  -4.6012  -4.5503  -4.5131  -4.3659  -4.3026
    -4.1851  -3.9448  -3.8840  -3.7042  -3.6553  -3.5709  -3.4828  -3.3931
    -3.3258  -3.2630  -3.2383  -3.0319  -2.9313  -2.8197  -2.7049  -2.6468
    -2.5385  -2.4325  -2.3443  -2.2932  -2.2131  -2.1608  -2.0548  -2.0295
    -1.9136  -1.8285  -1.6724  -1.5510  -1.4870  -1.4357  -1.3412  -1.2132
    -1.2082  -1.1121  -0.9755  -0.9247  -0.8667  -0.8172  -0.7673  -0.7306
    -0.6673  -0.5787  -0.5258  -0.4027  -0.3163  -0.2493  -0.2186  -0.1911
     0.0797   0.2155   0.3153   0.4451   3.0581   3.2966   4.2353   4.2524
     4.3769   4.8348   4.9118   5.1454   5.2212   5.2523   5.3467   5.4429
     5.6749   5.7184   5.8484   5.8781   5.9792   6.1248   6.1586   6.3614
     6.5485   6.6247   6.6926   6.7424   6.9366   6.9933   7.0729   7.1638
     7.2414   7.3378

     occupation numbers 
     1.0000   1.0000   1.0000   1.0000   1.0000   1.0000   1.0000   1.0000
     1.0000   1.0000   1.0000   1.0000   1.0000   1.0000   1.0000   1.0000
     1.0000   1.0000   1.0000   1.0000   1.0000   1.0000   1.0000   1.0000
     1.0000   1.0000   1.0000   1.0000   1.0000   1.0000   1.0000   1.0000
     1.0000   1.0000   1.0000   1.0000   1.0000   1.0000   1.0000   1.0000
     1.0000   1.0000   1.0000   1.0000   1.0000   1.0000   1.0000   1.0000
     1.0000   1.0000   1.0000   1.0000   1.0000   1.0000   1.0000   1.0000
     1.0000   1.0000   1.0000   1.0000   1.0000   1.0000   1.0000   1.0000
     1.0000   1.0000   1.0000   1.0000   1.0000   1.0000   1.0000   1.0000
     1.0000   1.0000   1.0000   1.0000   1.0000   1.0000   1.0000   1.0000
     1.0000   1.0000   1.0000   1.0000   1.0000   1.0000   1.0000   1.0000
     1.0000   1.0000   1.0000   1.0000   1.0000   1.0000   1.0000   1.0000
     1.0000   1.0000   1.0000   1.0000   1.0000   1.0000   1.0000   1.0000
     1.0000   1.0000   1.0000   1.0000   1.0000   1.0000   1.0000   1.0000
     1.0000   1.0000   1.0000   1.0000   1.0000   1.0000   1.0000   1.0000
     1.0000   1.0000   1.0000   1.0000   1.0000   1.0000   1.0000   1.0000
     1.0000   1.0000   1.0000   1.0000   0.9996   0.9976   0.2956   0.2701
     0.1290   0.0051   0.0029   0.0005   0.0003   0.0002   0.0001   0.0001
     0.0000   0.0000   0.0000   0.0000   0.0000   0.0000   0.0000   0.0000
     0.0000   0.0000   0.0000   0.0000   0.0000   0.0000   0.0000   0.0000
     0.0000   0.0000

          k = 0.0000-0.5200 0.0000 ( 35392 PWs)   bands (ev):

   -59.2529 -59.2479 -58.9990 -58.9919 -58.8441 -58.8369 -58.8300 -58.7853
   -58.7136 -58.7063 -58.5896 -58.5735 -29.0674 -28.9220 -28.8859 -28.8810
   -28.7852 -28.7799 -28.7575 -28.7198 -28.6958 -28.6769 -28.6479 -28.6325
   -28.6237 -28.5969 -28.5764 -28.5542 -28.5235 -28.5136 -28.4914 -28.4600
   -28.4551 -28.4217 -28.4152 -28.3738 -28.3638 -28.3420 -28.3073 -28.2905
   -28.2663 -28.2311 -28.1882 -28.1674 -28.1499 -28.1414 -28.1204 -28.0935
   -17.2003 -16.9090 -16.6564 -16.5326 -16.3385 -16.2145 -16.1819 -16.0677
   -16.0431 -16.0054 -15.9565 -15.9382 -15.7915 -15.6307 -15.6275 -15.4334
   -15.4250 -15.3023 -15.1984 -15.1736 -14.6713  -5.2004  -5.1289  -4.9911
    -4.7961  -4.6345  -4.5525  -4.4670  -4.4532  -4.2777  -4.2466  -4.2258
    -4.1566  -4.0568  -3.9477  -3.8824  -3.8292  -3.7681  -3.5858  -3.5484
    -3.2885  -3.2247  -3.1341  -3.0904  -2.8866  -2.8556  -2.7642  -2.6402
    -2.6019  -2.4281  -2.3670  -2.2806  -2.2198  -2.0798  -2.0114  -1.9538
    -1.8398  -1.6462  -1.5887  -1.5312  -1.4624  -1.4499  -1.3291  -1.3069
    -1.2591  -1.1748  -1.1659  -1.1055  -1.0333  -0.9590  -0.8959  -0.8305
    -0.7554  -0.6418  -0.5744  -0.5504  -0.4335  -0.3101  -0.2331  -0.2215
     0.0368   0.1602   0.3111   0.3952   3.6367   3.7972   4.0657   4.1363
     4.3655   4.5094   4.5764   5.0252   5.1028   5.2341   5.2466   5.2786
     5.4616   5.5092   5.5617   5.6801   5.7409   5.9698   6.1602   6.3043
     6.4444   6.4815   6.5785   6.8437   6.9840   7.1054   7.1349   7.1934
     7.2724   7.2832

     occupation numbers 
     1.0000   1.0000   1.0000   1.0000   1.0000   1.0000   1.0000   1.0000
     1.0000   1.0000   1.0000   1.0000   1.0000   1.0000   1.0000   1.0000
     1.0000   1.0000   1.0000   1.0000   1.0000   1.0000   1.0000   1.0000
     1.0000   1.0000   1.0000   1.0000   1.0000   1.0000   1.0000   1.0000
     1.0000   1.0000   1.0000   1.0000   1.0000   1.0000   1.0000   1.0000
     1.0000   1.0000   1.0000   1.0000   1.0000   1.0000   1.0000   1.0000
     1.0000   1.0000   1.0000   1.0000   1.0000   1.0000   1.0000   1.0000
     1.0000   1.0000   1.0000   1.0000   1.0000   1.0000   1.0000   1.0000
     1.0000   1.0000   1.0000   1.0000   1.0000   1.0000   1.0000   1.0000
     1.0000   1.0000   1.0000   1.0000   1.0000   1.0000   1.0000   1.0000
     1.0000   1.0000   1.0000   1.0000   1.0000   1.0000   1.0000   1.0000
     1.0000   1.0000   1.0000   1.0000   1.0000   1.0000   1.0000   1.0000
     1.0000   1.0000   1.0000   1.0000   1.0000   1.0000   1.0000   1.0000
     1.0000   1.0000   1.0000   1.0000   1.0000   1.0000   1.0000   1.0000
     1.0000   1.0000   1.0000   1.0000   1.0000   1.0000   1.0000   1.0000
     1.0000   1.0000   1.0000   1.0000   1.0000   1.0000   1.0000   1.0000
     1.0000   1.0000   1.0000   1.0000   0.9716   0.9131   0.5933   0.4648
     0.1388   0.0530   0.0331   0.0013   0.0007   0.0003   0.0002   0.0002
     0.0001   0.0000   0.0000   0.0000   0.0000   0.0000   0.0000   0.0000
     0.0000   0.0000   0.0000   0.0000   0.0000   0.0000   0.0000   0.0000
     0.0000   0.0000

          k = 0.2500 0.0000 0.0000 ( 35470 PWs)   bands (ev):

   -59.2552 -59.2457 -59.0009 -58.9900 -58.8443 -58.8389 -58.8281 -58.7852
   -58.7155 -58.7044 -58.5904 -58.5725 -29.0654 -29.0110 -28.9249 -28.8646
   -28.7926 -28.7909 -28.7597 -28.7186 -28.6819 -28.6638 -28.6520 -28.6387
   -28.6181 -28.6114 -28.5851 -28.5580 -28.5296 -28.5205 -28.4900 -28.4315
   -28.4176 -28.4139 -28.3984 -28.3761 -28.3454 -28.3097 -28.2914 -28.2735
   -28.2517 -28.2290 -28.2036 -28.1745 -28.1426 -28.1141 -28.1027 -28.0867
   -17.5670 -17.2083 -16.7902 -16.6575 -16.3633 -16.3411 -16.2277 -16.1506
   -16.0122 -16.0095 -15.8517 -15.7881 -15.5616 -15.5419 -15.4156 -15.3951
   -15.3178 -15.2617 -15.1702 -15.1105 -14.6222  -5.2078  -5.0822  -4.9494
    -4.8946  -4.7935  -4.6664  -4.5708  -4.5271  -4.3577  -4.3066  -4.1948
    -4.0912  -4.0350  -4.0009  -3.9250  -3.8103  -3.7254  -3.5351  -3.3896
    -3.3432  -3.2520  -3.2081  -3.0401  -3.0254  -2.8392  -2.7727  -2.5758
    -2.5192  -2.3919  -2.3419  -2.2900  -2.2270  -2.1462  -2.0377  -1.9157
    -1.8750  -1.7838  -1.7317  -1.6314  -1.5846  -1.5590  -1.5311  -1.3901
    -1.3580  -1.2682  -1.1531  -1.1058  -0.9731  -0.8734  -0.7999  -0.6573
    -0.6094  -0.5477  -0.4357  -0.4014  -0.3434  -0.1994  -0.1618  -0.0518
    -0.0227   0.0730   0.1183   0.3164   2.9615   3.2725   4.1657   4.3316
     4.6339   4.8625   4.9110   5.1603   5.1776   5.5370   5.5846   5.7182
     5.8604   5.9154   6.0534   6.1243   6.2055   6.3067   6.3639   6.4727
     6.5362   6.6251   6.6459   6.7233   6.7729   6.8819   6.9273   7.0651
     7.1516   7.2513

     occupation numbers 
     1.0000   1.0000   1.0000   1.0000   1.0000   1.0000   1.0000   1.0000
     1.0000   1.0000   1.0000   1.0000   1.0000   1.0000   1.0000   1.0000
     1.0000   1.0000   1.0000   1.0000   1.0000   1.0000   1.0000   1.0000
     1.0000   1.0000   1.0000   1.0000   1.0000   1.0000   1.0000   1.0000
     1.0000   1.0000   1.0000   1.0000   1.0000   1.0000   1.0000   1.0000
     1.0000   1.0000   1.0000   1.0000   1.0000   1.0000   1.0000   1.0000
     1.0000   1.0000   1.0000   1.0000   1.0000   1.0000   1.0000   1.0000
     1.0000   1.0000   1.0000   1.0000   1.0000   1.0000   1.0000   1.0000
     1.0000   1.0000   1.0000   1.0000   1.0000   1.0000   1.0000   1.0000
     1.0000   1.0000   1.0000   1.0000   1.0000   1.0000   1.0000   1.0000
     1.0000   1.0000   1.0000   1.0000   1.0000   1.0000   1.0000   1.0000
     1.0000   1.0000   1.0000   1.0000   1.0000   1.0000   1.0000   1.0000
     1.0000   1.0000   1.0000   1.0000   1.0000   1.0000   1.0000   1.0000
     1.0000   1.0000   1.0000   1.0000   1.0000   1.0000   1.0000   1.0000
     1.0000   1.0000   1.0000   1.0000   1.0000   1.0000   1.0000   1.0000
     1.0000   1.0000   1.0000   1.0000   1.0000   1.0000   1.0000   1.0000
     1.0000   1.0000   1.0000   1.0000   0.9998   0.9980   0.4118   0.1714
     0.0219   0.0042   0.0029   0.0005   0.0004   0.0000   0.0000   0.0000
     0.0000   0.0000   0.0000   0.0000   0.0000   0.0000   0.0000   0.0000
     0.0000   0.0000   0.0000   0.0000   0.0000   0.0000   0.0000   0.0000
     0.0000   0.0000

          k = 0.2500 0.2600 0.0000 ( 35420 PWs)   bands (ev):

   -59.2540 -59.2468 -58.9997 -58.9912 -58.8441 -58.8377 -58.8292 -58.7853
   -58.7143 -58.7056 -58.5899 -58.5731 -29.0796 -29.0178 -28.9339 -28.8767
   -28.8145 -28.7777 -28.7502 -28.7230 -28.7031 -28.6704 -28.6426 -28.6351
   -28.6225 -28.6113 -28.5874 -28.5480 -28.5258 -28.4994 -28.4727 -28.4554
   -28.4442 -28.4211 -28.3891 -28.3694 -28.3341 -28.3238 -28.2953 -28.2704
   -28.2443 -28.2178 -28.1940 -28.1594 -28.1525 -28.1278 -28.1066 -28.0691
   -17.3845 -17.0693 -16.7477 -16.6717 -16.4128 -16.3488 -16.2393 -16.1738
   -16.0273 -16.0027 -15.9096 -15.7438 -15.6281 -15.5400 -15.4665 -15.4189
   -15.3699 -15.2832 -15.1511 -15.0801 -14.6729  -5.1853  -5.0367  -4.8007
    -4.7472  -4.6851  -4.6221  -4.4971  -4.4071  -4.3282  -4.2929  -4.1944
    -4.0864  -3.9983  -3.9471  -3.8493  -3.6364  -3.5257  -3.4075  -3.3430
    -3.3135  -3.2598  -3.1927  -3.1310  -3.0132  -2.9805  -2.8756  -2.7464
    -2.5294  -2.4549  -2.3784  -2.3108  -2.2232  -2.1580  -2.0855  -1.8982
    -1.8119  -1.7778  -1.7329  -1.6205  -1.5716  -1.4943  -1.4309  -1.3958
    -1.3168  -1.2480  -1.1451  -1.0701  -1.0240  -0.9776  -0.9349  -0.7849
    -0.6830  -0.6429  -0.5488  -0.4532  -0.4453  -0.3956  -0.2544  -0.1603
    -0.1136  -0.0056   0.1141   0.3026   3.1576   3.4912   4.0782   4.1327
     4.5988   4.7721   4.8709   5.0447   5.1707   5.2154   5.3690   5.4802
     5.5785   5.7676   5.8397   5.9067   6.0176   6.0901   6.1408   6.3675
     6.4307   6.6103   6.6977   6.7534   6.7727   6.9281   6.9993   7.1286
     7.2100   7.2510

     occupation numbers 
     1.0000   1.0000   1.0000   1.0000   1.0000   1.0000   1.0000   1.0000
     1.0000   1.0000   1.0000   1.0000   1.0000   1.0000   1.0000   1.0000
     1.0000   1.0000   1.0000   1.0000   1.0000   1.0000   1.0000   1.0000
     1.0000   1.0000   1.0000   1.0000   1.0000   1.0000   1.0000   1.0000
     1.0000   1.0000   1.0000   1.0000   1.0000   1.0000   1.0000   1.0000
     1.0000   1.0000   1.0000   1.0000   1.0000   1.0000   1.0000   1.0000
     1.0000   1.0000   1.0000   1.0000   1.0000   1.0000   1.0000   1.0000
     1.0000   1.0000   1.0000   1.0000   1.0000   1.0000   1.0000   1.0000
     1.0000   1.0000   1.0000   1.0000   1.0000   1.0000   1.0000   1.0000
     1.0000   1.0000   1.0000   1.0000   1.0000   1.0000   1.0000   1.0000
     1.0000   1.0000   1.0000   1.0000   1.0000   1.0000   1.0000   1.0000
     1.0000   1.0000   1.0000   1.0000   1.0000   1.0000   1.0000   1.0000
     1.0000   1.0000   1.0000   1.0000   1.0000   1.0000   1.0000   1.0000
     1.0000   1.0000   1.0000   1.0000   1.0000   1.0000   1.0000   1.0000
     1.0000   1.0000   1.0000   1.0000   1.0000   1.0000   1.0000   1.0000
     1.0000   1.0000   1.0000   1.0000   1.0000   1.0000   1.0000   1.0000
     1.0000   1.0000   1.0000   1.0000   0.9991   0.9901   0.5710   0.4715
     0.0282   0.0081   0.0039   0.0011   0.0004   0.0003   0.0001   0.0000
     0.0000   0.0000   0.0000   0.0000   0.0000   0.0000   0.0000   0.0000
     0.0000   0.0000   0.0000   0.0000   0.0000   0.0000   0.0000   0.0000
     0.0000   0.0000

          k = 0.2500-0.5200 0.0000 ( 35366 PWs)   bands (ev):

   -59.2522 -59.2486 -58.9979 -58.9929 -58.8440 -58.8359 -58.8310 -58.7853
   -58.7127 -58.7072 -58.5894 -58.5738 -29.0859 -29.0286 -28.9344 -28.9161
   -28.7912 -28.7873 -28.7529 -28.7429 -28.6927 -28.6759 -28.6556 -28.6493
   -28.6171 -28.6036 -28.5982 -28.5711 -28.5272 -28.5159 -28.4921 -28.4606
   -28.4251 -28.3913 -28.3779 -28.3591 -28.3440 -28.3043 -28.2825 -28.2515
   -28.2427 -28.2177 -28.1901 -28.1521 -28.1360 -28.1164 -28.1047 -28.0927
   -17.1425 -16.8734 -16.7194 -16.6793 -16.4621 -16.3923 -16.3164 -16.2596
   -16.1254 -16.0445 -15.9977 -15.7391 -15.6890 -15.5492 -15.4377 -15.4006
   -15.3126 -15.2705 -15.1748 -15.1230 -14.5938  -5.0553  -5.0225  -4.8166
    -4.6095  -4.5758  -4.4835  -4.3412  -4.3160  -4.2115  -4.1702  -4.0893
    -4.0362  -3.9378  -3.8717  -3.7884  -3.7412  -3.6373  -3.5650  -3.4262
    -3.3473  -3.3087  -3.0078  -2.9637  -2.9007  -2.7960  -2.7315  -2.6631
    -2.6074  -2.4621  -2.4094  -2.3541  -2.2852  -2.2642  -2.2124  -2.0457
    -1.9483  -1.8966  -1.8597  -1.7252  -1.5909  -1.5001  -1.3975  -1.3833
    -1.3344  -1.2402  -1.1928  -1.1296  -1.0324  -0.9881  -0.8868  -0.8469
    -0.7438  -0.7166  -0.6017  -0.5586  -0.4909  -0.4352  -0.2926  -0.2279
    -0.2157  -0.0671   0.1040   0.2839   3.6703   3.7254   4.0440   4.1250
     4.4597   4.4828   4.6647   4.9796   5.0241   5.0973   5.1625   5.3022
     5.3822   5.4561   5.6017   5.6967   5.7716   5.9884   6.1107   6.1795
     6.3740   6.4781   6.6679   6.7113   6.8694   6.9566   7.0331   7.1888
     7.2312   7.2802

     occupation numbers 
     1.0000   1.0000   1.0000   1.0000   1.0000   1.0000   1.0000   1.0000
     1.0000   1.0000   1.0000   1.0000   1.0000   1.0000   1.0000   1.0000
     1.0000   1.0000   1.0000   1.0000   1.0000   1.0000   1.0000   1.0000
     1.0000   1.0000   1.0000   1.0000   1.0000   1.0000   1.0000   1.0000
     1.0000   1.0000   1.0000   1.0000   1.0000   1.0000   1.0000   1.0000
     1.0000   1.0000   1.0000   1.0000   1.0000   1.0000   1.0000   1.0000
     1.0000   1.0000   1.0000   1.0000   1.0000   1.0000   1.0000   1.0000
     1.0000   1.0000   1.0000   1.0000   1.0000   1.0000   1.0000   1.0000
     1.0000   1.0000   1.0000   1.0000   1.0000   1.0000   1.0000   1.0000
     1.0000   1.0000   1.0000   1.0000   1.0000   1.0000   1.0000   1.0000
     1.0000   1.0000   1.0000   1.0000   1.0000   1.0000   1.0000   1.0000
     1.0000   1.0000   1.0000   1.0000   1.0000   1.0000   1.0000   1.0000
     1.0000   1.0000   1.0000   1.0000   1.0000   1.0000   1.0000   1.0000
     1.0000   1.0000   1.0000   1.0000   1.0000   1.0000   1.0000   1.0000
     1.0000   1.0000   1.0000   1.0000   1.0000   1.0000   1.0000   1.0000
     1.0000   1.0000   1.0000   1.0000   1.0000   1.0000   1.0000   1.0000
     1.0000   1.0000   1.0000   1.0000   0.9639   0.9468   0.6313   0.4855
     0.0746   0.0637   0.0176   0.0018   0.0013   0.0007   0.0005   0.0002
     0.0001   0.0001   0.0000   0.0000   0.0000   0.0000   0.0000   0.0000
     0.0000   0.0000   0.0000   0.0000   0.0000   0.0000   0.0000   0.0000
     0.0000   0.0000

          k = 0.2500-0.2600 0.0000 ( 35420 PWs)   bands (ev):

   -59.2540 -59.2468 -58.9997 -58.9912 -58.8442 -58.8377 -58.8292 -58.7852
   -58.7143 -58.7056 -58.5899 -58.5731 -29.0797 -29.0177 -28.9339 -28.8767
   -28.8145 -28.7778 -28.7503 -28.7241 -28.7033 -28.6726 -28.6572 -28.6387
   -28.6317 -28.6172 -28.5877 -28.5655 -28.5376 -28.4990 -28.4780 -28.4604
   -28.4287 -28.4124 -28.3831 -28.3481 -28.3325 -28.3140 -28.2988 -28.2595
   -28.2286 -28.2184 -28.1974 -28.1636 -28.1430 -28.1392 -28.0965 -28.0728
   -17.3851 -17.0816 -16.7713 -16.6725 -16.4253 -16.3575 -16.2534 -16.1964
   -16.0479 -16.0201 -15.9099 -15.7447 -15.6282 -15.5386 -15.4362 -15.4096
   -15.3211 -15.2879 -15.1729 -15.1183 -14.5482  -5.1837  -5.0353  -4.7907
    -4.7468  -4.6958  -4.6294  -4.4806  -4.4027  -4.3426  -4.2867  -4.1901
    -4.1023  -3.9931  -3.9393  -3.8443  -3.6244  -3.5119  -3.3845  -3.3417
    -3.3191  -3.2464  -3.1804  -3.1398  -3.0214  -2.9501  -2.8449  -2.7459
    -2.5564  -2.5134  -2.3937  -2.3236  -2.1810  -2.1328  -2.0598  -1.9683
    -1.8969  -1.7898  -1.7653  -1.6583  -1.5965  -1.5220  -1.4526  -1.4171
    -1.2887  -1.2584  -1.1881  -1.1107  -1.0186  -0.9848  -0.8355  -0.7762
    -0.6557  -0.5954  -0.4948  -0.4498  -0.4265  -0.3957  -0.2930  -0.1573
    -0.1198   0.0068   0.1303   0.2835   3.3612   3.4916   4.0786   4.3250
     4.4693   4.5991   4.8704   5.1649   5.2112   5.2864   5.4733   5.5555
     5.6792   5.8023   5.8646   5.9324   5.9805   6.0311   6.1913   6.2403
     6.3717   6.4749   6.6285   6.7266   6.7713   6.8972   7.0234   7.0756
     7.1525   7.2148

     occupation numbers 
     1.0000   1.0000   1.0000   1.0000   1.0000   1.0000   1.0000   1.0000
     1.0000   1.0000   1.0000   1.0000   1.0000   1.0000   1.0000   1.0000
     1.0000   1.0000   1.0000   1.0000   1.0000   1.0000   1.0000   1.0000
     1.0000   1.0000   1.0000   1.0000   1.0000   1.0000   1.0000   1.0000
     1.0000   1.0000   1.0000   1.0000   1.0000   1.0000   1.0000   1.0000
     1.0000   1.0000   1.0000   1.0000   1.0000   1.0000   1.0000   1.0000
     1.0000   1.0000   1.0000   1.0000   1.0000   1.0000   1.0000   1.0000
     1.0000   1.0000   1.0000   1.0000   1.0000   1.0000   1.0000   1.0000
     1.0000   1.0000   1.0000   1.0000   1.0000   1.0000   1.0000   1.0000
     1.0000   1.0000   1.0000   1.0000   1.0000   1.0000   1.0000   1.0000
     1.0000   1.0000   1.0000   1.0000   1.0000   1.0000   1.0000   1.0000
     1.0000   1.0000   1.0000   1.0000   1.0000   1.0000   1.0000   1.0000
     1.0000   1.0000   1.0000   1.0000   1.0000   1.0000   1.0000   1.0000
     1.0000   1.0000   1.0000   1.0000   1.0000   1.0000   1.0000   1.0000
     1.0000   1.0000   1.0000   1.0000   1.0000   1.0000   1.0000   1.0000
     1.0000   1.0000   1.0000   1.0000   1.0000   1.0000   1.0000   1.0000
     1.0000   1.0000   1.0000   1.0000   0.9962   0.9900   0.5704   0.1784
     0.0699   0.0281   0.0039   0.0005   0.0003   0.0002   0.0000   0.0000
     0.0000   0.0000   0.0000   0.0000   0.0000   0.0000   0.0000   0.0000
     0.0000   0.0000   0.0000   0.0000   0.0000   0.0000   0.0000   0.0000
     0.0000   0.0000

          k =-0.5000 0.0000 0.0000 ( 35502 PWs)   bands (ev):

   -59.2505 -59.2504 -58.9961 -58.9948 -58.8440 -58.8336 -58.8333 -58.7855
   -58.7113 -58.7086 -58.5889 -58.5741 -28.9985 -28.9982 -28.8720 -28.8718
   -28.7839 -28.7836 -28.7164 -28.7162 -28.6854 -28.6852 -28.6506 -28.6505
   -28.5975 -28.5795 -28.5764 -28.5692 -28.5409 -28.5404 -28.4858 -28.4842
   -28.4254 -28.4206 -28.4042 -28.3956 -28.3653 -28.3454 -28.2875 -28.2800
   -28.2724 -28.2280 -28.1921 -28.1877 -28.1603 -28.1274 -28.1236 -28.0943
   -16.9620 -16.9610 -16.6852 -16.6787 -16.4989 -16.4789 -16.2584 -16.2410
   -15.9936 -15.9818 -15.7971 -15.7966 -15.5857 -15.5852 -15.4608 -15.4587
   -15.4059 -15.3552 -15.3083 -15.2501 -14.6822  -4.8436  -4.8427  -4.5923
    -4.5911  -4.4196  -4.4083  -4.2926  -4.2831  -4.1951  -4.1850  -4.0520
    -3.9876  -3.8776  -3.8721  -3.7913  -3.7843  -3.6760  -3.6542  -3.5434
    -3.5290  -3.4224  -3.4117  -3.3147  -3.2993  -3.1830  -3.1392  -2.7466
    -2.6846  -2.5476  -2.4798  -2.3739  -2.3192  -2.1953  -2.1590  -2.0780
    -1.9652  -1.8370  -1.7641  -1.6658  -1.6156  -1.5331  -1.3694  -1.3432
    -1.2854  -1.2488  -1.1407  -1.0818  -1.0400  -0.9296  -0.7826  -0.7169
    -0.7081  -0.6233  -0.5557  -0.4523  -0.4109  -0.4039  -0.3937  -0.2305
    -0.2034  -0.1158  -0.0860   0.2297   3.3798   3.9822   3.9902   3.9912
     4.6285   5.0189   5.0195   5.0889   5.1834   5.1838   5.4217   5.8519
     5.8528   5.9198   5.9242   6.0320   6.1415   6.1851   6.3144   6.3973
     6.4819   6.6055   6.6746   6.7662   6.8197   7.0095   7.0267   7.0736
     7.0873   7.1211

     occupation numbers 
     1.0000   1.0000   1.0000   1.0000   1.0000   1.0000   1.0000   1.0000
     1.0000   1.0000   1.0000   1.0000   1.0000   1.0000   1.0000   1.0000
     1.0000   1.0000   1.0000   1.0000   1.0000   1.0000   1.0000   1.0000
     1.0000   1.0000   1.0000   1.0000   1.0000   1.0000   1.0000   1.0000
     1.0000   1.0000   1.0000   1.0000   1.0000   1.0000   1.0000   1.0000
     1.0000   1.0000   1.0000   1.0000   1.0000   1.0000   1.0000   1.0000
     1.0000   1.0000   1.0000   1.0000   1.0000   1.0000   1.0000   1.0000
     1.0000   1.0000   1.0000   1.0000   1.0000   1.0000   1.0000   1.0000
     1.0000   1.0000   1.0000   1.0000   1.0000   1.0000   1.0000   1.0000
     1.0000   1.0000   1.0000   1.0000   1.0000   1.0000   1.0000   1.0000
     1.0000   1.0000   1.0000   1.0000   1.0000   1.0000   1.0000   1.0000
     1.0000   1.0000   1.0000   1.0000   1.0000   1.0000   1.0000   1.0000
     1.0000   1.0000   1.0000   1.0000   1.0000   1.0000   1.0000   1.0000
     1.0000   1.0000   1.0000   1.0000   1.0000   1.0000   1.0000   1.0000
     1.0000   1.0000   1.0000   1.0000   1.0000   1.0000   1.0000   1.0000
     1.0000   1.0000   1.0000   1.0000   1.0000   1.0000   1.0000   1.0000
     1.0000   1.0000   1.0000   1.0000   0.9956   0.7295   0.7176   0.7162
     0.0228   0.0013   0.0013   0.0008   0.0004   0.0004   0.0001   0.0000
     0.0000   0.0000   0.0000   0.0000   0.0000   0.0000   0.0000   0.0000
     0.0000   0.0000   0.0000   0.0000   0.0000   0.0000   0.0000   0.0000
     0.0000   0.0000

          k =-0.5000 0.2600 0.0000 ( 35450 PWs)   bands (ev):

   -59.2504 -59.2503 -58.9960 -58.9948 -58.8439 -58.8336 -58.8333 -58.7854
   -58.7113 -58.7086 -58.5890 -58.5742 -29.0535 -29.0532 -28.9224 -28.9223
   -28.7940 -28.7938 -28.7435 -28.7432 -28.6786 -28.6771 -28.6511 -28.6486
   -28.6197 -28.6041 -28.5895 -28.5805 -28.5256 -28.5221 -28.4951 -28.4708
   -28.4279 -28.3897 -28.3740 -28.3617 -28.3397 -28.3128 -28.2636 -28.2480
   -28.2431 -28.2226 -28.1956 -28.1550 -28.1381 -28.1150 -28.1065 -28.0934
   -16.9678 -16.9669 -16.7067 -16.7030 -16.5631 -16.5439 -16.3492 -16.3362
   -16.0554 -16.0436 -15.8246 -15.8233 -15.5599 -15.5557 -15.4236 -15.4038
   -15.3073 -15.2739 -15.2049 -15.1554 -14.5981  -4.8943  -4.8912  -4.5823
    -4.5723  -4.3823  -4.3608  -4.2607  -4.2559  -4.1245  -4.1127  -3.9927
    -3.9400  -3.8641  -3.8456  -3.7504  -3.7349  -3.6611  -3.6349  -3.4755
    -3.4496  -3.2524  -3.2352  -3.1502  -3.1291  -2.9240  -2.9047  -2.7155
    -2.6832  -2.5600  -2.5314  -2.3365  -2.2714  -2.2293  -2.1961  -2.0271
    -1.9900  -1.9744  -1.8900  -1.7623  -1.6827  -1.6002  -1.5483  -1.4194
    -1.3650  -1.2806  -1.2336  -1.1753  -1.0705  -1.0233  -0.9012  -0.8720
    -0.7283  -0.6383  -0.5857  -0.5401  -0.4975  -0.4102  -0.3928  -0.2909
    -0.2440  -0.0985  -0.0459   0.1815   3.5421   3.9084   3.9091   4.0937
     4.4440   4.7996   4.8003   4.9961   4.9977   5.2095   5.5045   5.5202
     5.5666   5.7514   5.7914   5.9504   6.0128   6.1167   6.1802   6.2472
     6.2943   6.4457   6.5259   6.5965   6.7262   6.7974   6.9668   7.0301
     7.0839   7.1662

     occupation numbers 
     1.0000   1.0000   1.0000   1.0000   1.0000   1.0000   1.0000   1.0000
     1.0000   1.0000   1.0000   1.0000   1.0000   1.0000   1.0000   1.0000
     1.0000   1.0000   1.0000   1.0000   1.0000   1.0000   1.0000   1.0000
     1.0000   1.0000   1.0000   1.0000   1.0000   1.0000   1.0000   1.0000
     1.0000   1.0000   1.0000   1.0000   1.0000   1.0000   1.0000   1.0000
     1.0000   1.0000   1.0000   1.0000   1.0000   1.0000   1.0000   1.0000
     1.0000   1.0000   1.0000   1.0000   1.0000   1.0000   1.0000   1.0000
     1.0000   1.0000   1.0000   1.0000   1.0000   1.0000   1.0000   1.0000
     1.0000   1.0000   1.0000   1.0000   1.0000   1.0000   1.0000   1.0000
     1.0000   1.0000   1.0000   1.0000   1.0000   1.0000   1.0000   1.0000
     1.0000   1.0000   1.0000   1.0000   1.0000   1.0000   1.0000   1.0000
     1.0000   1.0000   1.0000   1.0000   1.0000   1.0000   1.0000   1.0000
     1.0000   1.0000   1.0000   1.0000   1.0000   1.0000   1.0000   1.0000
     1.0000   1.0000   1.0000   1.0000   1.0000   1.0000   1.0000   1.0000
     1.0000   1.0000   1.0000   1.0000   1.0000   1.0000   1.0000   1.0000
     1.0000   1.0000   1.0000   1.0000   1.0000   1.0000   1.0000   1.0000
     1.0000   1.0000   1.0000   1.0000   0.9856   0.8226   0.8219   0.5430
     0.0830   0.0066   0.0066   0.0016   0.0015   0.0003   0.0000   0.0000
     0.0000   0.0000   0.0000   0.0000   0.0000   0.0000   0.0000   0.0000
     0.0000   0.0000   0.0000   0.0000   0.0000   0.0000   0.0000   0.0000
     0.0000   0.0000

          k =-0.5000-0.5200 0.0000 ( 35320 PWs)   bands (ev):

   -59.2504 -59.2503 -58.9960 -58.9948 -58.8439 -58.8336 -58.8332 -58.7854
   -58.7113 -58.7086 -58.5891 -58.5742 -29.0931 -29.0928 -28.9691 -28.9690
   -28.8268 -28.8264 -28.7438 -28.7426 -28.6937 -28.6924 -28.6674 -28.6546
   -28.6380 -28.6259 -28.5792 -28.5619 -28.5210 -28.4899 -28.4871 -28.4717
   -28.4167 -28.3820 -28.3388 -28.3294 -28.3277 -28.3071 -28.2365 -28.2243
   -28.2074 -28.2049 -28.1951 -28.1552 -28.1215 -28.1098 -28.0786 -28.0737
   -16.9785 -16.9779 -16.7292 -16.7281 -16.6014 -16.5920 -16.4364 -16.4192
   -16.1212 -16.0929 -15.8553 -15.8522 -15.5257 -15.5230 -15.3630 -15.3504
   -15.2072 -15.2021 -15.1430 -15.0848 -14.5246  -4.7645  -4.7614  -4.5267
    -4.5249  -4.3865  -4.3697  -4.2245  -4.2050  -4.1086  -4.0842  -4.0095
    -4.0045  -3.8946  -3.8676  -3.8407  -3.8238  -3.6483  -3.5981  -3.2597
    -3.2098  -3.0885  -3.0456  -3.0351  -2.9242  -2.7888  -2.7865  -2.7553
    -2.7195  -2.5768  -2.5651  -2.4022  -2.3645  -2.1455  -2.0796  -1.9921
    -1.9532  -1.9144  -1.8895  -1.8215  -1.8037  -1.7261  -1.6439  -1.5042
    -1.3121  -1.2935  -1.2379  -1.2039  -1.1383  -1.0753  -0.9751  -0.8627
    -0.7796  -0.7634  -0.7189  -0.6407  -0.5033  -0.4943  -0.4519  -0.3787
    -0.2951  -0.1544  -0.1417   0.1186   3.7874   3.7953   3.7966   3.9905
     4.4811   4.4814   4.6230   5.0731   5.0827   5.1405   5.2320   5.2447
     5.4254   5.4895   5.5103   5.7669   5.8644   5.9649   6.0851   6.0895
     6.2037   6.3270   6.4841   6.5617   6.6729   6.8206   6.8958   7.0686
     7.1244   7.2835

     occupation numbers 
     1.0000   1.0000   1.0000   1.0000   1.0000   1.0000   1.0000   1.0000
     1.0000   1.0000   1.0000   1.0000   1.0000   1.0000   1.0000   1.0000
     1.0000   1.0000   1.0000   1.0000   1.0000   1.0000   1.0000   1.0000
     1.0000   1.0000   1.0000   1.0000   1.0000   1.0000   1.0000   1.0000
     1.0000   1.0000   1.0000   1.0000   1.0000   1.0000   1.0000   1.0000
     1.0000   1.0000   1.0000   1.0000   1.0000   1.0000   1.0000   1.0000
     1.0000   1.0000   1.0000   1.0000   1.0000   1.0000   1.0000   1.0000
     1.0000   1.0000   1.0000   1.0000   1.0000   1.0000   1.0000   1.0000
     1.0000   1.0000   1.0000   1.0000   1.0000   1.0000   1.0000   1.0000
     1.0000   1.0000   1.0000   1.0000   1.0000   1.0000   1.0000   1.0000
     1.0000   1.0000   1.0000   1.0000   1.0000   1.0000   1.0000   1.0000
     1.0000   1.0000   1.0000   1.0000   1.0000   1.0000   1.0000   1.0000
     1.0000   1.0000   1.0000   1.0000   1.0000   1.0000   1.0000   1.0000
     1.0000   1.0000   1.0000   1.0000   1.0000   1.0000   1.0000   1.0000
     1.0000   1.0000   1.0000   1.0000   1.0000   1.0000   1.0000   1.0000
     1.0000   1.0000   1.0000   1.0000   1.0000   1.0000   1.0000   1.0000
     1.0000   1.0000   1.0000   1.0000   0.9186   0.9141   0.9134   0.7173
     0.0645   0.0643   0.0237   0.0009   0.0008   0.0005   0.0003   0.0003
     0.0001   0.0000   0.0000   0.0000   0.0000   0.0000   0.0000   0.0000
     0.0000   0.0000   0.0000   0.0000   0.0000   0.0000   0.0000   0.0000
     0.0000   0.0000

     the Fermi energy is     4.1171 ev

!    total energy              =   -1853.44037619 Ry
     estimated scf accuracy    <          4.3E-10 Ry
     smearing contrib. (-TS)   =      -0.03683473 Ry
     internal energy E=F+TS    =   -1853.40354146 Ry

     The total energy is F=E-TS. E is the sum of the following terms:
     one-electron contribution =  -41393.29411805 Ry
     hartree contribution      =   20723.86087738 Ry
     xc contribution           =    -289.34737954 Ry
     ewald contribution        =   19105.37755070 Ry
     electric field correction =      -0.00047195 Ry

     convergence has been achieved in   7 iterations

     Forces acting on atoms (cartesian axes, Ry/au):

     atom    1 type  1   force =     0.01547987   -0.01587432    0.07318495
     atom    2 type  1   force =     0.00024728   -0.00185422    0.00986908
     atom    3 type  1   force =     0.00533727   -0.00493862    0.00819052
     atom    4 type  1   force =     0.01554169    0.01584172    0.07317793
     atom    5 type  1   force =     0.00060921    0.00170259    0.00984275
     atom    6 type  1   force =    -0.00211087    0.01337483    0.01546505
     atom    7 type  1   force =    -0.00385167    0.00872855    0.01282139
     atom    8 type  1   force =    -0.00028221    0.00103555    0.00872426
     atom    9 type  1   force =     0.02866331    0.05692199   -0.03433313
     atom   10 type  1   force =    -0.00361101   -0.00884108    0.01278846
     atom   11 type  1   force =     0.00012841   -0.00114124    0.01012569
     atom   12 type  1   force =    -0.06043048   -0.03655700   -0.02726248
     atom   13 type  2   force =    -0.01630956    0.02019162   -0.02493743
     atom   14 type  2   force =    -0.00071744    0.00135593   -0.00415621
     atom   15 type  2   force =     0.01098379   -0.01496151    0.00810657
     atom   16 type  2   force =    -0.01620534   -0.02015224   -0.02513392
     atom   17 type  2   force =    -0.00051280   -0.00120629   -0.00418266
     atom   18 type  2   force =     0.01207483    0.01279563   -0.01522586
     atom   19 type  2   force =     0.00399927   -0.00230732   -0.06018621
     atom   20 type  2   force =     0.00059224   -0.00004509   -0.00487831
     atom   21 type  2   force =    -0.00448602   -0.01173738    0.02419134
     atom   22 type  2   force =     0.00082113    0.00309460   -0.00213328
     atom   23 type  2   force =     0.00150048    0.00110563   -0.00463736
     atom   24 type  2   force =     0.00075535   -0.00305409   -0.00187506
     atom   25 type  2   force =     0.00023130   -0.00076991   -0.00433605
     atom   26 type  2   force =     0.00053926   -0.00022745    0.00033258
     atom   27 type  2   force =     0.00400206    0.00228121   -0.06017498
     atom   28 type  2   force =    -0.00069464   -0.00005168   -0.00729420
     atom   29 type  2   force =     0.00057478    0.00002291   -0.00481937
     atom   30 type  2   force =    -0.00078078   -0.00001229   -0.00175296
     atom   31 type  2   force =     0.01066544   -0.01595583    0.03014014
     atom   32 type  2   force =    -0.00069562    0.00022604   -0.00717297
     atom   33 type  2   force =    -0.00205852    0.00100877   -0.00246824
     The non-local contrib.  to forces
     atom    1 type  1   force =    -0.01955343    0.01743360   -0.07741506
     atom    2 type  1   force =    -0.03042537    0.06476803    0.03263806
     atom    3 type  1   force =    -0.03398147    0.06846645    0.04087796
     atom    4 type  1   force =    -0.01941144   -0.01735541   -0.07747027
     atom    5 type  1   force =    -0.03077348   -0.06479637    0.03261521
     atom    6 type  1   force =    -0.03049843   -0.07171812    0.03196503
     atom    7 type  1   force =     0.03184787   -0.07181487    0.01794403
     atom    8 type  1   force =     0.03044802   -0.06395042    0.03341093
     atom    9 type  1   force =     0.01485803   -0.12210416    0.18182872
     atom   10 type  1   force =     0.03194336    0.07181307    0.01796615
     atom   11 type  1   force =     0.03049334    0.06421958    0.03356618
     atom   12 type  1   force =     0.10695162    0.00513313    0.19776240
     atom   13 type  2   force =    -0.08632858    0.07685634    0.03788901
     atom   14 type  2   force =    -0.05376431    0.04733609    0.03190900
     atom   15 type  2   force =    -0.04234815    0.02446374    0.02977878
     atom   16 type  2   force =    -0.08571565   -0.07635702    0.03745596
     atom   17 type  2   force =    -0.05305649   -0.04667468    0.03181870
     atom   18 type  2   force =    -0.03333216   -0.01830615    0.00751962
     atom   19 type  2   force =    -0.04576164   -0.15011519   -0.04243982
     atom   20 type  2   force =    -0.05225666   -0.14667578    0.00586149
     atom   21 type  2   force =    -0.06504116   -0.16910787    0.03734912
     atom   22 type  2   force =     0.05485944    0.04896862    0.03686877
     atom   23 type  2   force =     0.05465770    0.04676716    0.03086480
     atom   24 type  2   force =     0.05499952   -0.04925185    0.03680622
     atom   25 type  2   force =     0.05265489   -0.04644526    0.03039648
     atom   26 type  2   force =     0.15138024   -0.17947528   -0.32343822
     atom   27 type  2   force =    -0.04569756    0.15006880   -0.04243772
     atom   28 type  2   force =     0.05237721    0.14634678    0.00005690
     atom   29 type  2   force =    -0.05242185    0.14651924    0.00600312
     atom   30 type  2   force =     0.05286587    0.14659808    0.01051196
     atom   31 type  2   force =    -0.03292612    0.13049558    0.03269275
     atom   32 type  2   force =     0.05238489   -0.14653055    0.00017539
     atom   33 type  2   force =     0.04980233   -0.14492269    0.00982792
     The ionic contribution  to forces
     atom    1 type  1   force =    -1.52878986    1.02840423 -240.46888540
     atom    2 type  1   force =    -1.80759949   -2.70611508  -48.29054272
     atom    3 type  1   force =    -2.11360821   -2.51596551  146.41069196
     atom    4 type  1   force =    -1.52591236   -1.02735551 -240.46932259
     atom    5 type  1   force =    -1.80318758    2.70465208  -48.28923701
     atom    6 type  1   force =    -1.48387461    2.77117929  147.51427167
     atom    7 type  1   force =     1.80518414    2.50026667 -145.90831627
     atom    8 type  1   force =     1.77581454    2.71352543   49.28682557
     atom    9 type  1   force =    -3.87893792   -1.34190098  236.80614471
     atom   10 type  1   force =     1.81769342   -2.50024305 -145.90607968
     atom   11 type  1   force =     1.83196867   -2.71293214   49.29502850
     atom   12 type  1   force =     6.37228792   -0.63683163  236.96134306
     atom   13 type  2   force =     0.85452831    0.36071834 -108.77810709
     atom   14 type  2   force =     0.86481652    0.79727684  -12.11821605
     atom   15 type  2   force =     0.09130968    0.62167229   85.55540980
     atom   16 type  2   force =     0.85580330   -0.36221570 -108.76195224
     atom   17 type  2   force =     0.86816934   -0.79905578  -12.10155745
     atom   18 type  2   force =     1.57225479   -0.97958368   85.12838248
     atom   19 type  2   force =     0.37643215    2.31165836  -98.26708614
     atom   20 type  2   force =     0.36456996    2.42155155   -0.02707431
     atom   21 type  2   force =     0.77666138    2.57867987   97.59722499
     atom   22 type  2   force =    -0.86356475    0.78164447  -60.85464852
     atom   23 type  2   force =    -0.86154314    0.79196687   36.71985750
     atom   24 type  2   force =    -0.86708579   -0.77986940  -60.85791700
     atom   25 type  2   force =    -0.87015012   -0.80406415   36.64697342
     atom   26 type  2   force =    -1.96701145    1.51700007  123.43457391
     atom   27 type  2   force =     0.37578421   -2.31348484  -98.26872382
     atom   28 type  2   force =    -0.36310930   -2.41323397  -48.84293747
     atom   29 type  2   force =     0.36112488   -2.42142218   -0.02466788
     atom   30 type  2   force =    -0.39521526   -2.39940129   48.80221710
     atom   31 type  2   force =     0.05615701   -2.03718142   98.17484361
     atom   32 type  2   force =    -0.36232056    2.41551847  -48.84294034
     atom   33 type  2   force =    -0.32864983    2.43514146   48.74442373
     The local contribution  to forces
     atom    1 type  1   force =     1.56382379   -1.06171614  240.61954725
     atom    2 type  1   force =     1.83827203    2.63949105   48.26780840
     atom    3 type  1   force =     2.15292598    2.44255846 -146.44333599
     atom    4 type  1   force =     1.56086614    1.06055289  240.62003260
     atom    5 type  1   force =     1.83457029   -2.63815511   48.26649917
     atom    6 type  1   force =     1.51226283   -2.68608797 -147.53072639
     atom    7 type  1   force =    -1.84088390   -2.41972500  145.90323863
     atom    8 type  1   force =    -1.80654498   -2.64854139  -49.31148733
     atom    9 type  1   force =     3.89273624    1.52091855 -237.02223534
     atom   10 type  1   force =    -1.85324796    2.41958695  145.90094704
     atom   11 type  1   force =    -1.86233358    2.64756949  -49.31844409
     atom   12 type  1   force =    -6.53966164    0.59514364 -237.18629652
     atom   13 type  2   force =    -0.78450874   -0.41738578  108.71530830
     atom   14 type  2   force =    -0.81176995   -0.84325895   12.08215818
     atom   15 type  2   force =    -0.03797925   -0.66110030  -85.57705663
     atom   16 type  2   force =    -0.78629243    0.41841939  108.69939010
     atom   17 type  2   force =    -0.81562585    0.84452233   12.06556335
     atom   18 type  2   force =    -1.52684576    1.01068408  -85.15110346
     atom   19 type  2   force =    -0.32667175   -2.16385209   98.24936592
     atom   20 type  2   force =    -0.31172125   -2.27492279    0.01633971
     atom   21 type  2   force =    -0.71610607   -2.42131050  -97.61035150
     atom   22 type  2   force =     0.80952638   -0.82752016   60.81566214
     atom   23 type  2   force =     0.80838590   -0.83762998  -36.75535476
     atom   24 type  2   force =     0.81284163    0.82606519   60.81925152
     atom   25 type  2   force =     0.81772633    0.84973735  -36.68170137
     atom   26 type  2   force =     1.81617305   -1.33775609 -123.11076606
     atom   27 type  2   force =    -0.32608502    2.16569520   98.25101277
     atom   28 type  2   force =     0.31003734    2.26683381   48.83560036
     atom   29 type  2   force =    -0.30812848    2.27492408    0.01385051
     atom   30 type  2   force =     0.34156828    2.25278888  -48.81447496
     atom   31 type  2   force =    -0.01256677    1.89072842  -98.17736266
     atom   32 type  2   force =     0.30923998   -2.26876400   48.83560606
     atom   33 type  2   force =     0.27678881   -2.28921171  -48.75671311
     The core correction contribution to forces
     atom    1 type  1   force =     0.00000000    0.00000000    0.00000000
     atom    2 type  1   force =     0.00000000    0.00000000    0.00000000
     atom    3 type  1   force =     0.00000000    0.00000000    0.00000000
     atom    4 type  1   force =     0.00000000    0.00000000    0.00000000
     atom    5 type  1   force =     0.00000000    0.00000000    0.00000000
     atom    6 type  1   force =     0.00000000    0.00000000    0.00000000
     atom    7 type  1   force =     0.00000000    0.00000000    0.00000000
     atom    8 type  1   force =     0.00000000    0.00000000    0.00000000
     atom    9 type  1   force =     0.00000000    0.00000000    0.00000000
     atom   10 type  1   force =     0.00000000    0.00000000    0.00000000
     atom   11 type  1   force =     0.00000000    0.00000000    0.00000000
     atom   12 type  1   force =     0.00000000    0.00000000    0.00000000
     atom   13 type  2   force =     0.00000000    0.00000000    0.00000000
     atom   14 type  2   force =     0.00000000    0.00000000    0.00000000
     atom   15 type  2   force =     0.00000000    0.00000000    0.00000000
     atom   16 type  2   force =     0.00000000    0.00000000    0.00000000
     atom   17 type  2   force =     0.00000000    0.00000000    0.00000000
     atom   18 type  2   force =     0.00000000    0.00000000    0.00000000
     atom   19 type  2   force =     0.00000000    0.00000000    0.00000000
     atom   20 type  2   force =     0.00000000    0.00000000    0.00000000
     atom   21 type  2   force =     0.00000000    0.00000000    0.00000000
     atom   22 type  2   force =     0.00000000    0.00000000    0.00000000
     atom   23 type  2   force =     0.00000000    0.00000000    0.00000000
     atom   24 type  2   force =     0.00000000    0.00000000    0.00000000
     atom   25 type  2   force =     0.00000000    0.00000000    0.00000000
     atom   26 type  2   force =     0.00000000    0.00000000    0.00000000
     atom   27 type  2   force =     0.00000000    0.00000000    0.00000000
     atom   28 type  2   force =     0.00000000    0.00000000    0.00000000
     atom   29 type  2   force =     0.00000000    0.00000000    0.00000000
     atom   30 type  2   force =     0.00000000    0.00000000    0.00000000
     atom   31 type  2   force =     0.00000000    0.00000000    0.00000000
     atom   32 type  2   force =     0.00000000    0.00000000    0.00000000
     atom   33 type  2   force =     0.00000000    0.00000000    0.00000000
     The Hubbard contrib.    to forces
     atom    1 type  1   force =     0.00000000    0.00000000    0.00000000
     atom    2 type  1   force =     0.00000000    0.00000000    0.00000000
     atom    3 type  1   force =     0.00000000    0.00000000    0.00000000
     atom    4 type  1   force =     0.00000000    0.00000000    0.00000000
     atom    5 type  1   force =     0.00000000    0.00000000    0.00000000
     atom    6 type  1   force =     0.00000000    0.00000000    0.00000000
     atom    7 type  1   force =     0.00000000    0.00000000    0.00000000
     atom    8 type  1   force =     0.00000000    0.00000000    0.00000000
     atom    9 type  1   force =     0.00000000    0.00000000    0.00000000
     atom   10 type  1   force =     0.00000000    0.00000000    0.00000000
     atom   11 type  1   force =     0.00000000    0.00000000    0.00000000
     atom   12 type  1   force =     0.00000000    0.00000000    0.00000000
     atom   13 type  2   force =     0.00000000    0.00000000    0.00000000
     atom   14 type  2   force =     0.00000000    0.00000000    0.00000000
     atom   15 type  2   force =     0.00000000    0.00000000    0.00000000
     atom   16 type  2   force =     0.00000000    0.00000000    0.00000000
     atom   17 type  2   force =     0.00000000    0.00000000    0.00000000
     atom   18 type  2   force =     0.00000000    0.00000000    0.00000000
     atom   19 type  2   force =     0.00000000    0.00000000    0.00000000
     atom   20 type  2   force =     0.00000000    0.00000000    0.00000000
     atom   21 type  2   force =     0.00000000    0.00000000    0.00000000
     atom   22 type  2   force =     0.00000000    0.00000000    0.00000000
     atom   23 type  2   force =     0.00000000    0.00000000    0.00000000
     atom   24 type  2   force =     0.00000000    0.00000000    0.00000000
     atom   25 type  2   force =     0.00000000    0.00000000    0.00000000
     atom   26 type  2   force =     0.00000000    0.00000000    0.00000000
     atom   27 type  2   force =     0.00000000    0.00000000    0.00000000
     atom   28 type  2   force =     0.00000000    0.00000000    0.00000000
     atom   29 type  2   force =     0.00000000    0.00000000    0.00000000
     atom   30 type  2   force =     0.00000000    0.00000000    0.00000000
     atom   31 type  2   force =     0.00000000    0.00000000    0.00000000
     atom   32 type  2   force =     0.00000000    0.00000000    0.00000000
     atom   33 type  2   force =     0.00000000    0.00000000    0.00000000
     The SCF correction term to forces
     atom    1 type  1   force =     0.00000000    0.00000000    0.00000000
     atom    2 type  1   force =     0.00000000    0.00000000    0.00000000
     atom    3 type  1   force =     0.00000000    0.00000000    0.00000000
     atom    4 type  1   force =     0.00000000    0.00000000    0.00000000
     atom    5 type  1   force =     0.00000000    0.00000000    0.00000000
     atom    6 type  1   force =     0.00000000    0.00000000    0.00000000
     atom    7 type  1   force =     0.00000000    0.00000000    0.00000000
     atom    8 type  1   force =     0.00000000    0.00000000    0.00000000
     atom    9 type  1   force =     0.00000000    0.00000000    0.00000000
     atom   10 type  1   force =     0.00000000    0.00000000    0.00000000
     atom   11 type  1   force =     0.00000000    0.00000000    0.00000000
     atom   12 type  1   force =     0.00000000    0.00000000    0.00000000
     atom   13 type  2   force =     0.00000000    0.00000000    0.00000000
     atom   14 type  2   force =     0.00000000    0.00000000    0.00000000
     atom   15 type  2   force =     0.00000000    0.00000000    0.00000000
     atom   16 type  2   force =     0.00000000    0.00000000    0.00000000
     atom   17 type  2   force =     0.00000000    0.00000000    0.00000000
     atom   18 type  2   force =     0.00000000    0.00000000    0.00000000
     atom   19 type  2   force =     0.00000000    0.00000000    0.00000000
     atom   20 type  2   force =     0.00000000    0.00000000    0.00000000
     atom   21 type  2   force =     0.00000000    0.00000000    0.00000000
     atom   22 type  2   force =     0.00000000    0.00000000    0.00000000
     atom   23 type  2   force =     0.00000000    0.00000000    0.00000000
     atom   24 type  2   force =     0.00000000    0.00000000    0.00000000
     atom   25 type  2   force =     0.00000000    0.00000000    0.00000000
     atom   26 type  2   force =    -0.00000273    0.00000198   -0.00000842
     atom   27 type  2   force =     0.00000000    0.00000000    0.00000000
     atom   28 type  2   force =     0.00000000    0.00000000    0.00000000
     atom   29 type  2   force =     0.00000000    0.00000000    0.00000000
     atom   30 type  2   force =     0.00000000    0.00000000    0.00000000
     atom   31 type  2   force =     0.00000000    0.00000000    0.00000000
     atom   32 type  2   force =     0.00000000    0.00000000    0.00000000
     atom   33 type  2   force =     0.00000000    0.00000000    0.00000000

     Total force =     0.000673     Total SCF correction =     0.000009
     Energy error            =      9.2E-07
     Gradient error          =      5.4E-04

     number of scf cycles    =  11
     number of bfgs steps    =  10

     energy   old            =   -1853.4403752678 Ry
     energy   new            =   -1853.4403761920 Ry

     CASE: energy  _new < energy  _old

     new trust radius        =       0.0020582945 bohr
     new conv_thr            =       0.0000000010 Ry


ATOMIC_POSITIONS (angstrom)
Hf            4.0076390000        3.7813620000        6.1529890000    0   0   0
Hf            4.0076390000        3.7813620000       11.0753320000    0   0   0
Hf            4.0076390000        3.7813620000       15.9976750000    0   0   0
Hf            1.4522770000        1.1321830000        6.1529770000    0   0   0
Hf            1.4522770000        1.1321830000       11.0753200000    0   0   0
Hf            1.4522770000        1.1321830000       15.9976630000    0   0   0
Hf            3.6579980000        1.1322110000        8.6140330000    0   0   0
Hf            3.6579980000        1.1322110000       13.5363760000    0   0   0
Hf            3.6579980000        1.1322110000       18.4587190000    0   0   0
Hf            1.1027520000        3.7813090000        8.6141070000    0   0   0
Hf            1.1027520000        3.7813090000       13.5364490000    0   0   0
Hf            1.1027520000        3.7813090000       18.4587920000    0   0   0
O             3.1707970000        2.0862730000        6.8074440000    0   0   0
O             3.1707970000        2.0862730000       11.7297860000    0   0   0
O             3.1707970000        2.0862730000       16.6521290000    0   0   0
O             0.6152330000        2.8266930000        6.8083890000    0   0   0
O             0.6152330000        2.8266930000       11.7307320000    0   0   0
O             0.6152330000        2.8266930000       16.6530750000    0   0   0
O             5.0530890000        0.2074550000        7.3799440000    0   0   0
O             5.0530890000        0.2074550000       12.3022870000    0   0   0
O             5.0530890000        0.2074550000       17.2246300000    0   0   0
O             1.9399660000        2.0865810000        9.2696970000    0   0   0
O             1.9399660000        2.0865810000       14.1920390000    0   0   0
O             4.4952530000        2.8267400000        9.2692970000    0   0   0
O             4.4952530000        2.8267400000       14.1916400000    0   0   0
O             4.5655656293        2.7947587214       18.9940830982
O             2.4978700000       -0.2075440000        7.3798460000    0   0   0
O             2.6124080000       -0.2081150000        9.8410840000    0   0   0
O             2.4978700000       -0.2075440000       12.3021890000    0   0   0
O             2.6124080000       -0.2081150000       14.7634270000    0   0   0
O             2.4978700000       -0.2075440000       17.2245320000    0   0   0
O             5.1675430000        0.2075860000        9.8410300000    0   0   0
O             5.1675430000        0.2075860000       14.7633720000    0   0   0



     Writing output data file ./hfo2.save/
     NEW-OLD atomic charge density approx. for the potential

     negative rho (up, down):  5.147E-06 0.000E+00
 
     Adding external electric field

     Computed dipole along edir(3) : 
        Elec. dipole         -2.7569 Ry au,         -7.0074 Debye
        Ion. dipole          -2.7559 Ry au,         -7.0049 Debye
        Dipole                0.4732 Ry au,          1.2028 Debye
        Dipole field          0.0010 Ry au, 
 
        E field amplitude [Ha a.u.]:  1.0000E-03
        Potential amp.       -0.0003 Ry
        Total length         62.8334 bohr
 

     total cpu time spent up to now is      773.1 secs

     Self-consistent Calculation

     iteration #  1     ecut=    50.00 Ry     beta= 0.30
     Davidson diagonalization with overlap
     ethr =  1.00E-06,  avg # of iterations =  2.0

     Threshold (ethr) on eigenvalues was too large:
     Diagonalizing with lowered threshold

     Davidson diagonalization with overlap
     ethr =  3.28E-09,  avg # of iterations =  1.4

     negative rho (up, down):  3.023E-06 0.000E+00
 
     Adding external electric field

     Computed dipole along edir(3) : 
        Elec. dipole         -2.7569 Ry au,         -7.0074 Debye
        Ion. dipole          -2.7559 Ry au,         -7.0049 Debye
        Dipole                0.4732 Ry au,          1.2027 Debye
        Dipole field          0.0010 Ry au, 
 
        E field amplitude [Ha a.u.]:  1.0000E-03
        Potential amp.       -0.0003 Ry
        Total length         62.8334 bohr
 

     total cpu time spent up to now is      798.3 secs

     total energy              =   -1853.44037754 Ry
     estimated scf accuracy    <       0.00000894 Ry

     iteration #  2     ecut=    50.00 Ry     beta= 0.30
     Davidson diagonalization with overlap
     ethr =  3.31E-09,  avg # of iterations =  1.0

     negative rho (up, down):  1.682E-06 0.000E+00
 
     Adding external electric field

     Computed dipole along edir(3) : 
        Elec. dipole         -2.7569 Ry au,         -7.0074 Debye
        Ion. dipole          -2.7559 Ry au,         -7.0049 Debye
        Dipole                0.4731 Ry au,          1.2025 Debye
        Dipole field          0.0010 Ry au, 
 
        E field amplitude [Ha a.u.]:  1.0000E-03
        Potential amp.       -0.0003 Ry
        Total length         62.8334 bohr
 

     total cpu time spent up to now is      815.4 secs

     total energy              =   -1853.44037750 Ry
     estimated scf accuracy    <       0.00000131 Ry

     iteration #  3     ecut=    50.00 Ry     beta= 0.30
     Davidson diagonalization with overlap
     ethr =  4.84E-10,  avg # of iterations =  1.5

     negative rho (up, down):  9.760E-07 0.000E+00
 
     Adding external electric field

     Computed dipole along edir(3) : 
        Elec. dipole         -2.7569 Ry au,         -7.0074 Debye
        Ion. dipole          -2.7559 Ry au,         -7.0049 Debye
        Dipole                0.4730 Ry au,          1.2023 Debye
        Dipole field          0.0010 Ry au, 
 
        E field amplitude [Ha a.u.]:  1.0000E-03
        Potential amp.       -0.0003 Ry
        Total length         62.8334 bohr
 

     total cpu time spent up to now is      820.1 secs

     total energy              =   -1853.44037745 Ry
     estimated scf accuracy    <       0.00000013 Ry

     iteration #  4     ecut=    50.00 Ry     beta= 0.30
     Davidson diagonalization with overlap
     ethr =  4.87E-11,  avg # of iterations =  4.7

     negative rho (up, down):  4.273E-07 0.000E+00
 
     Adding external electric field

     Computed dipole along edir(3) : 
        Elec. dipole         -2.7569 Ry au,         -7.0074 Debye
        Ion. dipole          -2.7559 Ry au,         -7.0049 Debye
        Dipole                0.4730 Ry au,          1.2021 Debye
        Dipole field          0.0010 Ry au, 
 
        E field amplitude [Ha a.u.]:  1.0000E-03
        Potential amp.       -0.0003 Ry
        Total length         62.8334 bohr
 

     total cpu time spent up to now is      824.1 secs

     total energy              =   -1853.44037747 Ry
     estimated scf accuracy    <       0.00000001 Ry

     iteration #  5     ecut=    50.00 Ry     beta= 0.30
     Davidson diagonalization with overlap
     ethr =  4.40E-12,  avg # of iterations =  3.1

     negative rho (up, down):  1.370E-07 0.000E+00
 
     Adding external electric field

     Computed dipole along edir(3) : 
        Elec. dipole         -2.7569 Ry au,         -7.0074 Debye
        Ion. dipole          -2.7559 Ry au,         -7.0049 Debye
        Dipole                0.4729 Ry au,          1.2020 Debye
        Dipole field          0.0010 Ry au, 
 
        E field amplitude [Ha a.u.]:  1.0000E-03
        Potential amp.       -0.0003 Ry
        Total length         62.8334 bohr
 

     total cpu time spent up to now is      828.0 secs

     total energy              =   -1853.44037747 Ry
     estimated scf accuracy    <          8.9E-09 Ry

     iteration #  6     ecut=    50.00 Ry     beta= 0.30
     Davidson diagonalization with overlap
     ethr =  3.30E-12,  avg # of iterations =  2.0

     negative rho (up, down):  2.964E-08 0.000E+00
 
     Adding external electric field

     Computed dipole along edir(3) : 
        Elec. dipole         -2.7569 Ry au,         -7.0074 Debye
        Ion. dipole          -2.7559 Ry au,         -7.0049 Debye
        Dipole                0.4729 Ry au,          1.2020 Debye
        Dipole field          0.0010 Ry au, 
 
        E field amplitude [Ha a.u.]:  1.0000E-03
        Potential amp.       -0.0002 Ry
        Total length         62.8334 bohr
 

     total cpu time spent up to now is      831.9 secs

     total energy              =   -1853.44037747 Ry
     estimated scf accuracy    <          2.4E-09 Ry

     iteration #  7     ecut=    50.00 Ry     beta= 0.30
     Davidson diagonalization with overlap
     ethr =  8.84E-13,  avg # of iterations =  2.5
 
     Adding external electric field

     Computed dipole along edir(3) : 
        Elec. dipole         -2.7569 Ry au,         -7.0074 Debye
        Ion. dipole          -2.7559 Ry au,         -7.0049 Debye
        Dipole                0.4727 Ry au,          1.2016 Debye
        Dipole field          0.0010 Ry au, 
 
        E field amplitude [Ha a.u.]:  1.0000E-03
        Potential amp.       -0.0002 Ry
        Total length         62.8334 bohr
 

     total cpu time spent up to now is      833.9 secs

     End of self-consistent calculation

          k = 0.0000 0.0000 0.0000 ( 35385 PWs)   bands (ev):

   -59.2574 -59.2440 -59.0034 -58.9879 -58.8444 -58.8413 -58.8260 -58.7849
   -58.7179 -58.7025 -58.5920 -58.5714 -29.1028 -29.0433 -28.9557 -28.8766
   -28.8306 -28.7727 -28.7666 -28.7384 -28.7005 -28.6672 -28.6500 -28.6402
   -28.6243 -28.6083 -28.5804 -28.5343 -28.5266 -28.5163 -28.4743 -28.4337
   -28.4242 -28.3764 -28.3744 -28.3630 -28.3244 -28.3163 -28.2956 -28.2711
   -28.2415 -28.1981 -28.1942 -28.1634 -28.1425 -28.1159 -28.0833 -28.0614
   -17.8383 -17.4323 -16.9256 -16.6571 -16.3961 -16.3589 -16.2172 -16.1334
   -16.0482 -16.0242 -15.9020 -15.7305 -15.5489 -15.4000 -15.3877 -15.2592
   -15.2532 -15.1323 -15.0809 -15.0117 -14.5641  -5.4544  -5.4322  -5.2618
    -5.2165  -5.0680  -4.9768  -4.6683  -4.6149  -4.4372  -4.4014  -4.2751
    -4.2295  -4.1257  -3.9059  -3.8085  -3.6421  -3.6069  -3.4442  -3.3960
    -3.3435  -3.1380  -3.0771  -2.8480  -2.8052  -2.7783  -2.6674  -2.5934
    -2.4894  -2.4354  -2.2948  -2.2265  -2.1297  -1.9881  -1.9853  -1.9579
    -1.8563  -1.7555  -1.7263  -1.7041  -1.6769  -1.6163  -1.5987  -1.2704
    -1.2418  -1.1849  -1.0668  -0.8924  -0.8678  -0.8201  -0.7130  -0.6531
    -0.5811  -0.5792  -0.3721  -0.2294  -0.1945  -0.1093   0.0708   0.1080
     0.2441   0.2580   0.3735   0.5012   2.6949   2.9327   4.1636   4.3658
     4.4260   4.8142   5.0389   5.0724   5.3473   5.4963   5.5667   5.8327
     5.9507   6.0170   6.0531   6.1992   6.2494   6.2882   6.4113   6.4579
     6.4673   6.6207   6.6503   6.7095   6.8579   6.8988   7.0030   7.0303
     7.0409   7.2098

     occupation numbers 
     1.0000   1.0000   1.0000   1.0000   1.0000   1.0000   1.0000   1.0000
     1.0000   1.0000   1.0000   1.0000   1.0000   1.0000   1.0000   1.0000
     1.0000   1.0000   1.0000   1.0000   1.0000   1.0000   1.0000   1.0000
     1.0000   1.0000   1.0000   1.0000   1.0000   1.0000   1.0000   1.0000
     1.0000   1.0000   1.0000   1.0000   1.0000   1.0000   1.0000   1.0000
     1.0000   1.0000   1.0000   1.0000   1.0000   1.0000   1.0000   1.0000
     1.0000   1.0000   1.0000   1.0000   1.0000   1.0000   1.0000   1.0000
     1.0000   1.0000   1.0000   1.0000   1.0000   1.0000   1.0000   1.0000
     1.0000   1.0000   1.0000   1.0000   1.0000   1.0000   1.0000   1.0000
     1.0000   1.0000   1.0000   1.0000   1.0000   1.0000   1.0000   1.0000
     1.0000   1.0000   1.0000   1.0000   1.0000   1.0000   1.0000   1.0000
     1.0000   1.0000   1.0000   1.0000   1.0000   1.0000   1.0000   1.0000
     1.0000   1.0000   1.0000   1.0000   1.0000   1.0000   1.0000   1.0000
     1.0000   1.0000   1.0000   1.0000   1.0000   1.0000   1.0000   1.0000
     1.0000   1.0000   1.0000   1.0000   1.0000   1.0000   1.0000   1.0000
     1.0000   1.0000   1.0000   1.0000   1.0000   1.0000   1.0000   1.0000
     1.0000   1.0000   1.0000   1.0000   1.0000   0.9998   0.4152   0.1383
     0.0935   0.0059   0.0011   0.0009   0.0001   0.0000   0.0000   0.0000
     0.0000   0.0000   0.0000   0.0000   0.0000   0.0000   0.0000   0.0000
     0.0000   0.0000   0.0000   0.0000   0.0000   0.0000   0.0000   0.0000
     0.0000   0.0000

          k = 0.0000 0.2600 0.0000 ( 35369 PWs)   bands (ev):

   -59.2557 -59.2456 -59.0016 -58.9896 -58.8441 -58.8396 -58.8277 -58.7851
   -58.7162 -58.7041 -58.5911 -58.5726 -29.0865 -28.9918 -28.9306 -28.8726
   -28.8055 -28.7789 -28.7509 -28.7209 -28.6949 -28.6724 -28.6546 -28.6439
   -28.6368 -28.5899 -28.5762 -28.5455 -28.5239 -28.5190 -28.4940 -28.4449
   -28.4220 -28.4082 -28.3938 -28.3777 -28.3573 -28.3061 -28.2756 -28.2668
   -28.2625 -28.2315 -28.2018 -28.1763 -28.1431 -28.1160 -28.0993 -28.0855
   -17.5765 -17.2208 -16.8097 -16.5962 -16.3704 -16.2888 -16.1460 -16.0858
   -16.0304 -15.9892 -15.9565 -15.7552 -15.6122 -15.5587 -15.4523 -15.4019
   -15.3589 -15.2377 -15.1450 -15.0934 -14.6188  -5.4016  -5.2654  -5.0848
    -4.9664  -4.9278  -4.7072  -4.6014  -4.5506  -4.5133  -4.3662  -4.3028
    -4.1853  -3.9450  -3.8842  -3.7044  -3.6555  -3.5712  -3.4830  -3.3933
    -3.3260  -3.2633  -3.2385  -3.0321  -2.9315  -2.8199  -2.7052  -2.6470
    -2.5387  -2.4327  -2.3446  -2.2934  -2.2133  -2.1610  -2.0549  -2.0297
    -1.9137  -1.8287  -1.6726  -1.5513  -1.4871  -1.4360  -1.3415  -1.2134
    -1.2084  -1.1124  -0.9756  -0.9248  -0.8669  -0.8174  -0.7674  -0.7308
    -0.6675  -0.5789  -0.5263  -0.4029  -0.3166  -0.2496  -0.2189  -0.1913
     0.0795   0.2153   0.3151   0.4447   3.0580   3.2964   4.2351   4.2523
     4.3767   4.8347   4.9116   5.1452   5.2211   5.2520   5.3464   5.4426
     5.6746   5.7181   5.8482   5.8779   5.9789   6.1245   6.1584   6.3613
     6.5483   6.6251   6.6925   6.7422   6.9364   6.9931   7.0728   7.1636
     7.2413   7.3380

     occupation numbers 
     1.0000   1.0000   1.0000   1.0000   1.0000   1.0000   1.0000   1.0000
     1.0000   1.0000   1.0000   1.0000   1.0000   1.0000   1.0000   1.0000
     1.0000   1.0000   1.0000   1.0000   1.0000   1.0000   1.0000   1.0000
     1.0000   1.0000   1.0000   1.0000   1.0000   1.0000   1.0000   1.0000
     1.0000   1.0000   1.0000   1.0000   1.0000   1.0000   1.0000   1.0000
     1.0000   1.0000   1.0000   1.0000   1.0000   1.0000   1.0000   1.0000
     1.0000   1.0000   1.0000   1.0000   1.0000   1.0000   1.0000   1.0000
     1.0000   1.0000   1.0000   1.0000   1.0000   1.0000   1.0000   1.0000
     1.0000   1.0000   1.0000   1.0000   1.0000   1.0000   1.0000   1.0000
     1.0000   1.0000   1.0000   1.0000   1.0000   1.0000   1.0000   1.0000
     1.0000   1.0000   1.0000   1.0000   1.0000   1.0000   1.0000   1.0000
     1.0000   1.0000   1.0000   1.0000   1.0000   1.0000   1.0000   1.0000
     1.0000   1.0000   1.0000   1.0000   1.0000   1.0000   1.0000   1.0000
     1.0000   1.0000   1.0000   1.0000   1.0000   1.0000   1.0000   1.0000
     1.0000   1.0000   1.0000   1.0000   1.0000   1.0000   1.0000   1.0000
     1.0000   1.0000   1.0000   1.0000   1.0000   1.0000   1.0000   1.0000
     1.0000   1.0000   1.0000   1.0000   0.9996   0.9976   0.2956   0.2699
     0.1290   0.0051   0.0029   0.0005   0.0003   0.0002   0.0001   0.0001
     0.0000   0.0000   0.0000   0.0000   0.0000   0.0000   0.0000   0.0000
     0.0000   0.0000   0.0000   0.0000   0.0000   0.0000   0.0000   0.0000
     0.0000   0.0000

          k = 0.0000-0.5200 0.0000 ( 35392 PWs)   bands (ev):

   -59.2531 -59.2481 -58.9991 -58.9921 -58.8437 -58.8371 -58.8302 -58.7854
   -58.7138 -58.7065 -58.5900 -58.5738 -29.0676 -28.9222 -28.8861 -28.8812
   -28.7854 -28.7801 -28.7576 -28.7200 -28.6960 -28.6771 -28.6479 -28.6327
   -28.6239 -28.5971 -28.5766 -28.5544 -28.5237 -28.5138 -28.4915 -28.4602
   -28.4550 -28.4219 -28.4153 -28.3739 -28.3640 -28.3422 -28.3075 -28.2907
   -28.2665 -28.2311 -28.1885 -28.1676 -28.1501 -28.1417 -28.1207 -28.0937
   -17.2005 -16.9092 -16.6566 -16.5328 -16.3387 -16.2147 -16.1821 -16.0680
   -16.0434 -16.0056 -15.9568 -15.9385 -15.7917 -15.6309 -15.6277 -15.4337
   -15.4252 -15.3025 -15.1987 -15.1739 -14.6712  -5.2006  -5.1291  -4.9913
    -4.7963  -4.6347  -4.5527  -4.4672  -4.4534  -4.2779  -4.2468  -4.2260
    -4.1568  -4.0570  -3.9479  -3.8826  -3.8295  -3.7683  -3.5860  -3.5487
    -3.2887  -3.2249  -3.1344  -3.0906  -2.8868  -2.8558  -2.7644  -2.6404
    -2.6022  -2.4282  -2.3672  -2.2808  -2.2200  -2.0802  -2.0116  -1.9541
    -1.8400  -1.6463  -1.5889  -1.5312  -1.4625  -1.4499  -1.3293  -1.3072
    -1.2593  -1.1750  -1.1662  -1.1057  -1.0335  -0.9592  -0.8961  -0.8307
    -0.7556  -0.6423  -0.5747  -0.5507  -0.4339  -0.3106  -0.2333  -0.2218
     0.0366   0.1600   0.3108   0.3949   3.6371   3.7970   4.0650   4.1361
     4.3653   4.5095   4.5762   5.0249   5.1026   5.2338   5.2464   5.2783
     5.4611   5.5090   5.5613   5.6799   5.7406   5.9698   6.1600   6.3041
     6.4444   6.4816   6.5783   6.8445   6.9838   7.1052   7.1348   7.1934
     7.2722   7.2829

     occupation numbers 
     1.0000   1.0000   1.0000   1.0000   1.0000   1.0000   1.0000   1.0000
     1.0000   1.0000   1.0000   1.0000   1.0000   1.0000   1.0000   1.0000
     1.0000   1.0000   1.0000   1.0000   1.0000   1.0000   1.0000   1.0000
     1.0000   1.0000   1.0000   1.0000   1.0000   1.0000   1.0000   1.0000
     1.0000   1.0000   1.0000   1.0000   1.0000   1.0000   1.0000   1.0000
     1.0000   1.0000   1.0000   1.0000   1.0000   1.0000   1.0000   1.0000
     1.0000   1.0000   1.0000   1.0000   1.0000   1.0000   1.0000   1.0000
     1.0000   1.0000   1.0000   1.0000   1.0000   1.0000   1.0000   1.0000
     1.0000   1.0000   1.0000   1.0000   1.0000   1.0000   1.0000   1.0000
     1.0000   1.0000   1.0000   1.0000   1.0000   1.0000   1.0000   1.0000
     1.0000   1.0000   1.0000   1.0000   1.0000   1.0000   1.0000   1.0000
     1.0000   1.0000   1.0000   1.0000   1.0000   1.0000   1.0000   1.0000
     1.0000   1.0000   1.0000   1.0000   1.0000   1.0000   1.0000   1.0000
     1.0000   1.0000   1.0000   1.0000   1.0000   1.0000   1.0000   1.0000
     1.0000   1.0000   1.0000   1.0000   1.0000   1.0000   1.0000   1.0000
     1.0000   1.0000   1.0000   1.0000   1.0000   1.0000   1.0000   1.0000
     1.0000   1.0000   1.0000   1.0000   0.9714   0.9131   0.5942   0.4648
     0.1388   0.0529   0.0331   0.0013   0.0007   0.0003   0.0002   0.0002
     0.0001   0.0000   0.0000   0.0000   0.0000   0.0000   0.0000   0.0000
     0.0000   0.0000   0.0000   0.0000   0.0000   0.0000   0.0000   0.0000
     0.0000   0.0000

          k = 0.2500 0.0000 0.0000 ( 35470 PWs)   bands (ev):

   -59.2554 -59.2459 -59.0011 -58.9902 -58.8440 -58.8391 -58.8282 -58.7852
   -58.7157 -58.7046 -58.5908 -58.5728 -29.0656 -29.0112 -28.9251 -28.8648
   -28.7928 -28.7911 -28.7599 -28.7188 -28.6821 -28.6640 -28.6522 -28.6388
   -28.6182 -28.6116 -28.5852 -28.5581 -28.5297 -28.5207 -28.4902 -28.4317
   -28.4178 -28.4140 -28.3985 -28.3762 -28.3456 -28.3098 -28.2916 -28.2737
   -28.2518 -28.2292 -28.2037 -28.1747 -28.1429 -28.1144 -28.1029 -28.0870
   -17.5672 -17.2085 -16.7905 -16.6577 -16.3635 -16.3414 -16.2280 -16.1508
   -16.0125 -16.0098 -15.8520 -15.7883 -15.5618 -15.5421 -15.4158 -15.3953
   -15.3181 -15.2619 -15.1705 -15.1108 -14.6221  -5.2080  -5.0824  -4.9496
    -4.8949  -4.7937  -4.6666  -4.5711  -4.5274  -4.3580  -4.3068  -4.1950
    -4.0915  -4.0352  -4.0011  -3.9252  -3.8106  -3.7257  -3.5353  -3.3898
    -3.3434  -3.2522  -3.2083  -3.0403  -3.0256  -2.8394  -2.7730  -2.5760
    -2.5195  -2.3921  -2.3421  -2.2902  -2.2272  -2.1465  -2.0379  -1.9159
    -1.8752  -1.7839  -1.7320  -1.6316  -1.5848  -1.5592  -1.5313  -1.3902
    -1.3582  -1.2684  -1.1533  -1.1060  -0.9733  -0.8736  -0.8001  -0.6577
    -0.6096  -0.5479  -0.4359  -0.4016  -0.3437  -0.1997  -0.1620  -0.0520
    -0.0229   0.0728   0.1180   0.3159   2.9614   3.2723   4.1656   4.3314
     4.6337   4.8623   4.9107   5.1599   5.1773   5.5369   5.5845   5.7182
     5.8602   5.9152   6.0532   6.1241   6.2053   6.3064   6.3639   6.4726
     6.5359   6.6249   6.6458   6.7231   6.7727   6.8818   6.9272   7.0649
     7.1514   7.2510

     occupation numbers 
     1.0000   1.0000   1.0000   1.0000   1.0000   1.0000   1.0000   1.0000
     1.0000   1.0000   1.0000   1.0000   1.0000   1.0000   1.0000   1.0000
     1.0000   1.0000   1.0000   1.0000   1.0000   1.0000   1.0000   1.0000
     1.0000   1.0000   1.0000   1.0000   1.0000   1.0000   1.0000   1.0000
     1.0000   1.0000   1.0000   1.0000   1.0000   1.0000   1.0000   1.0000
     1.0000   1.0000   1.0000   1.0000   1.0000   1.0000   1.0000   1.0000
     1.0000   1.0000   1.0000   1.0000   1.0000   1.0000   1.0000   1.0000
     1.0000   1.0000   1.0000   1.0000   1.0000   1.0000   1.0000   1.0000
     1.0000   1.0000   1.0000   1.0000   1.0000   1.0000   1.0000   1.0000
     1.0000   1.0000   1.0000   1.0000   1.0000   1.0000   1.0000   1.0000
     1.0000   1.0000   1.0000   1.0000   1.0000   1.0000   1.0000   1.0000
     1.0000   1.0000   1.0000   1.0000   1.0000   1.0000   1.0000   1.0000
     1.0000   1.0000   1.0000   1.0000   1.0000   1.0000   1.0000   1.0000
     1.0000   1.0000   1.0000   1.0000   1.0000   1.0000   1.0000   1.0000
     1.0000   1.0000   1.0000   1.0000   1.0000   1.0000   1.0000   1.0000
     1.0000   1.0000   1.0000   1.0000   1.0000   1.0000   1.0000   1.0000
     1.0000   1.0000   1.0000   1.0000   0.9998   0.9980   0.4116   0.1714
     0.0219   0.0042   0.0029   0.0005   0.0004   0.0000   0.0000   0.0000
     0.0000   0.0000   0.0000   0.0000   0.0000   0.0000   0.0000   0.0000
     0.0000   0.0000   0.0000   0.0000   0.0000   0.0000   0.0000   0.0000
     0.0000   0.0000

          k = 0.2500 0.2600 0.0000 ( 35420 PWs)   bands (ev):

   -59.2542 -59.2470 -58.9999 -58.9913 -58.8438 -58.8378 -58.8294 -58.7854
   -58.7145 -58.7058 -58.5903 -58.5735 -29.0798 -29.0180 -28.9341 -28.8768
   -28.8147 -28.7779 -28.7504 -28.7232 -28.7033 -28.6706 -28.6427 -28.6352
   -28.6227 -28.6115 -28.5876 -28.5482 -28.5259 -28.4996 -28.4729 -28.4555
   -28.4444 -28.4213 -28.3892 -28.3696 -28.3343 -28.3239 -28.2954 -28.2705
   -28.2445 -28.2180 -28.1942 -28.1597 -28.1527 -28.1280 -28.1069 -28.0694
   -17.3847 -17.0696 -16.7479 -16.6719 -16.4130 -16.3490 -16.2395 -16.1740
   -16.0275 -16.0030 -15.9098 -15.7440 -15.6283 -15.5403 -15.4668 -15.4191
   -15.3701 -15.2834 -15.1513 -15.0804 -14.6729  -5.1855  -5.0369  -4.8009
    -4.7473  -4.6853  -4.6223  -4.4973  -4.4073  -4.3284  -4.2931  -4.1947
    -4.0867  -3.9985  -3.9473  -3.8496  -3.6366  -3.5259  -3.4077  -3.3433
    -3.3137  -3.2600  -3.1929  -3.1312  -3.0134  -2.9808  -2.8758  -2.7466
    -2.5296  -2.4553  -2.3786  -2.3110  -2.2234  -2.1582  -2.0857  -1.8984
    -1.8122  -1.7779  -1.7331  -1.6208  -1.5718  -1.4946  -1.4312  -1.3959
    -1.3169  -1.2481  -1.1454  -1.0702  -1.0241  -0.9777  -0.9351  -0.7851
    -0.6833  -0.6431  -0.5491  -0.4534  -0.4456  -0.3960  -0.2548  -0.1605
    -0.1138  -0.0058   0.1138   0.3022   3.1574   3.4910   4.0780   4.1327
     4.5986   4.7716   4.8707   5.0447   5.1705   5.2152   5.3684   5.4799
     5.5782   5.7673   5.8395   5.9065   6.0174   6.0899   6.1406   6.3673
     6.4307   6.6102   6.6979   6.7535   6.7730   6.9282   6.9991   7.1284
     7.2098   7.2508

     occupation numbers 
     1.0000   1.0000   1.0000   1.0000   1.0000   1.0000   1.0000   1.0000
     1.0000   1.0000   1.0000   1.0000   1.0000   1.0000   1.0000   1.0000
     1.0000   1.0000   1.0000   1.0000   1.0000   1.0000   1.0000   1.0000
     1.0000   1.0000   1.0000   1.0000   1.0000   1.0000   1.0000   1.0000
     1.0000   1.0000   1.0000   1.0000   1.0000   1.0000   1.0000   1.0000
     1.0000   1.0000   1.0000   1.0000   1.0000   1.0000   1.0000   1.0000
     1.0000   1.0000   1.0000   1.0000   1.0000   1.0000   1.0000   1.0000
     1.0000   1.0000   1.0000   1.0000   1.0000   1.0000   1.0000   1.0000
     1.0000   1.0000   1.0000   1.0000   1.0000   1.0000   1.0000   1.0000
     1.0000   1.0000   1.0000   1.0000   1.0000   1.0000   1.0000   1.0000
     1.0000   1.0000   1.0000   1.0000   1.0000   1.0000   1.0000   1.0000
     1.0000   1.0000   1.0000   1.0000   1.0000   1.0000   1.0000   1.0000
     1.0000   1.0000   1.0000   1.0000   1.0000   1.0000   1.0000   1.0000
     1.0000   1.0000   1.0000   1.0000   1.0000   1.0000   1.0000   1.0000
     1.0000   1.0000   1.0000   1.0000   1.0000   1.0000   1.0000   1.0000
     1.0000   1.0000   1.0000   1.0000   1.0000   1.0000   1.0000   1.0000
     1.0000   1.0000   1.0000   1.0000   0.9991   0.9901   0.5710   0.4712
     0.0282   0.0081   0.0039   0.0011   0.0004   0.0003   0.0001   0.0000
     0.0000   0.0000   0.0000   0.0000   0.0000   0.0000   0.0000   0.0000
     0.0000   0.0000   0.0000   0.0000   0.0000   0.0000   0.0000   0.0000
     0.0000   0.0000

          k = 0.2500-0.5200 0.0000 ( 35366 PWs)   bands (ev):

   -59.2524 -59.2488 -58.9981 -58.9931 -58.8436 -58.8360 -58.8312 -58.7854
   -58.7129 -58.7074 -58.5897 -58.5742 -29.0861 -29.0288 -28.9346 -28.9163
   -28.7914 -28.7875 -28.7531 -28.7431 -28.6929 -28.6760 -28.6559 -28.6495
   -28.6172 -28.6038 -28.5984 -28.5713 -28.5274 -28.5161 -28.4922 -28.4608
   -28.4253 -28.3914 -28.3781 -28.3593 -28.3441 -28.3044 -28.2826 -28.2517
   -28.2429 -28.2177 -28.1903 -28.1523 -28.1362 -28.1167 -28.1050 -28.0929
   -17.1427 -16.8736 -16.7196 -16.6795 -16.4623 -16.3925 -16.3166 -16.2598
   -16.1256 -16.0447 -15.9979 -15.7393 -15.6892 -15.5494 -15.4379 -15.4009
   -15.3129 -15.2708 -15.1751 -15.1234 -14.5937  -5.0555  -5.0227  -4.8168
    -4.6097  -4.5760  -4.4837  -4.3414  -4.3162  -4.2117  -4.1704  -4.0895
    -4.0364  -3.9380  -3.8720  -3.7886  -3.7414  -3.6375  -3.5652  -3.4264
    -3.3474  -3.3089  -3.0080  -2.9639  -2.9008  -2.7962  -2.7317  -2.6633
    -2.6077  -2.4623  -2.4097  -2.3543  -2.2854  -2.2644  -2.2127  -2.0460
    -1.9485  -1.8968  -1.8598  -1.7255  -1.5910  -1.5003  -1.3976  -1.3835
    -1.3344  -1.2404  -1.1930  -1.1298  -1.0326  -0.9883  -0.8871  -0.8472
    -0.7440  -0.7169  -0.6019  -0.5590  -0.4912  -0.4355  -0.2931  -0.2281
    -0.2160  -0.0673   0.1038   0.2835   3.6705   3.7252   4.0438   4.1247
     4.4591   4.4826   4.6645   4.9794   5.0238   5.0972   5.1622   5.3018
     5.3821   5.4554   5.6015   5.6965   5.7714   5.9882   6.1107   6.1793
     6.3740   6.4788   6.6683   6.7111   6.8693   6.9564   7.0331   7.1885
     7.2310   7.2801

     occupation numbers 
     1.0000   1.0000   1.0000   1.0000   1.0000   1.0000   1.0000   1.0000
     1.0000   1.0000   1.0000   1.0000   1.0000   1.0000   1.0000   1.0000
     1.0000   1.0000   1.0000   1.0000   1.0000   1.0000   1.0000   1.0000
     1.0000   1.0000   1.0000   1.0000   1.0000   1.0000   1.0000   1.0000
     1.0000   1.0000   1.0000   1.0000   1.0000   1.0000   1.0000   1.0000
     1.0000   1.0000   1.0000   1.0000   1.0000   1.0000   1.0000   1.0000
     1.0000   1.0000   1.0000   1.0000   1.0000   1.0000   1.0000   1.0000
     1.0000   1.0000   1.0000   1.0000   1.0000   1.0000   1.0000   1.0000
     1.0000   1.0000   1.0000   1.0000   1.0000   1.0000   1.0000   1.0000
     1.0000   1.0000   1.0000   1.0000   1.0000   1.0000   1.0000   1.0000
     1.0000   1.0000   1.0000   1.0000   1.0000   1.0000   1.0000   1.0000
     1.0000   1.0000   1.0000   1.0000   1.0000   1.0000   1.0000   1.0000
     1.0000   1.0000   1.0000   1.0000   1.0000   1.0000   1.0000   1.0000
     1.0000   1.0000   1.0000   1.0000   1.0000   1.0000   1.0000   1.0000
     1.0000   1.0000   1.0000   1.0000   1.0000   1.0000   1.0000   1.0000
     1.0000   1.0000   1.0000   1.0000   1.0000   1.0000   1.0000   1.0000
     1.0000   1.0000   1.0000   1.0000   0.9638   0.9468   0.6313   0.4857
     0.0748   0.0637   0.0176   0.0018   0.0013   0.0007   0.0005   0.0002
     0.0001   0.0001   0.0000   0.0000   0.0000   0.0000   0.0000   0.0000
     0.0000   0.0000   0.0000   0.0000   0.0000   0.0000   0.0000   0.0000
     0.0000   0.0000

          k = 0.2500-0.2600 0.0000 ( 35420 PWs)   bands (ev):

   -59.2542 -59.2470 -58.9999 -58.9913 -58.8439 -58.8378 -58.8294 -58.7853
   -58.7145 -58.7058 -58.5903 -58.5735 -29.0799 -29.0179 -28.9340 -28.8769
   -28.8147 -28.7780 -28.7505 -28.7243 -28.7035 -28.6727 -28.6573 -28.6389
   -28.6319 -28.6174 -28.5879 -28.5656 -28.5378 -28.4992 -28.4782 -28.4606
   -28.4289 -28.4125 -28.3833 -28.3481 -28.3327 -28.3142 -28.2989 -28.2595
   -28.2287 -28.2186 -28.1977 -28.1638 -28.1433 -28.1394 -28.0968 -28.0731
   -17.3853 -17.0818 -16.7715 -16.6727 -16.4255 -16.3577 -16.2537 -16.1967
   -16.0482 -16.0203 -15.9101 -15.7449 -15.6284 -15.5388 -15.4364 -15.4098
   -15.3214 -15.2882 -15.1733 -15.1187 -14.5480  -5.1839  -5.0355  -4.7910
    -4.7470  -4.6961  -4.6297  -4.4808  -4.4029  -4.3428  -4.2869  -4.1903
    -4.1025  -3.9933  -3.9395  -3.8445  -3.6246  -3.5122  -3.3847  -3.3419
    -3.3193  -3.2467  -3.1806  -3.1400  -3.0216  -2.9504  -2.8451  -2.7461
    -2.5566  -2.5136  -2.3939  -2.3238  -2.1812  -2.1330  -2.0602  -1.9683
    -1.8971  -1.7900  -1.7656  -1.6584  -1.5967  -1.5221  -1.4528  -1.4173
    -1.2888  -1.2586  -1.1883  -1.1110  -1.0188  -0.9849  -0.8356  -0.7765
    -0.6559  -0.5956  -0.4952  -0.4500  -0.4268  -0.3959  -0.2932  -0.1576
    -0.1200   0.0066   0.1300   0.2831   3.3613   3.4914   4.0784   4.3246
     4.4689   4.5989   4.8702   5.1647   5.2110   5.2861   5.4731   5.5553
     5.6789   5.8022   5.8641   5.9320   5.9804   6.0308   6.1911   6.2404
     6.3718   6.4754   6.6283   6.7265   6.7711   6.8971   7.0232   7.0755
     7.1526   7.2146

     occupation numbers 
     1.0000   1.0000   1.0000   1.0000   1.0000   1.0000   1.0000   1.0000
     1.0000   1.0000   1.0000   1.0000   1.0000   1.0000   1.0000   1.0000
     1.0000   1.0000   1.0000   1.0000   1.0000   1.0000   1.0000   1.0000
     1.0000   1.0000   1.0000   1.0000   1.0000   1.0000   1.0000   1.0000
     1.0000   1.0000   1.0000   1.0000   1.0000   1.0000   1.0000   1.0000
     1.0000   1.0000   1.0000   1.0000   1.0000   1.0000   1.0000   1.0000
     1.0000   1.0000   1.0000   1.0000   1.0000   1.0000   1.0000   1.0000
     1.0000   1.0000   1.0000   1.0000   1.0000   1.0000   1.0000   1.0000
     1.0000   1.0000   1.0000   1.0000   1.0000   1.0000   1.0000   1.0000
     1.0000   1.0000   1.0000   1.0000   1.0000   1.0000   1.0000   1.0000
     1.0000   1.0000   1.0000   1.0000   1.0000   1.0000   1.0000   1.0000
     1.0000   1.0000   1.0000   1.0000   1.0000   1.0000   1.0000   1.0000
     1.0000   1.0000   1.0000   1.0000   1.0000   1.0000   1.0000   1.0000
     1.0000   1.0000   1.0000   1.0000   1.0000   1.0000   1.0000   1.0000
     1.0000   1.0000   1.0000   1.0000   1.0000   1.0000   1.0000   1.0000
     1.0000   1.0000   1.0000   1.0000   1.0000   1.0000   1.0000   1.0000
     1.0000   1.0000   1.0000   1.0000   0.9961   0.9900   0.5704   0.1785
     0.0700   0.0281   0.0039   0.0005   0.0003   0.0002   0.0000   0.0000
     0.0000   0.0000   0.0000   0.0000   0.0000   0.0000   0.0000   0.0000
     0.0000   0.0000   0.0000   0.0000   0.0000   0.0000   0.0000   0.0000
     0.0000   0.0000

          k =-0.5000 0.0000 0.0000 ( 35502 PWs)   bands (ev):

   -59.2507 -59.2506 -58.9962 -58.9950 -58.8436 -58.8338 -58.8335 -58.7856
   -58.7115 -58.7088 -58.5893 -58.5744 -28.9987 -28.9984 -28.8722 -28.8720
   -28.7841 -28.7838 -28.7166 -28.7164 -28.6856 -28.6854 -28.6508 -28.6507
   -28.5975 -28.5797 -28.5767 -28.5694 -28.5411 -28.5406 -28.4860 -28.4844
   -28.4255 -28.4208 -28.4043 -28.3958 -28.3655 -28.3455 -28.2876 -28.2802
   -28.2725 -28.2281 -28.1923 -28.1879 -28.1605 -28.1276 -28.1239 -28.0946
   -16.9622 -16.9611 -16.6854 -16.6789 -16.4992 -16.4791 -16.2587 -16.2411
   -15.9939 -15.9820 -15.7973 -15.7968 -15.5858 -15.5854 -15.4610 -15.4589
   -15.4063 -15.3555 -15.3086 -15.2504 -14.6821  -4.8438  -4.8429  -4.5924
    -4.5913  -4.4198  -4.4086  -4.2928  -4.2833  -4.1953  -4.1852  -4.0521
    -3.9879  -3.8778  -3.8723  -3.7915  -3.7845  -3.6763  -3.6544  -3.5436
    -3.5292  -3.4227  -3.4119  -3.3150  -3.2995  -3.1833  -3.1394  -2.7468
    -2.6848  -2.5479  -2.4800  -2.3741  -2.3194  -2.1955  -2.1592  -2.0781
    -1.9654  -1.8372  -1.7643  -1.6659  -1.6158  -1.5335  -1.3695  -1.3433
    -1.2856  -1.2490  -1.1410  -1.0819  -1.0403  -0.9296  -0.7829  -0.7171
    -0.7083  -0.6237  -0.5563  -0.4524  -0.4111  -0.4041  -0.3940  -0.2307
    -0.2036  -0.1161  -0.0863   0.2293   3.3798   3.9818   3.9900   3.9910
     4.6282   5.0187   5.0193   5.0884   5.1832   5.1836   5.4214   5.8517
     5.8526   5.9197   5.9240   6.0324   6.1413   6.1850   6.3142   6.3972
     6.4820   6.6053   6.6742   6.7662   6.8195   7.0092   7.0264   7.0734
     7.0871   7.1209

     occupation numbers 
     1.0000   1.0000   1.0000   1.0000   1.0000   1.0000   1.0000   1.0000
     1.0000   1.0000   1.0000   1.0000   1.0000   1.0000   1.0000   1.0000
     1.0000   1.0000   1.0000   1.0000   1.0000   1.0000   1.0000   1.0000
     1.0000   1.0000   1.0000   1.0000   1.0000   1.0000   1.0000   1.0000
     1.0000   1.0000   1.0000   1.0000   1.0000   1.0000   1.0000   1.0000
     1.0000   1.0000   1.0000   1.0000   1.0000   1.0000   1.0000   1.0000
     1.0000   1.0000   1.0000   1.0000   1.0000   1.0000   1.0000   1.0000
     1.0000   1.0000   1.0000   1.0000   1.0000   1.0000   1.0000   1.0000
     1.0000   1.0000   1.0000   1.0000   1.0000   1.0000   1.0000   1.0000
     1.0000   1.0000   1.0000   1.0000   1.0000   1.0000   1.0000   1.0000
     1.0000   1.0000   1.0000   1.0000   1.0000   1.0000   1.0000   1.0000
     1.0000   1.0000   1.0000   1.0000   1.0000   1.0000   1.0000   1.0000
     1.0000   1.0000   1.0000   1.0000   1.0000   1.0000   1.0000   1.0000
     1.0000   1.0000   1.0000   1.0000   1.0000   1.0000   1.0000   1.0000
     1.0000   1.0000   1.0000   1.0000   1.0000   1.0000   1.0000   1.0000
     1.0000   1.0000   1.0000   1.0000   1.0000   1.0000   1.0000   1.0000
     1.0000   1.0000   1.0000   1.0000   0.9956   0.7297   0.7176   0.7162
     0.0228   0.0013   0.0013   0.0008   0.0004   0.0004   0.0001   0.0000
     0.0000   0.0000   0.0000   0.0000   0.0000   0.0000   0.0000   0.0000
     0.0000   0.0000   0.0000   0.0000   0.0000   0.0000   0.0000   0.0000
     0.0000   0.0000

          k =-0.5000 0.2600 0.0000 ( 35450 PWs)   bands (ev):

   -59.2506 -59.2505 -58.9962 -58.9950 -58.8436 -58.8338 -58.8334 -58.7855
   -58.7115 -58.7088 -58.5894 -58.5745 -29.0537 -29.0534 -28.9226 -28.9225
   -28.7942 -28.7940 -28.7437 -28.7434 -28.6788 -28.6773 -28.6513 -28.6488
   -28.6198 -28.6043 -28.5896 -28.5807 -28.5258 -28.5223 -28.4953 -28.4710
   -28.4280 -28.3899 -28.3742 -28.3619 -28.3399 -28.3129 -28.2637 -28.2482
   -28.2432 -28.2228 -28.1958 -28.1552 -28.1383 -28.1153 -28.1068 -28.0936
   -16.9680 -16.9671 -16.7069 -16.7032 -16.5633 -16.5441 -16.3494 -16.3365
   -16.0556 -16.0439 -15.8248 -15.8235 -15.5601 -15.5559 -15.4239 -15.4040
   -15.3076 -15.2742 -15.2052 -15.1557 -14.5980  -4.8945  -4.8914  -4.5826
    -4.5725  -4.3825  -4.3610  -4.2610  -4.2561  -4.1247  -4.1129  -3.9929
    -3.9402  -3.8643  -3.8458  -3.7506  -3.7352  -3.6613  -3.6351  -3.4758
    -3.4498  -3.2525  -3.2354  -3.1504  -3.1294  -2.9242  -2.9049  -2.7157
    -2.6834  -2.5601  -2.5317  -2.3366  -2.2716  -2.2296  -2.1964  -2.0273
    -1.9902  -1.9746  -1.8903  -1.7625  -1.6829  -1.6004  -1.5485  -1.4195
    -1.3652  -1.2808  -1.2338  -1.1756  -1.0708  -1.0235  -0.9015  -0.8723
    -0.7284  -0.6386  -0.5860  -0.5404  -0.4977  -0.4105  -0.3930  -0.2912
    -0.2443  -0.0988  -0.0462   0.1811   3.5421   3.9082   3.9089   4.0936
     4.4433   4.7994   4.8001   4.9959   4.9975   5.2094   5.5042   5.5198
     5.5661   5.7512   5.7912   5.9502   6.0127   6.1167   6.1802   6.2471
     6.2942   6.4459   6.5258   6.5968   6.7260   6.7975   6.9667   7.0301
     7.0837   7.1660

     occupation numbers 
     1.0000   1.0000   1.0000   1.0000   1.0000   1.0000   1.0000   1.0000
     1.0000   1.0000   1.0000   1.0000   1.0000   1.0000   1.0000   1.0000
     1.0000   1.0000   1.0000   1.0000   1.0000   1.0000   1.0000   1.0000
     1.0000   1.0000   1.0000   1.0000   1.0000   1.0000   1.0000   1.0000
     1.0000   1.0000   1.0000   1.0000   1.0000   1.0000   1.0000   1.0000
     1.0000   1.0000   1.0000   1.0000   1.0000   1.0000   1.0000   1.0000
     1.0000   1.0000   1.0000   1.0000   1.0000   1.0000   1.0000   1.0000
     1.0000   1.0000   1.0000   1.0000   1.0000   1.0000   1.0000   1.0000
     1.0000   1.0000   1.0000   1.0000   1.0000   1.0000   1.0000   1.0000
     1.0000   1.0000   1.0000   1.0000   1.0000   1.0000   1.0000   1.0000
     1.0000   1.0000   1.0000   1.0000   1.0000   1.0000   1.0000   1.0000
     1.0000   1.0000   1.0000   1.0000   1.0000   1.0000   1.0000   1.0000
     1.0000   1.0000   1.0000   1.0000   1.0000   1.0000   1.0000   1.0000
     1.0000   1.0000   1.0000   1.0000   1.0000   1.0000   1.0000   1.0000
     1.0000   1.0000   1.0000   1.0000   1.0000   1.0000   1.0000   1.0000
     1.0000   1.0000   1.0000   1.0000   1.0000   1.0000   1.0000   1.0000
     1.0000   1.0000   1.0000   1.0000   0.9856   0.8226   0.8219   0.5428
     0.0833   0.0066   0.0066   0.0016   0.0015   0.0003   0.0000   0.0000
     0.0000   0.0000   0.0000   0.0000   0.0000   0.0000   0.0000   0.0000
     0.0000   0.0000   0.0000   0.0000   0.0000   0.0000   0.0000   0.0000
     0.0000   0.0000

          k =-0.5000-0.5200 0.0000 ( 35320 PWs)   bands (ev):

   -59.2506 -59.2505 -58.9962 -58.9950 -58.8435 -58.8337 -58.8334 -58.7854
   -58.7115 -58.7088 -58.5894 -58.5746 -29.0933 -29.0930 -28.9692 -28.9692
   -28.8270 -28.8266 -28.7440 -28.7428 -28.6939 -28.6926 -28.6675 -28.6549
   -28.6382 -28.6261 -28.5794 -28.5620 -28.5211 -28.4901 -28.4873 -28.4718
   -28.4168 -28.3821 -28.3389 -28.3295 -28.3278 -28.3072 -28.2365 -28.2244
   -28.2076 -28.2051 -28.1952 -28.1555 -28.1217 -28.1100 -28.0789 -28.0740
   -16.9787 -16.9781 -16.7294 -16.7283 -16.6017 -16.5922 -16.4366 -16.4195
   -16.1214 -16.0932 -15.8555 -15.8524 -15.5259 -15.5232 -15.3632 -15.3506
   -15.2075 -15.2024 -15.1433 -15.0851 -14.5244  -4.7647  -4.7616  -4.5269
    -4.5251  -4.3867  -4.3699  -4.2247  -4.2053  -4.1089  -4.0845  -4.0097
    -4.0047  -3.8949  -3.8678  -3.8409  -3.8240  -3.6485  -3.5984  -3.2599
    -3.2101  -3.0888  -3.0458  -3.0353  -2.9244  -2.7890  -2.7867  -2.7555
    -2.7197  -2.5770  -2.5653  -2.4025  -2.3646  -2.1456  -2.0799  -1.9922
    -1.9533  -1.9146  -1.8897  -1.8217  -1.8039  -1.7263  -1.6441  -1.5043
    -1.3124  -1.2936  -1.2381  -1.2041  -1.1385  -1.0755  -0.9753  -0.8628
    -0.7798  -0.7636  -0.7192  -0.6410  -0.5035  -0.4945  -0.4521  -0.3789
    -0.2957  -0.1547  -0.1420   0.1183   3.7872   3.7951   3.7964   3.9906
     4.4809   4.4812   4.6221   5.0729   5.0825   5.1402   5.2318   5.2445
     5.4251   5.4885   5.5102   5.7667   5.8642   5.9646   6.0856   6.0894
     6.2035   6.3278   6.4840   6.5621   6.6728   6.8203   6.8957   7.0684
     7.1243   7.2832

     occupation numbers 
     1.0000   1.0000   1.0000   1.0000   1.0000   1.0000   1.0000   1.0000
     1.0000   1.0000   1.0000   1.0000   1.0000   1.0000   1.0000   1.0000
     1.0000   1.0000   1.0000   1.0000   1.0000   1.0000   1.0000   1.0000
     1.0000   1.0000   1.0000   1.0000   1.0000   1.0000   1.0000   1.0000
     1.0000   1.0000   1.0000   1.0000   1.0000   1.0000   1.0000   1.0000
     1.0000   1.0000   1.0000   1.0000   1.0000   1.0000   1.0000   1.0000
     1.0000   1.0000   1.0000   1.0000   1.0000   1.0000   1.0000   1.0000
     1.0000   1.0000   1.0000   1.0000   1.0000   1.0000   1.0000   1.0000
     1.0000   1.0000   1.0000   1.0000   1.0000   1.0000   1.0000   1.0000
     1.0000   1.0000   1.0000   1.0000   1.0000   1.0000   1.0000   1.0000
     1.0000   1.0000   1.0000   1.0000   1.0000   1.0000   1.0000   1.0000
     1.0000   1.0000   1.0000   1.0000   1.0000   1.0000   1.0000   1.0000
     1.0000   1.0000   1.0000   1.0000   1.0000   1.0000   1.0000   1.0000
     1.0000   1.0000   1.0000   1.0000   1.0000   1.0000   1.0000   1.0000
     1.0000   1.0000   1.0000   1.0000   1.0000   1.0000   1.0000   1.0000
     1.0000   1.0000   1.0000   1.0000   1.0000   1.0000   1.0000   1.0000
     1.0000   1.0000   1.0000   1.0000   0.9186   0.9141   0.9134   0.7168
     0.0645   0.0643   0.0238   0.0009   0.0008   0.0005   0.0003   0.0003
     0.0001   0.0000   0.0000   0.0000   0.0000   0.0000   0.0000   0.0000
     0.0000   0.0000   0.0000   0.0000   0.0000   0.0000   0.0000   0.0000
     0.0000   0.0000

     the Fermi energy is     4.1169 ev

!    total energy              =   -1853.44037747 Ry
     estimated scf accuracy    <          8.3E-10 Ry
     smearing contrib. (-TS)   =      -0.03683988 Ry
     internal energy E=F+TS    =   -1853.40353759 Ry

     The total energy is F=E-TS. E is the sum of the following terms:
     one-electron contribution =  -41393.04796324 Ry
     hartree contribution      =   20723.73471236 Ry
     xc contribution           =    -289.34745717 Ry
     ewald contribution        =   19105.25764242 Ry
     electric field correction =      -0.00047195 Ry

     convergence has been achieved in   7 iterations

     Forces acting on atoms (cartesian axes, Ry/au):

     atom    1 type  1   force =     0.01547993   -0.01587420    0.07318009
     atom    2 type  1   force =     0.00024718   -0.00185437    0.00987460
     atom    3 type  1   force =     0.00533059   -0.00492302    0.00816896
     atom    4 type  1   force =     0.01554176    0.01584137    0.07317309
     atom    5 type  1   force =     0.00060917    0.00170252    0.00984824
     atom    6 type  1   force =    -0.00210806    0.01336295    0.01547622
     atom    7 type  1   force =    -0.00385155    0.00872859    0.01281710
     atom    8 type  1   force =    -0.00028173    0.00103445    0.00874033
     atom    9 type  1   force =     0.02866263    0.05689864   -0.03429645
     atom   10 type  1   force =    -0.00361089   -0.00884138    0.01278414
     atom   11 type  1   force =     0.00012867   -0.00114025    0.01014217
     atom   12 type  1   force =    -0.06038681   -0.03657207   -0.02720460
     atom   13 type  2   force =    -0.01630965    0.02019161   -0.02494220
     atom   14 type  2   force =    -0.00071716    0.00135542   -0.00415847
     atom   15 type  2   force =     0.01100371   -0.01494289    0.00812281
     atom   16 type  2   force =    -0.01620541   -0.02015241   -0.02513873
     atom   17 type  2   force =    -0.00051253   -0.00120595   -0.00418494
     atom   18 type  2   force =     0.01204911    0.01280041   -0.01521823
     atom   19 type  2   force =     0.00399944   -0.00230742   -0.06019109
     atom   20 type  2   force =     0.00059203   -0.00004517   -0.00487998
     atom   21 type  2   force =    -0.00448872   -0.01174714    0.02419407
     atom   22 type  2   force =     0.00082138    0.00309466   -0.00213836
     atom   23 type  2   force =     0.00149992    0.00110370   -0.00463652
     atom   24 type  2   force =     0.00075556   -0.00305438   -0.00188017
     atom   25 type  2   force =     0.00023040   -0.00076888   -0.00433718
     atom   26 type  2   force =     0.00048439   -0.00020568    0.00029145
     atom   27 type  2   force =     0.00400219    0.00228105   -0.06017987
     atom   28 type  2   force =    -0.00069470   -0.00005173   -0.00729918
     atom   29 type  2   force =     0.00057455    0.00002278   -0.00482127
     atom   30 type  2   force =    -0.00078026   -0.00001251   -0.00175724
     atom   31 type  2   force =     0.01068847   -0.01595315    0.03009828
     atom   32 type  2   force =    -0.00069569    0.00022592   -0.00717797
     atom   33 type  2   force =    -0.00205791    0.00100852   -0.00246908
     The non-local contrib.  to forces
     atom    1 type  1   force =    -0.01955343    0.01743382   -0.07741431
     atom    2 type  1   force =    -0.03042533    0.06476807    0.03263890
     atom    3 type  1   force =    -0.03397196    0.06845753    0.04089845
     atom    4 type  1   force =    -0.01941145   -0.01735562   -0.07746950
     atom    5 type  1   force =    -0.03077353   -0.06479636    0.03261607
     atom    6 type  1   force =    -0.03049718   -0.07170904    0.03197367
     atom    7 type  1   force =     0.03184783   -0.07181493    0.01794194
     atom    8 type  1   force =     0.03044813   -0.06394965    0.03341707
     atom    9 type  1   force =     0.01476982   -0.12205905    0.18171857
     atom   10 type  1   force =     0.03194332    0.07181313    0.01796406
     atom   11 type  1   force =     0.03049331    0.06421866    0.03357237
     atom   12 type  1   force =     0.10687601    0.00527562    0.19765631
     atom   13 type  2   force =    -0.08632856    0.07685637    0.03788847
     atom   14 type  2   force =    -0.05376419    0.04733569    0.03191268
     atom   15 type  2   force =    -0.04232021    0.02449586    0.02980433
     atom   16 type  2   force =    -0.08571562   -0.07635707    0.03745542
     atom   17 type  2   force =    -0.05305629   -0.04667431    0.03182241
     atom   18 type  2   force =    -0.03337231   -0.01830138    0.00753701
     atom   19 type  2   force =    -0.04576159   -0.15011510   -0.04244115
     atom   20 type  2   force =    -0.05225675   -0.14667580    0.00586667
     atom   21 type  2   force =    -0.06504736   -0.16912618    0.03734973
     atom   22 type  2   force =     0.05485964    0.04896883    0.03686711
     atom   23 type  2   force =     0.05465740    0.04676617    0.03087482
     atom   24 type  2   force =     0.05499972   -0.04925205    0.03680457
     atom   25 type  2   force =     0.05265363   -0.04644458    0.03040444
     atom   26 type  2   force =     0.15111394   -0.17917952   -0.32384805
     atom   27 type  2   force =    -0.04569750    0.15006871   -0.04243905
     atom   28 type  2   force =     0.05237707    0.14634688    0.00005561
     atom   29 type  2   force =    -0.05242211    0.14651936    0.00600771
     atom   30 type  2   force =     0.05286664    0.14659805    0.01051348
     atom   31 type  2   force =    -0.03289200    0.13049960    0.03263350
     atom   32 type  2   force =     0.05238474   -0.14653065    0.00017414
     atom   33 type  2   force =     0.04980276   -0.14492232    0.00983639
     The ionic contribution  to forces
     atom    1 type  1   force =    -1.52878986    1.02840423 -240.46857801
     atom    2 type  1   force =    -1.80759980   -2.70611543  -48.29023324
     atom    3 type  1   force =    -2.11365786   -2.51633711  146.41217987
     atom    4 type  1   force =    -1.52591236   -1.02735551 -240.46901520
     atom    5 type  1   force =    -1.80318725    2.70465219  -48.28893169
     atom    6 type  1   force =    -1.48368766    2.77114194  147.51384183
     atom    7 type  1   force =     1.80518416    2.50026668 -145.90800886
     atom    8 type  1   force =     1.77581804    2.71352991   49.28713775
     atom    9 type  1   force =    -3.88188144   -1.34157811  236.80187515
     atom   10 type  1   force =     1.81769341   -2.50024307 -145.90577232
     atom   11 type  1   force =     1.83196237   -2.71293792   49.29532571
     atom   12 type  1   force =     6.37254747   -0.63389052  236.95677334
     atom   13 type  2   force =     0.85452832    0.36071834 -108.77795340
     atom   14 type  2   force =     0.86481756    0.79727782  -12.11806148
     atom   15 type  2   force =     0.09179516    0.62231172   85.55595679
     atom   16 type  2   force =     0.85580330   -0.36221570 -108.76179854
     atom   17 type  2   force =     0.86816827   -0.79905506  -12.10140416
     atom   18 type  2   force =     1.57164614   -0.97913077   85.12812433
     atom   19 type  2   force =     0.37643214    2.31165836  -98.26693245
     atom   20 type  2   force =     0.36456711    2.42154974   -0.02692157
     atom   21 type  2   force =     0.77601014    2.57762699   97.59680553
     atom   22 type  2   force =    -0.86356470    0.78164451  -60.85449488
     atom   23 type  2   force =    -0.86151911    0.79198550   36.71998672
     atom   24 type  2   force =    -0.86708585   -0.77986937  -60.85776323
     atom   25 type  2   force =    -0.87017514   -0.80404518   36.64716720
     atom   26 type  2   force =    -1.96443245    1.51475888  123.43768564
     atom   27 type  2   force =     0.37578422   -2.31348485  -98.26857013
     atom   28 type  2   force =    -0.36310915   -2.41323406  -48.84278376
     atom   29 type  2   force =     0.36112777   -2.42142414   -0.02451436
     atom   30 type  2   force =    -0.39515980   -2.39944414   48.80237278
     atom   31 type  2   force =     0.05689940   -2.03778099   98.17474461
     atom   32 type  2   force =    -0.36232071    2.41551840  -48.84278671
     atom   33 type  2   force =    -0.32870181    2.43509670   48.74454675
     The local contribution  to forces
     atom    1 type  1   force =     1.56382415   -1.06171474  240.61921555
     atom    2 type  1   force =     1.83827199    2.63949091   48.26750957
     atom    3 type  1   force =     2.15296069    2.44295375 -146.44482218
     atom    4 type  1   force =     1.56086650    1.06055149  240.61970092
     atom    5 type  1   force =     1.83456980   -2.63815475   48.26620444
     atom    6 type  1   force =     1.51207693   -2.68607044 -147.53025078
     atom    7 type  1   force =    -1.84088373   -2.41972469  145.90290321
     atom    8 type  1   force =    -1.80654815   -2.64854710  -49.31174275
     atom    9 type  1   force =     3.89576702    1.52052397 -237.01781759
     atom   10 type  1   force =    -1.85324774    2.41958663  145.90061168
     atom   11 type  1   force =    -1.86232699    2.64757678  -49.31868441
     atom   12 type  1   force =    -6.53980127    0.59204792 -237.18155991
     atom   13 type  2   force =    -0.78450856   -0.41738622  108.71514207
     atom   14 type  2   force =    -0.81177074   -0.84325993   12.08201746
     atom   15 type  2   force =    -0.03847248   -0.66175318  -85.57758422
     atom   16 type  2   force =    -0.78629224    0.41841981  108.69922387
     atom   17 type  2   force =    -0.81562453    0.84452162   12.06542387
     atom   18 type  2   force =    -1.52622328    1.01023152  -85.15082506
     atom   19 type  2   force =    -0.32667176   -2.16385201   98.24919779
     atom   20 type  2   force =    -0.31171857   -2.27492053    0.01620768
     atom   21 type  2   force =    -0.71545040   -2.42025011  -97.60990663
     atom   22 type  2   force =     0.80952644   -0.82751975   60.81549649
     atom   23 type  2   force =     0.80836159   -0.83764959  -36.75545136
     atom   24 type  2   force =     0.81284180    0.82606471   60.81908572
     atom   25 type  2   force =     0.81775138    0.84971882  -36.68186270
     atom   26 type  2   force =     1.81381378   -1.33579338 -123.11350619
     atom   27 type  2   force =    -0.32608504    2.16569514   98.25084464
     atom   28 type  2   force =     0.31003707    2.26683368   48.83543847
     atom   29 type  2   force =    -0.30813140    2.27492557    0.01371795
     atom   30 type  2   force =     0.34151270    2.25283182  -48.81459470
     atom   31 type  2   force =    -0.01332105    1.89132709  -98.17722302
     atom   32 type  2   force =     0.30924002   -2.26876370   48.83544423
     atom   33 type  2   force =     0.27684096   -2.28916720  -48.75680281
     The core correction contribution to forces
     atom    1 type  1   force =     0.00000000    0.00000000    0.00000000
     atom    2 type  1   force =     0.00000000    0.00000000    0.00000000
     atom    3 type  1   force =     0.00000000    0.00000000    0.00000000
     atom    4 type  1   force =     0.00000000    0.00000000    0.00000000
     atom    5 type  1   force =     0.00000000    0.00000000    0.00000000
     atom    6 type  1   force =     0.00000000    0.00000000    0.00000000
     atom    7 type  1   force =     0.00000000    0.00000000    0.00000000
     atom    8 type  1   force =     0.00000000    0.00000000    0.00000000
     atom    9 type  1   force =     0.00000000    0.00000000    0.00000000
     atom   10 type  1   force =     0.00000000    0.00000000    0.00000000
     atom   11 type  1   force =     0.00000000    0.00000000    0.00000000
     atom   12 type  1   force =     0.00000000    0.00000000    0.00000000
     atom   13 type  2   force =     0.00000000    0.00000000    0.00000000
     atom   14 type  2   force =     0.00000000    0.00000000    0.00000000
     atom   15 type  2   force =     0.00000000    0.00000000    0.00000000
     atom   16 type  2   force =     0.00000000    0.00000000    0.00000000
     atom   17 type  2   force =     0.00000000    0.00000000    0.00000000
     atom   18 type  2   force =     0.00000000    0.00000000    0.00000000
     atom   19 type  2   force =     0.00000000    0.00000000    0.00000000
     atom   20 type  2   force =     0.00000000    0.00000000    0.00000000
     atom   21 type  2   force =     0.00000000    0.00000000    0.00000000
     atom   22 type  2   force =     0.00000000    0.00000000    0.00000000
     atom   23 type  2   force =     0.00000000    0.00000000    0.00000000
     atom   24 type  2   force =     0.00000000    0.00000000    0.00000000
     atom   25 type  2   force =     0.00000000    0.00000000    0.00000000
     atom   26 type  2   force =     0.00000000    0.00000000    0.00000000
     atom   27 type  2   force =     0.00000000    0.00000000    0.00000000
     atom   28 type  2   force =     0.00000000    0.00000000    0.00000000
     atom   29 type  2   force =     0.00000000    0.00000000    0.00000000
     atom   30 type  2   force =     0.00000000    0.00000000    0.00000000
     atom   31 type  2   force =     0.00000000    0.00000000    0.00000000
     atom   32 type  2   force =     0.00000000    0.00000000    0.00000000
     atom   33 type  2   force =     0.00000000    0.00000000    0.00000000
     The Hubbard contrib.    to forces
     atom    1 type  1   force =     0.00000000    0.00000000    0.00000000
     atom    2 type  1   force =     0.00000000    0.00000000    0.00000000
     atom    3 type  1   force =     0.00000000    0.00000000    0.00000000
     atom    4 type  1   force =     0.00000000    0.00000000    0.00000000
     atom    5 type  1   force =     0.00000000    0.00000000    0.00000000
     atom    6 type  1   force =     0.00000000    0.00000000    0.00000000
     atom    7 type  1   force =     0.00000000    0.00000000    0.00000000
     atom    8 type  1   force =     0.00000000    0.00000000    0.00000000
     atom    9 type  1   force =     0.00000000    0.00000000    0.00000000
     atom   10 type  1   force =     0.00000000    0.00000000    0.00000000
     atom   11 type  1   force =     0.00000000    0.00000000    0.00000000
     atom   12 type  1   force =     0.00000000    0.00000000    0.00000000
     atom   13 type  2   force =     0.00000000    0.00000000    0.00000000
     atom   14 type  2   force =     0.00000000    0.00000000    0.00000000
     atom   15 type  2   force =     0.00000000    0.00000000    0.00000000
     atom   16 type  2   force =     0.00000000    0.00000000    0.00000000
     atom   17 type  2   force =     0.00000000    0.00000000    0.00000000
     atom   18 type  2   force =     0.00000000    0.00000000    0.00000000
     atom   19 type  2   force =     0.00000000    0.00000000    0.00000000
     atom   20 type  2   force =     0.00000000    0.00000000    0.00000000
     atom   21 type  2   force =     0.00000000    0.00000000    0.00000000
     atom   22 type  2   force =     0.00000000    0.00000000    0.00000000
     atom   23 type  2   force =     0.00000000    0.00000000    0.00000000
     atom   24 type  2   force =     0.00000000    0.00000000    0.00000000
     atom   25 type  2   force =     0.00000000    0.00000000    0.00000000
     atom   26 type  2   force =     0.00000000    0.00000000    0.00000000
     atom   27 type  2   force =     0.00000000    0.00000000    0.00000000
     atom   28 type  2   force =     0.00000000    0.00000000    0.00000000
     atom   29 type  2   force =     0.00000000    0.00000000    0.00000000
     atom   30 type  2   force =     0.00000000    0.00000000    0.00000000
     atom   31 type  2   force =     0.00000000    0.00000000    0.00000000
     atom   32 type  2   force =     0.00000000    0.00000000    0.00000000
     atom   33 type  2   force =     0.00000000    0.00000000    0.00000000
     The SCF correction term to forces
     atom    1 type  1   force =     0.00000000    0.00000000    0.00000000
     atom    2 type  1   force =     0.00000000    0.00000000    0.00000000
     atom    3 type  1   force =     0.00000000    0.00000000    0.00000000
     atom    4 type  1   force =     0.00000000    0.00000000    0.00000000
     atom    5 type  1   force =     0.00000000    0.00000000    0.00000000
     atom    6 type  1   force =     0.00000000    0.00000000    0.00000000
     atom    7 type  1   force =     0.00000000    0.00000000    0.00000000
     atom    8 type  1   force =     0.00000000    0.00000000    0.00000000
     atom    9 type  1   force =     0.00000000    0.00000000    0.00000000
     atom   10 type  1   force =     0.00000000    0.00000000    0.00000000
     atom   11 type  1   force =     0.00000000    0.00000000    0.00000000
     atom   12 type  1   force =     0.00000000    0.00000000    0.00000000
     atom   13 type  2   force =     0.00000000    0.00000000    0.00000000
     atom   14 type  2   force =     0.00000000    0.00000000    0.00000000
     atom   15 type  2   force =     0.00000000    0.00000000    0.00000000
     atom   16 type  2   force =     0.00000000    0.00000000    0.00000000
     atom   17 type  2   force =     0.00000000    0.00000000    0.00000000
     atom   18 type  2   force =     0.00000000    0.00000000    0.00000000
     atom   19 type  2   force =     0.00000000    0.00000000    0.00000000
     atom   20 type  2   force =     0.00000000    0.00000000    0.00000000
     atom   21 type  2   force =     0.00000000    0.00000000    0.00000000
     atom   22 type  2   force =     0.00000000    0.00000000    0.00000000
     atom   23 type  2   force =     0.00000000    0.00000000    0.00000000
     atom   24 type  2   force =     0.00000000    0.00000000    0.00000000
     atom   25 type  2   force =     0.00000000    0.00000000    0.00000000
     atom   26 type  2   force =    -0.00001108    0.00000657   -0.00001924
     atom   27 type  2   force =     0.00000000    0.00000000    0.00000000
     atom   28 type  2   force =     0.00000000    0.00000000    0.00000000
     atom   29 type  2   force =     0.00000000    0.00000000    0.00000000
     atom   30 type  2   force =     0.00000000    0.00000000    0.00000000
     atom   31 type  2   force =     0.00000000    0.00000000    0.00000000
     atom   32 type  2   force =     0.00000000    0.00000000    0.00000000
     atom   33 type  2   force =     0.00000000    0.00000000    0.00000000

     Total force =     0.000602     Total SCF correction =     0.000023
     Energy error            =      1.3E-06
     Gradient error          =      4.8E-04

     number of scf cycles    =  12
     number of bfgs steps    =  11

     energy   old            =   -1853.4403761920 Ry
     energy   new            =   -1853.4403774688 Ry

     CASE: energy  _new < energy  _old

     new trust radius        =       0.0030874418 bohr
     new conv_thr            =       0.0000000013 Ry


ATOMIC_POSITIONS (angstrom)
Hf            4.0076390000        3.7813620000        6.1529890000    0   0   0
Hf            4.0076390000        3.7813620000       11.0753320000    0   0   0
Hf            4.0076390000        3.7813620000       15.9976750000    0   0   0
Hf            1.4522770000        1.1321830000        6.1529770000    0   0   0
Hf            1.4522770000        1.1321830000       11.0753200000    0   0   0
Hf            1.4522770000        1.1321830000       15.9976630000    0   0   0
Hf            3.6579980000        1.1322110000        8.6140330000    0   0   0
Hf            3.6579980000        1.1322110000       13.5363760000    0   0   0
Hf            3.6579980000        1.1322110000       18.4587190000    0   0   0
Hf            1.1027520000        3.7813090000        8.6141070000    0   0   0
Hf            1.1027520000        3.7813090000       13.5364490000    0   0   0
Hf            1.1027520000        3.7813090000       18.4587920000    0   0   0
O             3.1707970000        2.0862730000        6.8074440000    0   0   0
O             3.1707970000        2.0862730000       11.7297860000    0   0   0
O             3.1707970000        2.0862730000       16.6521290000    0   0   0
O             0.6152330000        2.8266930000        6.8083890000    0   0   0
O             0.6152330000        2.8266930000       11.7307320000    0   0   0
O             0.6152330000        2.8266930000       16.6530750000    0   0   0
O             5.0530890000        0.2074550000        7.3799440000    0   0   0
O             5.0530890000        0.2074550000       12.3022870000    0   0   0
O             5.0530890000        0.2074550000       17.2246300000    0   0   0
O             1.9399660000        2.0865810000        9.2696970000    0   0   0
O             1.9399660000        2.0865810000       14.1920390000    0   0   0
O             4.4952530000        2.8267400000        9.2692970000    0   0   0
O             4.4952530000        2.8267400000       14.1916400000    0   0   0
O             4.5666511607        2.7938142273       18.9948569634
O             2.4978700000       -0.2075440000        7.3798460000    0   0   0
O             2.6124080000       -0.2081150000        9.8410840000    0   0   0
O             2.4978700000       -0.2075440000       12.3021890000    0   0   0
O             2.6124080000       -0.2081150000       14.7634270000    0   0   0
O             2.4978700000       -0.2075440000       17.2245320000    0   0   0
O             5.1675430000        0.2075860000        9.8410300000    0   0   0
O             5.1675430000        0.2075860000       14.7633720000    0   0   0



     Writing output data file ./hfo2.save/
     NEW-OLD atomic charge density approx. for the potential

     negative rho (up, down):  9.004E-06 0.000E+00
 
     Adding external electric field

     Computed dipole along edir(3) : 
        Elec. dipole         -2.7569 Ry au,         -7.0074 Debye
        Ion. dipole          -2.7559 Ry au,         -7.0048 Debye
        Dipole                0.4727 Ry au,          1.2016 Debye
        Dipole field          0.0010 Ry au, 
 
        E field amplitude [Ha a.u.]:  1.0000E-03
        Potential amp.       -0.0002 Ry
        Total length         62.8334 bohr
 

     total cpu time spent up to now is      835.4 secs

     Self-consistent Calculation

     iteration #  1     ecut=    50.00 Ry     beta= 0.30
     Davidson diagonalization with overlap
     ethr =  1.00E-06,  avg # of iterations =  2.0

     Threshold (ethr) on eigenvalues was too large:
     Diagonalizing with lowered threshold

     Davidson diagonalization with overlap
     ethr =  8.82E-10,  avg # of iterations =  3.9

     negative rho (up, down):  5.526E-06 0.000E+00
 
     Adding external electric field

     Computed dipole along edir(3) : 
        Elec. dipole         -2.7569 Ry au,         -7.0074 Debye
        Ion. dipole          -2.7559 Ry au,         -7.0048 Debye
        Dipole                0.4728 Ry au,          1.2016 Debye
        Dipole field          0.0010 Ry au, 
 
        E field amplitude [Ha a.u.]:  1.0000E-03
        Potential amp.       -0.0002 Ry
        Total length         62.8334 bohr
 

     total cpu time spent up to now is      847.9 secs

     total energy              =   -1853.44037933 Ry
     estimated scf accuracy    <       0.00000248 Ry

     iteration #  2     ecut=    50.00 Ry     beta= 0.30
     Davidson diagonalization with overlap
     ethr =  9.18E-10,  avg # of iterations =  1.0

     negative rho (up, down):  3.299E-06 0.000E+00
 
     Adding external electric field

     Computed dipole along edir(3) : 
        Elec. dipole         -2.7569 Ry au,         -7.0074 Debye
        Ion. dipole          -2.7559 Ry au,         -7.0048 Debye
        Dipole                0.4728 Ry au,          1.2016 Debye
        Dipole field          0.0010 Ry au, 
 
        E field amplitude [Ha a.u.]:  1.0000E-03
        Potential amp.       -0.0002 Ry
        Total length         62.8334 bohr
 

     total cpu time spent up to now is      857.1 secs

     total energy              =   -1853.44037921 Ry
     estimated scf accuracy    <       0.00000072 Ry

     iteration #  3     ecut=    50.00 Ry     beta= 0.30
     Davidson diagonalization with overlap
     ethr =  2.68E-10,  avg # of iterations =  2.1

     negative rho (up, down):  2.123E-06 0.000E+00
 
     Adding external electric field

     Computed dipole along edir(3) : 
        Elec. dipole         -2.7569 Ry au,         -7.0074 Debye
        Ion. dipole          -2.7559 Ry au,         -7.0048 Debye
        Dipole                0.4727 Ry au,          1.2016 Debye
        Dipole field          0.0010 Ry au, 
 
        E field amplitude [Ha a.u.]:  1.0000E-03
        Potential amp.       -0.0002 Ry
        Total length         62.8334 bohr
 

     total cpu time spent up to now is      865.1 secs

     total energy              =   -1853.44037910 Ry
     estimated scf accuracy    <       0.00000027 Ry

     iteration #  4     ecut=    50.00 Ry     beta= 0.30
     Davidson diagonalization with overlap
     ethr =  9.94E-11,  avg # of iterations =  4.3

     negative rho (up, down):  1.079E-06 0.000E+00
 
     Adding external electric field

     Computed dipole along edir(3) : 
        Elec. dipole         -2.7569 Ry au,         -7.0074 Debye
        Ion. dipole          -2.7559 Ry au,         -7.0048 Debye
        Dipole                0.4727 Ry au,          1.2015 Debye
        Dipole field          0.0010 Ry au, 
 
        E field amplitude [Ha a.u.]:  1.0000E-03
        Potential amp.       -0.0002 Ry
        Total length         62.8334 bohr
 

     total cpu time spent up to now is      869.3 secs

     total energy              =   -1853.44037914 Ry
     estimated scf accuracy    <       0.00000002 Ry

     iteration #  5     ecut=    50.00 Ry     beta= 0.30
     Davidson diagonalization with overlap
     ethr =  8.93E-12,  avg # of iterations =  4.4

     negative rho (up, down):  4.485E-07 0.000E+00
 
     Adding external electric field

     Computed dipole along edir(3) : 
        Elec. dipole         -2.7569 Ry au,         -7.0074 Debye
        Ion. dipole          -2.7559 Ry au,         -7.0048 Debye
        Dipole                0.4727 Ry au,          1.2015 Debye
        Dipole field          0.0010 Ry au, 
 
        E field amplitude [Ha a.u.]:  1.0000E-03
        Potential amp.       -0.0002 Ry
        Total length         62.8334 bohr
 

     total cpu time spent up to now is      873.3 secs

     total energy              =   -1853.44037914 Ry
     estimated scf accuracy    <       0.00000001 Ry

     iteration #  6     ecut=    50.00 Ry     beta= 0.30
     Davidson diagonalization with overlap
     ethr =  4.21E-12,  avg # of iterations =  2.4

     negative rho (up, down):  1.491E-07 0.000E+00
 
     Adding external electric field

     Computed dipole along edir(3) : 
        Elec. dipole         -2.7569 Ry au,         -7.0074 Debye
        Ion. dipole          -2.7559 Ry au,         -7.0048 Debye
        Dipole                0.4727 Ry au,          1.2014 Debye
        Dipole field          0.0010 Ry au, 
 
        E field amplitude [Ha a.u.]:  1.0000E-03
        Potential amp.       -0.0002 Ry
        Total length         62.8334 bohr
 

     total cpu time spent up to now is      877.1 secs

     total energy              =   -1853.44037914 Ry
     estimated scf accuracy    <          7.8E-09 Ry

     iteration #  7     ecut=    50.00 Ry     beta= 0.30
     Davidson diagonalization with overlap
     ethr =  2.87E-12,  avg # of iterations =  2.0

     negative rho (up, down):  2.988E-08 0.000E+00
 
     Adding external electric field

     Computed dipole along edir(3) : 
        Elec. dipole         -2.7569 Ry au,         -7.0074 Debye
        Ion. dipole          -2.7559 Ry au,         -7.0048 Debye
        Dipole                0.4727 Ry au,          1.2014 Debye
        Dipole field          0.0010 Ry au, 
 
        E field amplitude [Ha a.u.]:  1.0000E-03
        Potential amp.       -0.0002 Ry
        Total length         62.8334 bohr
 

     total cpu time spent up to now is      880.9 secs

     total energy              =   -1853.44037914 Ry
     estimated scf accuracy    <          2.6E-09 Ry

     iteration #  8     ecut=    50.00 Ry     beta= 0.30
     Davidson diagonalization with overlap
     ethr =  9.53E-13,  avg # of iterations =  3.0
 
     Adding external electric field

     Computed dipole along edir(3) : 
        Elec. dipole         -2.7569 Ry au,         -7.0074 Debye
        Ion. dipole          -2.7559 Ry au,         -7.0048 Debye
        Dipole                0.4727 Ry au,          1.2016 Debye
        Dipole field          0.0010 Ry au, 
 
        E field amplitude [Ha a.u.]:  1.0000E-03
        Potential amp.       -0.0002 Ry
        Total length         62.8334 bohr
 

     total cpu time spent up to now is      882.9 secs

     End of self-consistent calculation

          k = 0.0000 0.0000 0.0000 ( 35385 PWs)   bands (ev):

   -59.2577 -59.2443 -59.0038 -58.9883 -58.8438 -58.8418 -58.8265 -58.7849
   -58.7183 -58.7029 -58.5926 -58.5720 -29.1031 -29.0436 -28.9562 -28.8770
   -28.8310 -28.7730 -28.7670 -28.7389 -28.7009 -28.6674 -28.6503 -28.6405
   -28.6246 -28.6086 -28.5807 -28.5347 -28.5270 -28.5165 -28.4747 -28.4341
   -28.4246 -28.3768 -28.3744 -28.3632 -28.3249 -28.3167 -28.2960 -28.2713
   -28.2420 -28.1986 -28.1942 -28.1637 -28.1428 -28.1163 -28.0837 -28.0618
   -17.8387 -17.4327 -16.9260 -16.6574 -16.3965 -16.3594 -16.2177 -16.1338
   -16.0486 -16.0247 -15.9024 -15.7308 -15.5493 -15.4004 -15.3882 -15.2598
   -15.2537 -15.1327 -15.0815 -15.0122 -14.5639  -5.4548  -5.4326  -5.2623
    -5.2169  -5.0684  -4.9772  -4.6688  -4.6153  -4.4377  -4.4018  -4.2756
    -4.2299  -4.1262  -3.9064  -3.8090  -3.6425  -3.6074  -3.4447  -3.3964
    -3.3438  -3.1384  -3.0776  -2.8484  -2.8057  -2.7787  -2.6677  -2.5938
    -2.4898  -2.4359  -2.2952  -2.2269  -2.1301  -1.9885  -1.9857  -1.9583
    -1.8568  -1.7559  -1.7266  -1.7045  -1.6774  -1.6167  -1.5991  -1.2708
    -1.2422  -1.1854  -1.0670  -0.8928  -0.8683  -0.8205  -0.7134  -0.6537
    -0.5816  -0.5797  -0.3726  -0.2298  -0.1948  -0.1097   0.0703   0.1076
     0.2435   0.2575   0.3730   0.5005   2.6948   2.9324   4.1635   4.3655
     4.4257   4.8139   5.0386   5.0722   5.3466   5.4959   5.5662   5.8323
     5.9507   6.0167   6.0527   6.1990   6.2490   6.2878   6.4112   6.4576
     6.4669   6.6203   6.6499   6.7090   6.8574   6.8984   7.0026   7.0303
     7.0407   7.2091

     occupation numbers 
     1.0000   1.0000   1.0000   1.0000   1.0000   1.0000   1.0000   1.0000
     1.0000   1.0000   1.0000   1.0000   1.0000   1.0000   1.0000   1.0000
     1.0000   1.0000   1.0000   1.0000   1.0000   1.0000   1.0000   1.0000
     1.0000   1.0000   1.0000   1.0000   1.0000   1.0000   1.0000   1.0000
     1.0000   1.0000   1.0000   1.0000   1.0000   1.0000   1.0000   1.0000
     1.0000   1.0000   1.0000   1.0000   1.0000   1.0000   1.0000   1.0000
     1.0000   1.0000   1.0000   1.0000   1.0000   1.0000   1.0000   1.0000
     1.0000   1.0000   1.0000   1.0000   1.0000   1.0000   1.0000   1.0000
     1.0000   1.0000   1.0000   1.0000   1.0000   1.0000   1.0000   1.0000
     1.0000   1.0000   1.0000   1.0000   1.0000   1.0000   1.0000   1.0000
     1.0000   1.0000   1.0000   1.0000   1.0000   1.0000   1.0000   1.0000
     1.0000   1.0000   1.0000   1.0000   1.0000   1.0000   1.0000   1.0000
     1.0000   1.0000   1.0000   1.0000   1.0000   1.0000   1.0000   1.0000
     1.0000   1.0000   1.0000   1.0000   1.0000   1.0000   1.0000   1.0000
     1.0000   1.0000   1.0000   1.0000   1.0000   1.0000   1.0000   1.0000
     1.0000   1.0000   1.0000   1.0000   1.0000   1.0000   1.0000   1.0000
     1.0000   1.0000   1.0000   1.0000   1.0000   0.9998   0.4148   0.1383
     0.0935   0.0059   0.0011   0.0009   0.0001   0.0000   0.0000   0.0000
     0.0000   0.0000   0.0000   0.0000   0.0000   0.0000   0.0000   0.0000
     0.0000   0.0000   0.0000   0.0000   0.0000   0.0000   0.0000   0.0000
     0.0000   0.0000

          k = 0.0000 0.2600 0.0000 ( 35369 PWs)   bands (ev):

   -59.2560 -59.2459 -59.0020 -58.9900 -58.8435 -58.8401 -58.8282 -58.7852
   -58.7167 -58.7046 -58.5916 -58.5731 -29.0868 -28.9922 -28.9310 -28.8730
   -28.8059 -28.7793 -28.7512 -28.7213 -28.6952 -28.6727 -28.6550 -28.6443
   -28.6371 -28.5902 -28.5766 -28.5459 -28.5243 -28.5194 -28.4943 -28.4451
   -28.4223 -28.4085 -28.3939 -28.3782 -28.3577 -28.3064 -28.2759 -28.2671
   -28.2629 -28.2317 -28.2020 -28.1766 -28.1436 -28.1164 -28.0996 -28.0859
   -17.5769 -17.2212 -16.8102 -16.5965 -16.3708 -16.2892 -16.1465 -16.0863
   -16.0308 -15.9897 -15.9568 -15.7556 -15.6127 -15.5592 -15.4528 -15.4025
   -15.3594 -15.2382 -15.1456 -15.0940 -14.6187  -5.4020  -5.2658  -5.0852
    -4.9669  -4.9282  -4.7077  -4.6018  -4.5510  -4.5138  -4.3666  -4.3032
    -4.1858  -3.9455  -3.8847  -3.7048  -3.6559  -3.5716  -3.4834  -3.3938
    -3.3265  -3.2637  -3.2389  -3.0326  -2.9320  -2.8203  -2.7056  -2.6474
    -2.5392  -2.4331  -2.3450  -2.2938  -2.2137  -2.1615  -2.0552  -2.0300
    -1.9141  -1.8292  -1.6729  -1.5517  -1.4875  -1.4364  -1.3419  -1.2139
    -1.2088  -1.1128  -0.9759  -0.9252  -0.8673  -0.8177  -0.7678  -0.7313
    -0.6680  -0.5793  -0.5271  -0.4033  -0.3172  -0.2501  -0.2194  -0.1917
     0.0791   0.2148   0.3146   0.4440   3.0579   3.2961   4.2348   4.2522
     4.3764   4.8346   4.9113   5.1448   5.2209   5.2514   5.3459   5.4422
     5.6741   5.7175   5.8477   5.8774   5.9783   6.1240   6.1580   6.3610
     6.5479   6.6255   6.6923   6.7419   6.9360   6.9928   7.0726   7.1632
     7.2410   7.3384

     occupation numbers 
     1.0000   1.0000   1.0000   1.0000   1.0000   1.0000   1.0000   1.0000
     1.0000   1.0000   1.0000   1.0000   1.0000   1.0000   1.0000   1.0000
     1.0000   1.0000   1.0000   1.0000   1.0000   1.0000   1.0000   1.0000
     1.0000   1.0000   1.0000   1.0000   1.0000   1.0000   1.0000   1.0000
     1.0000   1.0000   1.0000   1.0000   1.0000   1.0000   1.0000   1.0000
     1.0000   1.0000   1.0000   1.0000   1.0000   1.0000   1.0000   1.0000
     1.0000   1.0000   1.0000   1.0000   1.0000   1.0000   1.0000   1.0000
     1.0000   1.0000   1.0000   1.0000   1.0000   1.0000   1.0000   1.0000
     1.0000   1.0000   1.0000   1.0000   1.0000   1.0000   1.0000   1.0000
     1.0000   1.0000   1.0000   1.0000   1.0000   1.0000   1.0000   1.0000
     1.0000   1.0000   1.0000   1.0000   1.0000   1.0000   1.0000   1.0000
     1.0000   1.0000   1.0000   1.0000   1.0000   1.0000   1.0000   1.0000
     1.0000   1.0000   1.0000   1.0000   1.0000   1.0000   1.0000   1.0000
     1.0000   1.0000   1.0000   1.0000   1.0000   1.0000   1.0000   1.0000
     1.0000   1.0000   1.0000   1.0000   1.0000   1.0000   1.0000   1.0000
     1.0000   1.0000   1.0000   1.0000   1.0000   1.0000   1.0000   1.0000
     1.0000   1.0000   1.0000   1.0000   0.9996   0.9976   0.2956   0.2697
     0.1290   0.0051   0.0029   0.0005   0.0003   0.0002   0.0001   0.0001
     0.0000   0.0000   0.0000   0.0000   0.0000   0.0000   0.0000   0.0000
     0.0000   0.0000   0.0000   0.0000   0.0000   0.0000   0.0000   0.0000
     0.0000   0.0000

          k = 0.0000-0.5200 0.0000 ( 35392 PWs)   bands (ev):

   -59.2534 -59.2484 -58.9995 -58.9925 -58.8432 -58.8376 -58.8307 -58.7854
   -58.7143 -58.7070 -58.5905 -58.5744 -29.0680 -28.9226 -28.8864 -28.8816
   -28.7858 -28.7805 -28.7580 -28.7205 -28.6964 -28.6775 -28.6480 -28.6331
   -28.6243 -28.5975 -28.5769 -28.5548 -28.5239 -28.5142 -28.4919 -28.4607
   -28.4550 -28.4223 -28.4156 -28.3740 -28.3644 -28.3425 -28.3077 -28.2911
   -28.2669 -28.2311 -28.1889 -28.1679 -28.1505 -28.1421 -28.1211 -28.0940
   -17.2009 -16.9096 -16.6570 -16.5331 -16.3391 -16.2151 -16.1825 -16.0684
   -16.0439 -16.0060 -15.9572 -15.9389 -15.7922 -15.6315 -15.6280 -15.4343
   -15.4256 -15.3030 -15.1992 -15.1745 -14.6713  -5.2010  -5.1296  -4.9918
    -4.7967  -4.6351  -4.5531  -4.4676  -4.4538  -4.2783  -4.2472  -4.2264
    -4.1572  -4.0575  -3.9484  -3.8831  -3.8300  -3.7686  -3.5864  -3.5491
    -3.2890  -3.2253  -3.1348  -3.0910  -2.8872  -2.8563  -2.7648  -2.6408
    -2.6026  -2.4286  -2.3676  -2.2812  -2.2205  -2.0807  -2.0121  -1.9545
    -1.8405  -1.6466  -1.5894  -1.5312  -1.4628  -1.4501  -1.3298  -1.3076
    -1.2597  -1.1755  -1.1666  -1.1062  -1.0339  -0.9597  -0.8966  -0.8311
    -0.7560  -0.6431  -0.5751  -0.5513  -0.4345  -0.3114  -0.2336  -0.2223
     0.0362   0.1595   0.3103   0.3944   3.6376   3.7967   4.0640   4.1358
     4.3650   4.5096   4.5759   5.0246   5.1022   5.2332   5.2460   5.2777
     5.4603   5.5085   5.5606   5.6796   5.7400   5.9698   6.1596   6.3037
     6.4445   6.4818   6.5779   6.8456   6.9835   7.1048   7.1346   7.1932
     7.2718   7.2825

     occupation numbers 
     1.0000   1.0000   1.0000   1.0000   1.0000   1.0000   1.0000   1.0000
     1.0000   1.0000   1.0000   1.0000   1.0000   1.0000   1.0000   1.0000
     1.0000   1.0000   1.0000   1.0000   1.0000   1.0000   1.0000   1.0000
     1.0000   1.0000   1.0000   1.0000   1.0000   1.0000   1.0000   1.0000
     1.0000   1.0000   1.0000   1.0000   1.0000   1.0000   1.0000   1.0000
     1.0000   1.0000   1.0000   1.0000   1.0000   1.0000   1.0000   1.0000
     1.0000   1.0000   1.0000   1.0000   1.0000   1.0000   1.0000   1.0000
     1.0000   1.0000   1.0000   1.0000   1.0000   1.0000   1.0000   1.0000
     1.0000   1.0000   1.0000   1.0000   1.0000   1.0000   1.0000   1.0000
     1.0000   1.0000   1.0000   1.0000   1.0000   1.0000   1.0000   1.0000
     1.0000   1.0000   1.0000   1.0000   1.0000   1.0000   1.0000   1.0000
     1.0000   1.0000   1.0000   1.0000   1.0000   1.0000   1.0000   1.0000
     1.0000   1.0000   1.0000   1.0000   1.0000   1.0000   1.0000   1.0000
     1.0000   1.0000   1.0000   1.0000   1.0000   1.0000   1.0000   1.0000
     1.0000   1.0000   1.0000   1.0000   1.0000   1.0000   1.0000   1.0000
     1.0000   1.0000   1.0000   1.0000   1.0000   1.0000   1.0000   1.0000
     1.0000   1.0000   1.0000   1.0000   0.9713   0.9131   0.5956   0.4649
     0.1388   0.0527   0.0331   0.0013   0.0007   0.0003   0.0002   0.0002
     0.0001   0.0000   0.0000   0.0000   0.0000   0.0000   0.0000   0.0000
     0.0000   0.0000   0.0000   0.0000   0.0000   0.0000   0.0000   0.0000
     0.0000   0.0000

          k = 0.2500 0.0000 0.0000 ( 35470 PWs)   bands (ev):

   -59.2557 -59.2462 -59.0015 -58.9906 -58.8435 -58.8396 -58.8287 -58.7853
   -58.7162 -58.7051 -58.5913 -58.5734 -29.0659 -29.0116 -28.9255 -28.8652
   -28.7932 -28.7914 -28.7603 -28.7192 -28.6824 -28.6643 -28.6526 -28.6391
   -28.6185 -28.6119 -28.5856 -28.5585 -28.5300 -28.5211 -28.4906 -28.4321
   -28.4181 -28.4144 -28.3987 -28.3762 -28.3460 -28.3102 -28.2920 -28.2741
   -28.2521 -28.2296 -28.2039 -28.1749 -28.1434 -28.1148 -28.1033 -28.0874
   -17.5676 -17.2089 -16.7909 -16.6580 -16.3640 -16.3418 -16.2284 -16.1513
   -16.0130 -16.0102 -15.8523 -15.7886 -15.5622 -15.5425 -15.4163 -15.3958
   -15.3186 -15.2624 -15.1710 -15.1113 -14.6219  -5.2084  -5.0828  -4.9500
    -4.8953  -4.7942  -4.6671  -4.5715  -4.5278  -4.3584  -4.3072  -4.1954
    -4.0919  -4.0356  -4.0015  -3.9256  -3.8111  -3.7263  -3.5358  -3.3902
    -3.3438  -3.2526  -3.2087  -3.0408  -3.0260  -2.8398  -2.7734  -2.5764
    -2.5199  -2.3925  -2.3426  -2.2906  -2.2276  -2.1470  -2.0384  -1.9163
    -1.8756  -1.7843  -1.7324  -1.6320  -1.5852  -1.5595  -1.5316  -1.3905
    -1.3587  -1.2688  -1.1537  -1.1065  -0.9737  -0.8740  -0.8006  -0.6582
    -0.6100  -0.5482  -0.4364  -0.4021  -0.3442  -0.2002  -0.1624  -0.0525
    -0.0234   0.0723   0.1175   0.3152   2.9613   3.2720   4.1654   4.3311
     4.6334   4.8620   4.9104   5.1591   5.1769   5.5365   5.5843   5.7179
     5.8598   5.9148   6.0529   6.1236   6.2051   6.3060   6.3638   6.4723
     6.5354   6.6245   6.6455   6.7228   6.7723   6.8814   6.9271   7.0646
     7.1510   7.2507

     occupation numbers 
     1.0000   1.0000   1.0000   1.0000   1.0000   1.0000   1.0000   1.0000
     1.0000   1.0000   1.0000   1.0000   1.0000   1.0000   1.0000   1.0000
     1.0000   1.0000   1.0000   1.0000   1.0000   1.0000   1.0000   1.0000
     1.0000   1.0000   1.0000   1.0000   1.0000   1.0000   1.0000   1.0000
     1.0000   1.0000   1.0000   1.0000   1.0000   1.0000   1.0000   1.0000
     1.0000   1.0000   1.0000   1.0000   1.0000   1.0000   1.0000   1.0000
     1.0000   1.0000   1.0000   1.0000   1.0000   1.0000   1.0000   1.0000
     1.0000   1.0000   1.0000   1.0000   1.0000   1.0000   1.0000   1.0000
     1.0000   1.0000   1.0000   1.0000   1.0000   1.0000   1.0000   1.0000
     1.0000   1.0000   1.0000   1.0000   1.0000   1.0000   1.0000   1.0000
     1.0000   1.0000   1.0000   1.0000   1.0000   1.0000   1.0000   1.0000
     1.0000   1.0000   1.0000   1.0000   1.0000   1.0000   1.0000   1.0000
     1.0000   1.0000   1.0000   1.0000   1.0000   1.0000   1.0000   1.0000
     1.0000   1.0000   1.0000   1.0000   1.0000   1.0000   1.0000   1.0000
     1.0000   1.0000   1.0000   1.0000   1.0000   1.0000   1.0000   1.0000
     1.0000   1.0000   1.0000   1.0000   1.0000   1.0000   1.0000   1.0000
     1.0000   1.0000   1.0000   1.0000   0.9998   0.9980   0.4113   0.1714
     0.0219   0.0042   0.0029   0.0005   0.0004   0.0000   0.0000   0.0000
     0.0000   0.0000   0.0000   0.0000   0.0000   0.0000   0.0000   0.0000
     0.0000   0.0000   0.0000   0.0000   0.0000   0.0000   0.0000   0.0000
     0.0000   0.0000

          k = 0.2500 0.2600 0.0000 ( 35420 PWs)   bands (ev):

   -59.2545 -59.2474 -59.0003 -58.9917 -58.8432 -58.8383 -58.8299 -58.7854
   -58.7150 -58.7063 -58.5908 -58.5740 -29.0802 -29.0184 -28.9345 -28.8773
   -28.8151 -28.7783 -28.7508 -28.7236 -28.7036 -28.6710 -28.6429 -28.6355
   -28.6231 -28.6118 -28.5879 -28.5485 -28.5261 -28.5000 -28.4733 -28.4557
   -28.4446 -28.4216 -28.3895 -28.3699 -28.3347 -28.3243 -28.2958 -28.2707
   -28.2447 -28.2184 -28.1946 -28.1601 -28.1530 -28.1283 -28.1073 -28.0699
   -17.3851 -17.0700 -16.7483 -16.6723 -16.4135 -16.3494 -16.2400 -16.1745
   -16.0279 -16.0035 -15.9101 -15.7443 -15.6287 -15.5407 -15.4674 -15.4196
   -15.3707 -15.2839 -15.1518 -15.0809 -14.6729  -5.1859  -5.0374  -4.8013
    -4.7478  -4.6858  -4.6228  -4.4977  -4.4077  -4.3288  -4.2935  -4.1951
    -4.0871  -3.9989  -3.9477  -3.8500  -3.6370  -3.5263  -3.4081  -3.3437
    -3.3141  -3.2603  -3.1933  -3.1316  -3.0139  -2.9812  -2.8763  -2.7469
    -2.5301  -2.4560  -2.3791  -2.3112  -2.2238  -2.1586  -2.0860  -1.8988
    -1.8127  -1.7783  -1.7335  -1.6212  -1.5722  -1.4950  -1.4316  -1.3963
    -1.3172  -1.2485  -1.1458  -1.0705  -1.0244  -0.9781  -0.9355  -0.7856
    -0.6839  -0.6436  -0.5497  -0.4538  -0.4461  -0.3967  -0.2554  -0.1610
    -0.1143  -0.0063   0.1132   0.3016   3.1572   3.4907   4.0777   4.1326
     4.5983   4.7709   4.8704   5.0449   5.1701   5.2148   5.3676   5.4793
     5.5777   5.7669   5.8391   5.9061   6.0169   6.0896   6.1402   6.3670
     6.4308   6.6098   6.6982   6.7534   6.7736   6.9283   6.9988   7.1279
     7.2094   7.2504

     occupation numbers 
     1.0000   1.0000   1.0000   1.0000   1.0000   1.0000   1.0000   1.0000
     1.0000   1.0000   1.0000   1.0000   1.0000   1.0000   1.0000   1.0000
     1.0000   1.0000   1.0000   1.0000   1.0000   1.0000   1.0000   1.0000
     1.0000   1.0000   1.0000   1.0000   1.0000   1.0000   1.0000   1.0000
     1.0000   1.0000   1.0000   1.0000   1.0000   1.0000   1.0000   1.0000
     1.0000   1.0000   1.0000   1.0000   1.0000   1.0000   1.0000   1.0000
     1.0000   1.0000   1.0000   1.0000   1.0000   1.0000   1.0000   1.0000
     1.0000   1.0000   1.0000   1.0000   1.0000   1.0000   1.0000   1.0000
     1.0000   1.0000   1.0000   1.0000   1.0000   1.0000   1.0000   1.0000
     1.0000   1.0000   1.0000   1.0000   1.0000   1.0000   1.0000   1.0000
     1.0000   1.0000   1.0000   1.0000   1.0000   1.0000   1.0000   1.0000
     1.0000   1.0000   1.0000   1.0000   1.0000   1.0000   1.0000   1.0000
     1.0000   1.0000   1.0000   1.0000   1.0000   1.0000   1.0000   1.0000
     1.0000   1.0000   1.0000   1.0000   1.0000   1.0000   1.0000   1.0000
     1.0000   1.0000   1.0000   1.0000   1.0000   1.0000   1.0000   1.0000
     1.0000   1.0000   1.0000   1.0000   1.0000   1.0000   1.0000   1.0000
     1.0000   1.0000   1.0000   1.0000   0.9991   0.9901   0.5710   0.4706
     0.0282   0.0081   0.0039   0.0011   0.0004   0.0003   0.0001   0.0000
     0.0000   0.0000   0.0000   0.0000   0.0000   0.0000   0.0000   0.0000
     0.0000   0.0000   0.0000   0.0000   0.0000   0.0000   0.0000   0.0000
     0.0000   0.0000

          k = 0.2500-0.5200 0.0000 ( 35366 PWs)   bands (ev):

   -59.2527 -59.2491 -58.9985 -58.9935 -58.8431 -58.8365 -58.8317 -58.7855
   -58.7134 -58.7079 -58.5903 -58.5747 -29.0864 -29.0291 -28.9350 -28.9167
   -28.7918 -28.7880 -28.7535 -28.7434 -28.6933 -28.6763 -28.6563 -28.6498
   -28.6175 -28.6041 -28.5988 -28.5716 -28.5278 -28.5164 -28.4925 -28.4611
   -28.4257 -28.3918 -28.3785 -28.3597 -28.3444 -28.3047 -28.2827 -28.2521
   -28.2433 -28.2179 -28.1906 -28.1526 -28.1366 -28.1172 -28.1055 -28.0933
   -17.1431 -16.8741 -16.7199 -16.6799 -16.4627 -16.3929 -16.3171 -16.2603
   -16.1260 -16.0452 -15.9984 -15.7397 -15.6896 -15.5498 -15.4383 -15.4014
   -15.3134 -15.2713 -15.1756 -15.1239 -14.5936  -5.0559  -5.0231  -4.8173
    -4.6101  -4.5764  -4.4841  -4.3418  -4.3166  -4.2122  -4.1708  -4.0900
    -4.0368  -3.9384  -3.8724  -3.7890  -3.7418  -3.6380  -3.5656  -3.4268
    -3.3477  -3.3094  -3.0083  -2.9643  -2.9012  -2.7966  -2.7321  -2.6637
    -2.6081  -2.4627  -2.4101  -2.3549  -2.2858  -2.2648  -2.2131  -2.0466
    -1.9490  -1.8972  -1.8602  -1.7260  -1.5912  -1.5007  -1.3980  -1.3839
    -1.3345  -1.2407  -1.1934  -1.1301  -1.0331  -0.9888  -0.8876  -0.8477
    -0.7443  -0.7173  -0.6024  -0.5597  -0.4915  -0.4360  -0.2939  -0.2285
    -0.2166  -0.0679   0.1032   0.2830   3.6707   3.7249   4.0435   4.1243
     4.4583   4.4823   4.6642   4.9791   5.0234   5.0970   5.1617   5.3013
     5.3816   5.4543   5.6009   5.6960   5.7711   5.9879   6.1107   6.1788
     6.3740   6.4799   6.6689   6.7107   6.8691   6.9560   7.0329   7.1881
     7.2307   7.2797

     occupation numbers 
     1.0000   1.0000   1.0000   1.0000   1.0000   1.0000   1.0000   1.0000
     1.0000   1.0000   1.0000   1.0000   1.0000   1.0000   1.0000   1.0000
     1.0000   1.0000   1.0000   1.0000   1.0000   1.0000   1.0000   1.0000
     1.0000   1.0000   1.0000   1.0000   1.0000   1.0000   1.0000   1.0000
     1.0000   1.0000   1.0000   1.0000   1.0000   1.0000   1.0000   1.0000
     1.0000   1.0000   1.0000   1.0000   1.0000   1.0000   1.0000   1.0000
     1.0000   1.0000   1.0000   1.0000   1.0000   1.0000   1.0000   1.0000
     1.0000   1.0000   1.0000   1.0000   1.0000   1.0000   1.0000   1.0000
     1.0000   1.0000   1.0000   1.0000   1.0000   1.0000   1.0000   1.0000
     1.0000   1.0000   1.0000   1.0000   1.0000   1.0000   1.0000   1.0000
     1.0000   1.0000   1.0000   1.0000   1.0000   1.0000   1.0000   1.0000
     1.0000   1.0000   1.0000   1.0000   1.0000   1.0000   1.0000   1.0000
     1.0000   1.0000   1.0000   1.0000   1.0000   1.0000   1.0000   1.0000
     1.0000   1.0000   1.0000   1.0000   1.0000   1.0000   1.0000   1.0000
     1.0000   1.0000   1.0000   1.0000   1.0000   1.0000   1.0000   1.0000
     1.0000   1.0000   1.0000   1.0000   1.0000   1.0000   1.0000   1.0000
     1.0000   1.0000   1.0000   1.0000   0.9637   0.9468   0.6313   0.4859
     0.0751   0.0637   0.0176   0.0018   0.0013   0.0007   0.0005   0.0002
     0.0001   0.0001   0.0000   0.0000   0.0000   0.0000   0.0000   0.0000
     0.0000   0.0000   0.0000   0.0000   0.0000   0.0000   0.0000   0.0000
     0.0000   0.0000

          k = 0.2500-0.2600 0.0000 ( 35420 PWs)   bands (ev):

   -59.2545 -59.2474 -59.0003 -58.9917 -58.8433 -58.8383 -58.8299 -58.7853
   -58.7150 -58.7063 -58.5908 -58.5740 -29.0802 -29.0183 -28.9344 -28.8773
   -28.8151 -28.7784 -28.7509 -28.7247 -28.7038 -28.6730 -28.6575 -28.6392
   -28.6322 -28.6178 -28.5883 -28.5658 -28.5381 -28.4996 -28.4786 -28.4610
   -28.4293 -28.4129 -28.3836 -28.3483 -28.3331 -28.3146 -28.2992 -28.2596
   -28.2289 -28.2190 -28.1981 -28.1641 -28.1437 -28.1397 -28.0971 -28.0736
   -17.3857 -17.0823 -16.7719 -16.6730 -16.4260 -16.3581 -16.2541 -16.1972
   -16.0487 -16.0208 -15.9105 -15.7452 -15.6288 -15.5393 -15.4369 -15.4103
   -15.3220 -15.2887 -15.1738 -15.1192 -14.5478  -5.1843  -5.0359  -4.7914
    -4.7474  -4.6965  -4.6301  -4.4813  -4.4033  -4.3433  -4.2873  -4.1908
    -4.1030  -3.9938  -3.9400  -3.8450  -3.6250  -3.5126  -3.3851  -3.3423
    -3.3198  -3.2471  -3.1811  -3.1404  -3.0220  -2.9509  -2.8455  -2.7465
    -2.5570  -2.5141  -2.3943  -2.3241  -2.1816  -2.1334  -2.0610  -1.9685
    -1.8976  -1.7904  -1.7661  -1.6588  -1.5971  -1.5225  -1.4533  -1.4178
    -1.2891  -1.2590  -1.1887  -1.1114  -1.0192  -0.9853  -0.8358  -0.7770
    -0.6563  -0.5960  -0.4958  -0.4505  -0.4272  -0.3963  -0.2937  -0.1581
    -0.1206   0.0061   0.1295   0.2824   3.3614   3.4911   4.0780   4.3241
     4.4683   4.5985   4.8699   5.1643   5.2107   5.2856   5.4727   5.5550
     5.6784   5.8018   5.8633   5.9314   5.9801   6.0302   6.1906   6.2405
     6.3718   6.4761   6.6280   6.7261   6.7706   6.8969   7.0229   7.0753
     7.1527   7.2142

     occupation numbers 
     1.0000   1.0000   1.0000   1.0000   1.0000   1.0000   1.0000   1.0000
     1.0000   1.0000   1.0000   1.0000   1.0000   1.0000   1.0000   1.0000
     1.0000   1.0000   1.0000   1.0000   1.0000   1.0000   1.0000   1.0000
     1.0000   1.0000   1.0000   1.0000   1.0000   1.0000   1.0000   1.0000
     1.0000   1.0000   1.0000   1.0000   1.0000   1.0000   1.0000   1.0000
     1.0000   1.0000   1.0000   1.0000   1.0000   1.0000   1.0000   1.0000
     1.0000   1.0000   1.0000   1.0000   1.0000   1.0000   1.0000   1.0000
     1.0000   1.0000   1.0000   1.0000   1.0000   1.0000   1.0000   1.0000
     1.0000   1.0000   1.0000   1.0000   1.0000   1.0000   1.0000   1.0000
     1.0000   1.0000   1.0000   1.0000   1.0000   1.0000   1.0000   1.0000
     1.0000   1.0000   1.0000   1.0000   1.0000   1.0000   1.0000   1.0000
     1.0000   1.0000   1.0000   1.0000   1.0000   1.0000   1.0000   1.0000
     1.0000   1.0000   1.0000   1.0000   1.0000   1.0000   1.0000   1.0000
     1.0000   1.0000   1.0000   1.0000   1.0000   1.0000   1.0000   1.0000
     1.0000   1.0000   1.0000   1.0000   1.0000   1.0000   1.0000   1.0000
     1.0000   1.0000   1.0000   1.0000   1.0000   1.0000   1.0000   1.0000
     1.0000   1.0000   1.0000   1.0000   0.9961   0.9900   0.5704   0.1788
     0.0701   0.0281   0.0039   0.0005   0.0003   0.0002   0.0000   0.0000
     0.0000   0.0000   0.0000   0.0000   0.0000   0.0000   0.0000   0.0000
     0.0000   0.0000   0.0000   0.0000   0.0000   0.0000   0.0000   0.0000
     0.0000   0.0000

          k =-0.5000 0.0000 0.0000 ( 35502 PWs)   bands (ev):

   -59.2510 -59.2509 -58.9966 -58.9954 -58.8431 -58.8343 -58.8340 -58.7856
   -58.7120 -58.7093 -58.5898 -58.5750 -28.9990 -28.9987 -28.8726 -28.8724
   -28.7845 -28.7842 -28.7170 -28.7168 -28.6859 -28.6858 -28.6512 -28.6511
   -28.5974 -28.5800 -28.5771 -28.5697 -28.5415 -28.5410 -28.4864 -28.4849
   -28.4256 -28.4212 -28.4045 -28.3961 -28.3659 -28.3459 -28.2880 -28.2806
   -28.2726 -28.2283 -28.1927 -28.1883 -28.1609 -28.1278 -28.1243 -28.0950
   -16.9626 -16.9615 -16.6859 -16.6793 -16.4997 -16.4794 -16.2592 -16.2415
   -15.9944 -15.9824 -15.7977 -15.7971 -15.5863 -15.5858 -15.4615 -15.4594
   -15.4069 -15.3560 -15.3091 -15.2509 -14.6821  -4.8442  -4.8433  -4.5928
    -4.5917  -4.4202  -4.4090  -4.2933  -4.2838  -4.1957  -4.1857  -4.0523
    -3.9884  -3.8783  -3.8728  -3.7919  -3.7850  -3.6768  -3.6548  -3.5441
    -3.5297  -3.4231  -3.4124  -3.3155  -3.2999  -3.1838  -3.1398  -2.7473
    -2.6852  -2.5484  -2.4804  -2.3746  -2.3198  -2.1959  -2.1596  -2.0783
    -1.9659  -1.8376  -1.7647  -1.6663  -1.6162  -1.5340  -1.3698  -1.3436
    -1.2860  -1.2494  -1.1414  -1.0822  -1.0408  -0.9298  -0.7834  -0.7175
    -0.7087  -0.6243  -0.5573  -0.4527  -0.4115  -0.4047  -0.3946  -0.2312
    -0.2041  -0.1166  -0.0868   0.2285   3.3799   3.9813   3.9897   3.9907
     4.6278   5.0184   5.0190   5.0876   5.1828   5.1833   5.4210   5.8513
     5.8522   5.9193   5.9236   6.0330   6.1409   6.1848   6.3139   6.3969
     6.4819   6.6049   6.6736   6.7660   6.8191   7.0088   7.0260   7.0731
     7.0867   7.1206

     occupation numbers 
     1.0000   1.0000   1.0000   1.0000   1.0000   1.0000   1.0000   1.0000
     1.0000   1.0000   1.0000   1.0000   1.0000   1.0000   1.0000   1.0000
     1.0000   1.0000   1.0000   1.0000   1.0000   1.0000   1.0000   1.0000
     1.0000   1.0000   1.0000   1.0000   1.0000   1.0000   1.0000   1.0000
     1.0000   1.0000   1.0000   1.0000   1.0000   1.0000   1.0000   1.0000
     1.0000   1.0000   1.0000   1.0000   1.0000   1.0000   1.0000   1.0000
     1.0000   1.0000   1.0000   1.0000   1.0000   1.0000   1.0000   1.0000
     1.0000   1.0000   1.0000   1.0000   1.0000   1.0000   1.0000   1.0000
     1.0000   1.0000   1.0000   1.0000   1.0000   1.0000   1.0000   1.0000
     1.0000   1.0000   1.0000   1.0000   1.0000   1.0000   1.0000   1.0000
     1.0000   1.0000   1.0000   1.0000   1.0000   1.0000   1.0000   1.0000
     1.0000   1.0000   1.0000   1.0000   1.0000   1.0000   1.0000   1.0000
     1.0000   1.0000   1.0000   1.0000   1.0000   1.0000   1.0000   1.0000
     1.0000   1.0000   1.0000   1.0000   1.0000   1.0000   1.0000   1.0000
     1.0000   1.0000   1.0000   1.0000   1.0000   1.0000   1.0000   1.0000
     1.0000   1.0000   1.0000   1.0000   1.0000   1.0000   1.0000   1.0000
     1.0000   1.0000   1.0000   1.0000   0.9956   0.7300   0.7176   0.7162
     0.0228   0.0013   0.0013   0.0008   0.0004   0.0004   0.0001   0.0000
     0.0000   0.0000   0.0000   0.0000   0.0000   0.0000   0.0000   0.0000
     0.0000   0.0000   0.0000   0.0000   0.0000   0.0000   0.0000   0.0000
     0.0000   0.0000

          k =-0.5000 0.2600 0.0000 ( 35450 PWs)   bands (ev):

   -59.2510 -59.2509 -58.9966 -58.9954 -58.8430 -58.8343 -58.8339 -58.7856
   -58.7120 -58.7093 -58.5899 -58.5750 -29.0541 -29.0538 -28.9230 -28.9229
   -28.7946 -28.7944 -28.7441 -28.7438 -28.6791 -28.6777 -28.6516 -28.6491
   -28.6200 -28.6046 -28.5900 -28.5810 -28.5262 -28.5227 -28.4955 -28.4714
   -28.4283 -28.3902 -28.3746 -28.3623 -28.3402 -28.3131 -28.2637 -28.2486
   -28.2436 -28.2230 -28.1961 -28.1555 -28.1387 -28.1157 -28.1072 -28.0940
   -16.9683 -16.9675 -16.7074 -16.7036 -16.5638 -16.5445 -16.3499 -16.3369
   -16.0561 -16.0444 -15.8252 -15.8239 -15.5605 -15.5563 -15.4244 -15.4045
   -15.3082 -15.2747 -15.2057 -15.1561 -14.5980  -4.8949  -4.8919  -4.5830
    -4.5730  -4.3829  -4.3614  -4.2614  -4.2566  -4.1251  -4.1134  -3.9933
    -3.9406  -3.8647  -3.8463  -3.7510  -3.7356  -3.6617  -3.6356  -3.4762
    -3.4503  -3.2529  -3.2359  -3.1508  -3.1300  -2.9247  -2.9052  -2.7161
    -2.6839  -2.5605  -2.5321  -2.3369  -2.2720  -2.2301  -2.1968  -2.0277
    -1.9906  -1.9750  -1.8907  -1.7629  -1.6833  -1.6009  -1.5490  -1.4198
    -1.3656  -1.2812  -1.2342  -1.1761  -1.0712  -1.0238  -0.9019  -0.8727
    -0.7287  -0.6392  -0.5866  -0.5409  -0.4980  -0.4112  -0.3933  -0.2918
    -0.2448  -0.0994  -0.0468   0.1805   3.5422   3.9079   3.9086   4.0934
     4.4423   4.7990   4.7998   4.9956   4.9971   5.2092   5.5037   5.5192
     5.5653   5.7507   5.7908   5.9498   6.0124   6.1165   6.1800   6.2469
     6.2940   6.4460   6.5256   6.5972   6.7257   6.7976   6.9664   7.0300
     7.0833   7.1656

     occupation numbers 
     1.0000   1.0000   1.0000   1.0000   1.0000   1.0000   1.0000   1.0000
     1.0000   1.0000   1.0000   1.0000   1.0000   1.0000   1.0000   1.0000
     1.0000   1.0000   1.0000   1.0000   1.0000   1.0000   1.0000   1.0000
     1.0000   1.0000   1.0000   1.0000   1.0000   1.0000   1.0000   1.0000
     1.0000   1.0000   1.0000   1.0000   1.0000   1.0000   1.0000   1.0000
     1.0000   1.0000   1.0000   1.0000   1.0000   1.0000   1.0000   1.0000
     1.0000   1.0000   1.0000   1.0000   1.0000   1.0000   1.0000   1.0000
     1.0000   1.0000   1.0000   1.0000   1.0000   1.0000   1.0000   1.0000
     1.0000   1.0000   1.0000   1.0000   1.0000   1.0000   1.0000   1.0000
     1.0000   1.0000   1.0000   1.0000   1.0000   1.0000   1.0000   1.0000
     1.0000   1.0000   1.0000   1.0000   1.0000   1.0000   1.0000   1.0000
     1.0000   1.0000   1.0000   1.0000   1.0000   1.0000   1.0000   1.0000
     1.0000   1.0000   1.0000   1.0000   1.0000   1.0000   1.0000   1.0000
     1.0000   1.0000   1.0000   1.0000   1.0000   1.0000   1.0000   1.0000
     1.0000   1.0000   1.0000   1.0000   1.0000   1.0000   1.0000   1.0000
     1.0000   1.0000   1.0000   1.0000   1.0000   1.0000   1.0000   1.0000
     1.0000   1.0000   1.0000   1.0000   0.9855   0.8226   0.8219   0.5427
     0.0837   0.0066   0.0066   0.0016   0.0015   0.0003   0.0000   0.0000
     0.0000   0.0000   0.0000   0.0000   0.0000   0.0000   0.0000   0.0000
     0.0000   0.0000   0.0000   0.0000   0.0000   0.0000   0.0000   0.0000
     0.0000   0.0000

          k =-0.5000-0.5200 0.0000 ( 35320 PWs)   bands (ev):

   -59.2509 -59.2508 -58.9966 -58.9954 -58.8430 -58.8342 -58.8339 -58.7855
   -58.7120 -58.7093 -58.5900 -58.5751 -29.0936 -29.0933 -28.9697 -28.9696
   -28.8274 -28.8270 -28.7444 -28.7432 -28.6943 -28.6930 -28.6677 -28.6552
   -28.6385 -28.6264 -28.5797 -28.5623 -28.5214 -28.4905 -28.4877 -28.4722
   -28.4172 -28.3825 -28.3391 -28.3300 -28.3283 -28.3074 -28.2364 -28.2246
   -28.2080 -28.2056 -28.1955 -28.1560 -28.1220 -28.1104 -28.0793 -28.0745
   -16.9791 -16.9785 -16.7299 -16.7288 -16.6022 -16.5926 -16.4370 -16.4201
   -16.1218 -16.0937 -15.8559 -15.8527 -15.5263 -15.5236 -15.3638 -15.3510
   -15.2080 -15.2028 -15.1439 -15.0856 -14.5243  -4.7651  -4.7620  -4.5273
    -4.5255  -4.3871  -4.3703  -4.2251  -4.2057  -4.1093  -4.0849  -4.0101
    -4.0052  -3.8954  -3.8682  -3.8414  -3.8244  -3.6488  -3.5988  -3.2602
    -3.2106  -3.0893  -3.0462  -3.0357  -2.9249  -2.7894  -2.7871  -2.7560
    -2.7201  -2.5774  -2.5657  -2.4031  -2.3650  -2.1460  -2.0803  -1.9925
    -1.9536  -1.9149  -1.8901  -1.8220  -1.8044  -1.7266  -1.6446  -1.5045
    -1.3128  -1.2940  -1.2385  -1.2044  -1.1390  -1.0759  -0.9756  -0.8631
    -0.7804  -0.7639  -0.7196  -0.6416  -0.5041  -0.4949  -0.4526  -0.3794
    -0.2968  -0.1552  -0.1426   0.1178   3.7869   3.7948   3.7961   3.9908
     4.4806   4.4809   4.6208   5.0725   5.0822   5.1396   5.2314   5.2441
     5.4246   5.4870   5.5098   5.7663   5.8637   5.9641   6.0863   6.0891
     6.2032   6.3291   6.4837   6.5625   6.6728   6.8199   6.8955   7.0680
     7.1240   7.2827

     occupation numbers 
     1.0000   1.0000   1.0000   1.0000   1.0000   1.0000   1.0000   1.0000
     1.0000   1.0000   1.0000   1.0000   1.0000   1.0000   1.0000   1.0000
     1.0000   1.0000   1.0000   1.0000   1.0000   1.0000   1.0000   1.0000
     1.0000   1.0000   1.0000   1.0000   1.0000   1.0000   1.0000   1.0000
     1.0000   1.0000   1.0000   1.0000   1.0000   1.0000   1.0000   1.0000
     1.0000   1.0000   1.0000   1.0000   1.0000   1.0000   1.0000   1.0000
     1.0000   1.0000   1.0000   1.0000   1.0000   1.0000   1.0000   1.0000
     1.0000   1.0000   1.0000   1.0000   1.0000   1.0000   1.0000   1.0000
     1.0000   1.0000   1.0000   1.0000   1.0000   1.0000   1.0000   1.0000
     1.0000   1.0000   1.0000   1.0000   1.0000   1.0000   1.0000   1.0000
     1.0000   1.0000   1.0000   1.0000   1.0000   1.0000   1.0000   1.0000
     1.0000   1.0000   1.0000   1.0000   1.0000   1.0000   1.0000   1.0000
     1.0000   1.0000   1.0000   1.0000   1.0000   1.0000   1.0000   1.0000
     1.0000   1.0000   1.0000   1.0000   1.0000   1.0000   1.0000   1.0000
     1.0000   1.0000   1.0000   1.0000   1.0000   1.0000   1.0000   1.0000
     1.0000   1.0000   1.0000   1.0000   1.0000   1.0000   1.0000   1.0000
     1.0000   1.0000   1.0000   1.0000   0.9186   0.9141   0.9134   0.7160
     0.0645   0.0643   0.0240   0.0009   0.0008   0.0005   0.0003   0.0003
     0.0001   0.0000   0.0000   0.0000   0.0000   0.0000   0.0000   0.0000
     0.0000   0.0000   0.0000   0.0000   0.0000   0.0000   0.0000   0.0000
     0.0000   0.0000

     the Fermi energy is     4.1166 ev

!    total energy              =   -1853.44037914 Ry
     estimated scf accuracy    <          6.7E-10 Ry
     smearing contrib. (-TS)   =      -0.03684816 Ry
     internal energy E=F+TS    =   -1853.40353098 Ry

     The total energy is F=E-TS. E is the sum of the following terms:
     one-electron contribution =  -41392.69891665 Ry
     hartree contribution      =   20723.55962626 Ry
     xc contribution           =    -289.34761960 Ry
     ewald contribution        =   19105.08385096 Ry
     electric field correction =      -0.00047195 Ry

     convergence has been achieved in   8 iterations

     Forces acting on atoms (cartesian axes, Ry/au):

     atom    1 type  1   force =     0.01547989   -0.01587412    0.07319215
     atom    2 type  1   force =     0.00024730   -0.00185412    0.00985982
     atom    3 type  1   force =     0.00532124   -0.00490123    0.00809760
     atom    4 type  1   force =     0.01554171    0.01584098    0.07318513
     atom    5 type  1   force =     0.00060944    0.00170189    0.00983342
     atom    6 type  1   force =    -0.00210459    0.01334641    0.01545227
     atom    7 type  1   force =    -0.00385161    0.00872773    0.01282445
     atom    8 type  1   force =    -0.00028116    0.00103338    0.00871591
     atom    9 type  1   force =     0.02866356    0.05686474   -0.03425956
     atom   10 type  1   force =    -0.00361094   -0.00884084    0.01279149
     atom   11 type  1   force =     0.00012884   -0.00113937    0.01011843
     atom   12 type  1   force =    -0.06032281   -0.03659753   -0.02713563
     atom   13 type  2   force =    -0.01630885    0.02019064   -0.02493615
     atom   14 type  2   force =    -0.00071723    0.00135556   -0.00415560
     atom   15 type  2   force =     0.01103260   -0.01491503    0.00815391
     atom   16 type  2   force =    -0.01620463   -0.02015175   -0.02513267
     atom   17 type  2   force =    -0.00051248   -0.00120635   -0.00418201
     atom   18 type  2   force =     0.01201100    0.01280670   -0.01520152
     atom   19 type  2   force =     0.00399906   -0.00230734   -0.06018477
     atom   20 type  2   force =     0.00059210   -0.00004533   -0.00487775
     atom   21 type  2   force =    -0.00449198   -0.01176158    0.02420584
     atom   22 type  2   force =     0.00082088    0.00309374   -0.00213158
     atom   23 type  2   force =     0.00149993    0.00110237   -0.00463161
     atom   24 type  2   force =     0.00075506   -0.00305378   -0.00187337
     atom   25 type  2   force =     0.00022972   -0.00076893   -0.00433528
     atom   26 type  2   force =     0.00040107   -0.00017085    0.00024722
     atom   27 type  2   force =     0.00400181    0.00228065   -0.06017355
     atom   28 type  2   force =    -0.00069415   -0.00005213   -0.00729324
     atom   29 type  2   force =     0.00057449    0.00002269   -0.00481947
     atom   30 type  2   force =    -0.00077993   -0.00001266   -0.00175968
     atom   31 type  2   force =     0.01072341   -0.01594875    0.03004400
     atom   32 type  2   force =    -0.00069516    0.00022602   -0.00717197
     atom   33 type  2   force =    -0.00205759    0.00100820   -0.00246623
     The non-local contrib.  to forces
     atom    1 type  1   force =    -0.01955349    0.01743400   -0.07741233
     atom    2 type  1   force =    -0.03042532    0.06476791    0.03264077
     atom    3 type  1   force =    -0.03395762    0.06844460    0.04092235
     atom    4 type  1   force =    -0.01941151   -0.01735580   -0.07746753
     atom    5 type  1   force =    -0.03077369   -0.06479616    0.03261795
     atom    6 type  1   force =    -0.03049525   -0.07169594    0.03197984
     atom    7 type  1   force =     0.03184805   -0.07181467    0.01795031
     atom    8 type  1   force =     0.03044819   -0.06394885    0.03341518
     atom    9 type  1   force =     0.01463169   -0.12199370    0.18155503
     atom   10 type  1   force =     0.03194351    0.07181288    0.01797243
     atom   11 type  1   force =     0.03049309    0.06421765    0.03357060
     atom   12 type  1   force =     0.10676486    0.00549188    0.19749881
     atom   13 type  2   force =    -0.08632816    0.07685565    0.03789456
     atom   14 type  2   force =    -0.05376443    0.04733621    0.03191296
     atom   15 type  2   force =    -0.04227994    0.02454409    0.02983724
     atom   16 type  2   force =    -0.08571523   -0.07635634    0.03746153
     atom   17 type  2   force =    -0.05305638   -0.04667484    0.03182281
     atom   18 type  2   force =    -0.03343118   -0.01829398    0.00755561
     atom   19 type  2   force =    -0.04576200   -0.15011500   -0.04243336
     atom   20 type  2   force =    -0.05225667   -0.14667573    0.00586534
     atom   21 type  2   force =    -0.06505565   -0.16915356    0.03734721
     atom   22 type  2   force =     0.05485907    0.04896828    0.03687499
     atom   23 type  2   force =     0.05465764    0.04676576    0.03087880
     atom   24 type  2   force =     0.05499914   -0.04925150    0.03681248
     atom   25 type  2   force =     0.05265249   -0.04644473    0.03040553
     atom   26 type  2   force =     0.15070728   -0.17873351   -0.32445161
     atom   27 type  2   force =    -0.04569792    0.15006861   -0.04243126
     atom   28 type  2   force =     0.05237762    0.14634655    0.00006213
     atom   29 type  2   force =    -0.05242236    0.14651945    0.00600544
     atom   30 type  2   force =     0.05286733    0.14659813    0.01050523
     atom   31 type  2   force =    -0.03284069    0.13050582    0.03254226
     atom   32 type  2   force =     0.05238525   -0.14653029    0.00018075
     atom   33 type  2   force =     0.04980286   -0.14492180    0.00983845
     The ionic contribution  to forces
     atom    1 type  1   force =    -1.52878986    1.02840423 -240.46813180
     atom    2 type  1   force =    -1.80760030   -2.70611593  -48.28978394
     atom    3 type  1   force =    -2.11374684   -2.51687468  146.41438891
     atom    4 type  1   force =    -1.52591236   -1.02735551 -240.46856901
     atom    5 type  1   force =    -1.80318673    2.70465233  -48.28848857
     atom    6 type  1   force =    -1.48339573    2.77107527  147.51319278
     atom    7 type  1   force =     1.80518417    2.50026669 -145.90756262
     atom    8 type  1   force =     1.77582252    2.71353598   49.28759114
     atom    9 type  1   force =    -3.88640714   -1.34120231  236.79563555
     atom   10 type  1   force =     1.81769339   -2.50024308 -145.90532617
     atom   11 type  1   force =     1.83195372   -2.71294596   49.29575682
     atom   12 type  1   force =     6.37300627   -0.62938277  236.95008669
     atom   13 type  2   force =     0.85452832    0.36071835 -108.77773029
     atom   14 type  2   force =     0.86481907    0.79727927  -12.11783707
     atom   15 type  2   force =     0.09250094    0.62326323   85.55676934
     atom   16 type  2   force =     0.85580329   -0.36221570 -108.76157545
     atom   17 type  2   force =     0.86816670   -0.79905396  -12.10118173
     atom   18 type  2   force =     1.57076164   -0.97844281   85.12770325
     atom   19 type  2   force =     0.37643213    2.31165835  -98.26670935
     atom   20 type  2   force =     0.36456287    2.42154701   -0.02669991
     atom   21 type  2   force =     0.77503558    2.57603827   97.59619277
     atom   22 type  2   force =    -0.86356462    0.78164457  -60.85427187
     atom   23 type  2   force =    -0.86148271    0.79201313   36.72017344
     atom   24 type  2   force =    -0.86708593   -0.77986933  -60.85754002
     atom   25 type  2   force =    -0.87021305   -0.80401639   36.64744871
     atom   26 type  2   force =    -1.96052719    1.51140741  123.44228082
     atom   27 type  2   force =     0.37578423   -2.31348485  -98.26834703
     atom   28 type  2   force =    -0.36310894   -2.41323419  -48.84256064
     atom   29 type  2   force =     0.36113208   -2.42142706   -0.02429137
     atom   30 type  2   force =    -0.39507721   -2.39950803   48.80260156
     atom   31 type  2   force =     0.05801177   -2.03867905   98.17462458
     atom   32 type  2   force =    -0.36232092    2.41551829  -48.84256370
     atom   33 type  2   force =    -0.32877918    2.43502923   48.74472416
     The local contribution  to forces
     atom    1 type  1   force =     1.56382347   -1.06171567  240.61880438
     atom    2 type  1   force =     1.83827271    2.63949245   48.26700457
     atom    3 type  1   force =     2.15302879    2.44352268 -146.44716972
     atom    4 type  1   force =     1.56086581    1.06055242  240.61928975
     atom    5 type  1   force =     1.83456974   -2.63815602   48.26570564
     atom    6 type  1   force =     1.51178399   -2.68603005 -147.52967808
     atom    7 type  1   force =    -1.84088418   -2.41972560  145.90248781
     atom    8 type  1   force =    -1.80655211   -2.64855457  -49.31228966
     atom    9 type  1   force =     3.90043819    1.52005593 -237.01141527
     atom   10 type  1   force =    -1.85324812    2.41958754  145.90019636
     atom   11 type  1   force =    -1.86231833    2.64758667  -49.31920868
     atom   12 type  1   force =    -6.54009334    0.58729421 -237.17468090
     atom   13 type  2   force =    -0.78450840   -0.41738584  108.71494136
     atom   14 type  2   force =    -0.81177266   -0.84326110   12.08175651
     atom   15 type  2   force =    -0.03918832   -0.66272162  -85.57843372
     atom   16 type  2   force =    -0.78629208    0.41841945  108.69902317
     atom   17 type  2   force =    -0.81562332    0.84452028   12.06516485
     atom   18 type  2   force =    -1.52532060    1.00954247  -85.15043776
     atom   19 type  2   force =    -0.32667210   -2.16385190   98.24899961
     atom   20 type  2   force =    -0.31171417   -2.27491814    0.01594247
     atom   21 type  2   force =    -0.71446841   -2.41865067  -97.60931229
     atom   22 type  2   force =     0.80952632   -0.82752046   60.81528221
     atom   23 type  2   force =     0.80832475   -0.83767794  -36.75568313
     atom   24 type  2   force =     0.81284185    0.82606532   60.81887126
     atom   25 type  2   force =     0.81778968    0.84969000  -36.68218928
     atom   26 type  2   force =     1.81023316   -1.33284789 -123.11755972
     atom   27 type  2   force =    -0.32608540    2.16569504   98.25064646
     atom   28 type  2   force =     0.31003701    2.26683433   48.83521325
     atom   29 type  2   force =    -0.30813549    2.27492878    0.01345172
     atom   30 type  2   force =     0.34142965    2.25289559  -48.81486042
     atom   31 type  2   force =    -0.01445019    1.89222132  -98.17710008
     atom   32 type  2   force =     0.30924039   -2.26876412   48.83521911
     atom   33 type  2   force =     0.27691844   -2.28909994  -48.75702075
     The core correction contribution to forces
     atom    1 type  1   force =     0.00000000    0.00000000    0.00000000
     atom    2 type  1   force =     0.00000000    0.00000000    0.00000000
     atom    3 type  1   force =     0.00000000    0.00000000    0.00000000
     atom    4 type  1   force =     0.00000000    0.00000000    0.00000000
     atom    5 type  1   force =     0.00000000    0.00000000    0.00000000
     atom    6 type  1   force =     0.00000000    0.00000000    0.00000000
     atom    7 type  1   force =     0.00000000    0.00000000    0.00000000
     atom    8 type  1   force =     0.00000000    0.00000000    0.00000000
     atom    9 type  1   force =     0.00000000    0.00000000    0.00000000
     atom   10 type  1   force =     0.00000000    0.00000000    0.00000000
     atom   11 type  1   force =     0.00000000    0.00000000    0.00000000
     atom   12 type  1   force =     0.00000000    0.00000000    0.00000000
     atom   13 type  2   force =     0.00000000    0.00000000    0.00000000
     atom   14 type  2   force =     0.00000000    0.00000000    0.00000000
     atom   15 type  2   force =     0.00000000    0.00000000    0.00000000
     atom   16 type  2   force =     0.00000000    0.00000000    0.00000000
     atom   17 type  2   force =     0.00000000    0.00000000    0.00000000
     atom   18 type  2   force =     0.00000000    0.00000000    0.00000000
     atom   19 type  2   force =     0.00000000    0.00000000    0.00000000
     atom   20 type  2   force =     0.00000000    0.00000000    0.00000000
     atom   21 type  2   force =     0.00000000    0.00000000    0.00000000
     atom   22 type  2   force =     0.00000000    0.00000000    0.00000000
     atom   23 type  2   force =     0.00000000    0.00000000    0.00000000
     atom   24 type  2   force =     0.00000000    0.00000000    0.00000000
     atom   25 type  2   force =     0.00000000    0.00000000    0.00000000
     atom   26 type  2   force =     0.00000000    0.00000000    0.00000000
     atom   27 type  2   force =     0.00000000    0.00000000    0.00000000
     atom   28 type  2   force =     0.00000000    0.00000000    0.00000000
     atom   29 type  2   force =     0.00000000    0.00000000    0.00000000
     atom   30 type  2   force =     0.00000000    0.00000000    0.00000000
     atom   31 type  2   force =     0.00000000    0.00000000    0.00000000
     atom   32 type  2   force =     0.00000000    0.00000000    0.00000000
     atom   33 type  2   force =     0.00000000    0.00000000    0.00000000
     The Hubbard contrib.    to forces
     atom    1 type  1   force =     0.00000000    0.00000000    0.00000000
     atom    2 type  1   force =     0.00000000    0.00000000    0.00000000
     atom    3 type  1   force =     0.00000000    0.00000000    0.00000000
     atom    4 type  1   force =     0.00000000    0.00000000    0.00000000
     atom    5 type  1   force =     0.00000000    0.00000000    0.00000000
     atom    6 type  1   force =     0.00000000    0.00000000    0.00000000
     atom    7 type  1   force =     0.00000000    0.00000000    0.00000000
     atom    8 type  1   force =     0.00000000    0.00000000    0.00000000
     atom    9 type  1   force =     0.00000000    0.00000000    0.00000000
     atom   10 type  1   force =     0.00000000    0.00000000    0.00000000
     atom   11 type  1   force =     0.00000000    0.00000000    0.00000000
     atom   12 type  1   force =     0.00000000    0.00000000    0.00000000
     atom   13 type  2   force =     0.00000000    0.00000000    0.00000000
     atom   14 type  2   force =     0.00000000    0.00000000    0.00000000
     atom   15 type  2   force =     0.00000000    0.00000000    0.00000000
     atom   16 type  2   force =     0.00000000    0.00000000    0.00000000
     atom   17 type  2   force =     0.00000000    0.00000000    0.00000000
     atom   18 type  2   force =     0.00000000    0.00000000    0.00000000
     atom   19 type  2   force =     0.00000000    0.00000000    0.00000000
     atom   20 type  2   force =     0.00000000    0.00000000    0.00000000
     atom   21 type  2   force =     0.00000000    0.00000000    0.00000000
     atom   22 type  2   force =     0.00000000    0.00000000    0.00000000
     atom   23 type  2   force =     0.00000000    0.00000000    0.00000000
     atom   24 type  2   force =     0.00000000    0.00000000    0.00000000
     atom   25 type  2   force =     0.00000000    0.00000000    0.00000000
     atom   26 type  2   force =     0.00000000    0.00000000    0.00000000
     atom   27 type  2   force =     0.00000000    0.00000000    0.00000000
     atom   28 type  2   force =     0.00000000    0.00000000    0.00000000
     atom   29 type  2   force =     0.00000000    0.00000000    0.00000000
     atom   30 type  2   force =     0.00000000    0.00000000    0.00000000
     atom   31 type  2   force =     0.00000000    0.00000000    0.00000000
     atom   32 type  2   force =     0.00000000    0.00000000    0.00000000
     atom   33 type  2   force =     0.00000000    0.00000000    0.00000000
     The SCF correction term to forces
     atom    1 type  1   force =     0.00000000    0.00000000    0.00000000
     atom    2 type  1   force =     0.00000000    0.00000000    0.00000000
     atom    3 type  1   force =     0.00000000    0.00000000    0.00000000
     atom    4 type  1   force =     0.00000000    0.00000000    0.00000000
     atom    5 type  1   force =     0.00000000    0.00000000    0.00000000
     atom    6 type  1   force =     0.00000000    0.00000000    0.00000000
     atom    7 type  1   force =     0.00000000    0.00000000    0.00000000
     atom    8 type  1   force =     0.00000000    0.00000000    0.00000000
     atom    9 type  1   force =     0.00000000    0.00000000    0.00000000
     atom   10 type  1   force =     0.00000000    0.00000000    0.00000000
     atom   11 type  1   force =     0.00000000    0.00000000    0.00000000
     atom   12 type  1   force =     0.00000000    0.00000000    0.00000000
     atom   13 type  2   force =     0.00000000    0.00000000    0.00000000
     atom   14 type  2   force =     0.00000000    0.00000000    0.00000000
     atom   15 type  2   force =     0.00000000    0.00000000    0.00000000
     atom   16 type  2   force =     0.00000000    0.00000000    0.00000000
     atom   17 type  2   force =     0.00000000    0.00000000    0.00000000
     atom   18 type  2   force =     0.00000000    0.00000000    0.00000000
     atom   19 type  2   force =     0.00000000    0.00000000    0.00000000
     atom   20 type  2   force =     0.00000000    0.00000000    0.00000000
     atom   21 type  2   force =     0.00000000    0.00000000    0.00000000
     atom   22 type  2   force =     0.00000000    0.00000000    0.00000000
     atom   23 type  2   force =     0.00000000    0.00000000    0.00000000
     atom   24 type  2   force =     0.00000000    0.00000000    0.00000000
     atom   25 type  2   force =     0.00000000    0.00000000    0.00000000
     atom   26 type  2   force =    -0.00001247    0.00000153   -0.00000440
     atom   27 type  2   force =     0.00000000    0.00000000    0.00000000
     atom   28 type  2   force =     0.00000000    0.00000000    0.00000000
     atom   29 type  2   force =     0.00000000    0.00000000    0.00000000
     atom   30 type  2   force =     0.00000000    0.00000000    0.00000000
     atom   31 type  2   force =     0.00000000    0.00000000    0.00000000
     atom   32 type  2   force =     0.00000000    0.00000000    0.00000000
     atom   33 type  2   force =     0.00000000    0.00000000    0.00000000

     Total force =     0.000501     Total SCF correction =     0.000013
     Energy error            =      1.7E-06
     Gradient error          =      4.0E-04

     number of scf cycles    =  13
     number of bfgs steps    =  12

     energy   old            =   -1853.4403774688 Ry
     energy   new            =   -1853.4403791361 Ry

     CASE: energy  _new < energy  _old

     new trust radius        =       0.0046311626 bohr
     new conv_thr            =       0.0000000017 Ry


ATOMIC_POSITIONS (angstrom)
Hf            4.0076390000        3.7813620000        6.1529890000    0   0   0
Hf            4.0076390000        3.7813620000       11.0753320000    0   0   0
Hf            4.0076390000        3.7813620000       15.9976750000    0   0   0
Hf            1.4522770000        1.1321830000        6.1529770000    0   0   0
Hf            1.4522770000        1.1321830000       11.0753200000    0   0   0
Hf            1.4522770000        1.1321830000       15.9976630000    0   0   0
Hf            3.6579980000        1.1322110000        8.6140330000    0   0   0
Hf            3.6579980000        1.1322110000       13.5363760000    0   0   0
Hf            3.6579980000        1.1322110000       18.4587190000    0   0   0
Hf            1.1027520000        3.7813090000        8.6141070000    0   0   0
Hf            1.1027520000        3.7813090000       13.5364490000    0   0   0
Hf            1.1027520000        3.7813090000       18.4587920000    0   0   0
O             3.1707970000        2.0862730000        6.8074440000    0   0   0
O             3.1707970000        2.0862730000       11.7297860000    0   0   0
O             3.1707970000        2.0862730000       16.6521290000    0   0   0
O             0.6152330000        2.8266930000        6.8083890000    0   0   0
O             0.6152330000        2.8266930000       11.7307320000    0   0   0
O             0.6152330000        2.8266930000       16.6530750000    0   0   0
O             5.0530890000        0.2074550000        7.3799440000    0   0   0
O             5.0530890000        0.2074550000       12.3022870000    0   0   0
O             5.0530890000        0.2074550000       17.2246300000    0   0   0
O             1.9399660000        2.0865810000        9.2696970000    0   0   0
O             1.9399660000        2.0865810000       14.1920390000    0   0   0
O             4.4952530000        2.8267400000        9.2692970000    0   0   0
O             4.4952530000        2.8267400000       14.1916400000    0   0   0
O             4.5682699731        2.7924031506       18.9960377543
O             2.4978700000       -0.2075440000        7.3798460000    0   0   0
O             2.6124080000       -0.2081150000        9.8410840000    0   0   0
O             2.4978700000       -0.2075440000       12.3021890000    0   0   0
O             2.6124080000       -0.2081150000       14.7634270000    0   0   0
O             2.4978700000       -0.2075440000       17.2245320000    0   0   0
O             5.1675430000        0.2075860000        9.8410300000    0   0   0
O             5.1675430000        0.2075860000       14.7633720000    0   0   0



     Writing output data file ./hfo2.save/
     NEW-OLD atomic charge density approx. for the potential

     negative rho (up, down):  1.532E-05 0.000E+00
 
     Adding external electric field

     Computed dipole along edir(3) : 
        Elec. dipole         -2.7569 Ry au,         -7.0073 Debye
        Ion. dipole          -2.7559 Ry au,         -7.0047 Debye
        Dipole                0.4727 Ry au,          1.2016 Debye
        Dipole field          0.0010 Ry au, 
 
        E field amplitude [Ha a.u.]:  1.0000E-03
        Potential amp.       -0.0002 Ry
        Total length         62.8334 bohr
 

     total cpu time spent up to now is      884.3 secs

     Self-consistent Calculation

     iteration #  1     ecut=    50.00 Ry     beta= 0.30
     Davidson diagonalization with overlap
     ethr =  1.00E-06,  avg # of iterations =  2.0

     Threshold (ethr) on eigenvalues was too large:
     Diagonalizing with lowered threshold

     Davidson diagonalization with overlap
     ethr =  2.73E-09,  avg # of iterations =  3.1

     negative rho (up, down):  9.847E-06 0.000E+00
 
     Adding external electric field

     Computed dipole along edir(3) : 
        Elec. dipole         -2.7569 Ry au,         -7.0073 Debye
        Ion. dipole          -2.7559 Ry au,         -7.0047 Debye
        Dipole                0.4727 Ry au,          1.2015 Debye
        Dipole field          0.0010 Ry au, 
 
        E field amplitude [Ha a.u.]:  1.0000E-03
        Potential amp.       -0.0002 Ry
        Total length         62.8334 bohr
 

     total cpu time spent up to now is      906.2 secs

     total energy              =   -1853.44038154 Ry
     estimated scf accuracy    <       0.00000761 Ry

     iteration #  2     ecut=    50.00 Ry     beta= 0.30
     Davidson diagonalization with overlap
     ethr =  2.82E-09,  avg # of iterations =  1.0

     negative rho (up, down):  6.332E-06 0.000E+00
 
     Adding external electric field

     Computed dipole along edir(3) : 
        Elec. dipole         -2.7569 Ry au,         -7.0073 Debye
        Ion. dipole          -2.7559 Ry au,         -7.0047 Debye
        Dipole                0.4726 Ry au,          1.2013 Debye
        Dipole field          0.0010 Ry au, 
 
        E field amplitude [Ha a.u.]:  1.0000E-03
        Potential amp.       -0.0002 Ry
        Total length         62.8334 bohr
 

     total cpu time spent up to now is      925.6 secs

     total energy              =   -1853.44038123 Ry
     estimated scf accuracy    <       0.00000211 Ry

     iteration #  3     ecut=    50.00 Ry     beta= 0.30
     Davidson diagonalization with overlap
     ethr =  7.83E-10,  avg # of iterations =  2.1

     negative rho (up, down):  4.451E-06 0.000E+00
 
     Adding external electric field

     Computed dipole along edir(3) : 
        Elec. dipole         -2.7569 Ry au,         -7.0073 Debye
        Ion. dipole          -2.7559 Ry au,         -7.0047 Debye
        Dipole                0.4725 Ry au,          1.2009 Debye
        Dipole field          0.0010 Ry au, 
 
        E field amplitude [Ha a.u.]:  1.0000E-03
        Potential amp.       -0.0001 Ry
        Total length         62.8334 bohr
 

     total cpu time spent up to now is      937.6 secs

     total energy              =   -1853.44038100 Ry
     estimated scf accuracy    <       0.00000058 Ry

     iteration #  4     ecut=    50.00 Ry     beta= 0.30
     Davidson diagonalization with overlap
     ethr =  2.14E-10,  avg # of iterations =  4.4

     negative rho (up, down):  2.618E-06 0.000E+00
 
     Adding external electric field

     Computed dipole along edir(3) : 
        Elec. dipole         -2.7569 Ry au,         -7.0073 Debye
        Ion. dipole          -2.7559 Ry au,         -7.0047 Debye
        Dipole                0.4724 Ry au,          1.2008 Debye
        Dipole field          0.0010 Ry au, 
 
        E field amplitude [Ha a.u.]:  1.0000E-03
        Potential amp.       -0.0001 Ry
        Total length         62.8334 bohr
 

     total cpu time spent up to now is      944.1 secs

     total energy              =   -1853.44038108 Ry
     estimated scf accuracy    <       0.00000005 Ry

     iteration #  5     ecut=    50.00 Ry     beta= 0.30
     Davidson diagonalization with overlap
     ethr =  1.98E-11,  avg # of iterations =  4.0

     negative rho (up, down):  1.398E-06 0.000E+00
 
     Adding external electric field

     Computed dipole along edir(3) : 
        Elec. dipole         -2.7569 Ry au,         -7.0073 Debye
        Ion. dipole          -2.7559 Ry au,         -7.0047 Debye
        Dipole                0.4723 Ry au,          1.2006 Debye
        Dipole field          0.0010 Ry au, 
 
        E field amplitude [Ha a.u.]:  1.0000E-03
        Potential amp.       -0.0001 Ry
        Total length         62.8334 bohr
 

     total cpu time spent up to now is      960.0 secs

     total energy              =   -1853.44038108 Ry
     estimated scf accuracy    <       0.00000003 Ry

     iteration #  6     ecut=    50.00 Ry     beta= 0.30
     Davidson diagonalization with overlap
     ethr =  1.23E-11,  avg # of iterations =  2.0

     negative rho (up, down):  7.210E-07 0.000E+00
 
     Adding external electric field

     Computed dipole along edir(3) : 
        Elec. dipole         -2.7569 Ry au,         -7.0073 Debye
        Ion. dipole          -2.7559 Ry au,         -7.0047 Debye
        Dipole                0.4723 Ry au,          1.2005 Debye
        Dipole field          0.0010 Ry au, 
 
        E field amplitude [Ha a.u.]:  1.0000E-03
        Potential amp.       -0.0001 Ry
        Total length         62.8334 bohr
 

     total cpu time spent up to now is      970.7 secs

     total energy              =   -1853.44038108 Ry
     estimated scf accuracy    <       0.00000001 Ry

     iteration #  7     ecut=    50.00 Ry     beta= 0.30
     Davidson diagonalization with overlap
     ethr =  4.32E-12,  avg # of iterations =  3.0

     negative rho (up, down):  2.601E-07 0.000E+00
 
     Adding external electric field

     Computed dipole along edir(3) : 
        Elec. dipole         -2.7569 Ry au,         -7.0073 Debye
        Ion. dipole          -2.7559 Ry au,         -7.0047 Debye
        Dipole                0.4723 Ry au,          1.2005 Debye
        Dipole field          0.0010 Ry au, 
 
        E field amplitude [Ha a.u.]:  1.0000E-03
        Potential amp.       -0.0001 Ry
        Total length         62.8334 bohr
 

     total cpu time spent up to now is      975.0 secs

     total energy              =   -1853.44038108 Ry
     estimated scf accuracy    <          3.6E-09 Ry

     iteration #  8     ecut=    50.00 Ry     beta= 0.30
     Davidson diagonalization with overlap
     ethr =  1.32E-12,  avg # of iterations =  4.1

     negative rho (up, down):  3.454E-08 0.000E+00
 
     Adding external electric field

     Computed dipole along edir(3) : 
        Elec. dipole         -2.7569 Ry au,         -7.0073 Debye
        Ion. dipole          -2.7559 Ry au,         -7.0047 Debye
        Dipole                0.4723 Ry au,          1.2006 Debye
        Dipole field          0.0010 Ry au, 
 
        E field amplitude [Ha a.u.]:  1.0000E-03
        Potential amp.       -0.0001 Ry
        Total length         62.8334 bohr
 

     total cpu time spent up to now is      978.9 secs

     total energy              =   -1853.44038108 Ry
     estimated scf accuracy    <          3.9E-09 Ry

     iteration #  9     ecut=    50.00 Ry     beta= 0.30
     Davidson diagonalization with overlap
     ethr =  1.32E-12,  avg # of iterations =  2.0
 
     Adding external electric field

     Computed dipole along edir(3) : 
        Elec. dipole         -2.7569 Ry au,         -7.0073 Debye
        Ion. dipole          -2.7559 Ry au,         -7.0047 Debye
        Dipole                0.4723 Ry au,          1.2006 Debye
        Dipole field          0.0010 Ry au, 
 
        E field amplitude [Ha a.u.]:  1.0000E-03
        Potential amp.       -0.0001 Ry
        Total length         62.8334 bohr
 

     total cpu time spent up to now is      982.5 secs

     total energy              =   -1853.44038108 Ry
     estimated scf accuracy    <          1.9E-09 Ry

     iteration # 10     ecut=    50.00 Ry     beta= 0.30
     Davidson diagonalization with overlap
     ethr =  7.15E-13,  avg # of iterations =  1.7
 
     Adding external electric field

     Computed dipole along edir(3) : 
        Elec. dipole         -2.7569 Ry au,         -7.0073 Debye
        Ion. dipole          -2.7559 Ry au,         -7.0047 Debye
        Dipole                0.4720 Ry au,          1.1997 Debye
        Dipole field          0.0010 Ry au, 
 
        E field amplitude [Ha a.u.]:  1.0000E-03
        Potential amp.       -0.0000 Ry
        Total length         62.8334 bohr
 

     total cpu time spent up to now is      984.4 secs

     End of self-consistent calculation

          k = 0.0000 0.0000 0.0000 ( 35385 PWs)   bands (ev):

   -59.2581 -59.2448 -59.0042 -58.9888 -58.8431 -58.8423 -58.8270 -58.7851
   -58.7190 -58.7036 -58.5934 -58.5728 -29.1036 -29.0441 -28.9566 -28.8775
   -28.8315 -28.7735 -28.7675 -28.7394 -28.7014 -28.6676 -28.6508 -28.6410
   -28.6251 -28.6090 -28.5812 -28.5351 -28.5274 -28.5169 -28.4752 -28.4345
   -28.4250 -28.3773 -28.3743 -28.3635 -28.3254 -28.3171 -28.2965 -28.2717
   -28.2426 -28.1992 -28.1942 -28.1642 -28.1433 -28.1169 -28.0844 -28.0625
   -17.8392 -17.4333 -16.9266 -16.6579 -16.3970 -16.3599 -16.2183 -16.1345
   -16.0492 -16.0255 -15.9029 -15.7313 -15.5498 -15.4009 -15.3888 -15.2605
   -15.2543 -15.1334 -15.0823 -15.0129 -14.5634  -5.4553  -5.4331  -5.2629
    -5.2175  -5.0691  -4.9780  -4.6693  -4.6160  -4.4383  -4.4023  -4.2762
    -4.2304  -4.1268  -3.9070  -3.8096  -3.6431  -3.6081  -3.4453  -3.3969
    -3.3442  -3.1389  -3.0783  -2.8489  -2.8064  -2.7792  -2.6682  -2.5944
    -2.4905  -2.4364  -2.2957  -2.2276  -2.1306  -1.9890  -1.9862  -1.9587
    -1.8574  -1.7563  -1.7269  -1.7051  -1.6780  -1.6173  -1.5996  -1.2713
    -1.2427  -1.1860  -1.0672  -0.8933  -0.8689  -0.8210  -0.7138  -0.6545
    -0.5822  -0.5804  -0.3732  -0.2304  -0.1953  -0.1101   0.0697   0.1071
     0.2427   0.2569   0.3723   0.4995   2.6945   2.9319   4.1634   4.3650
     4.4252   4.8134   5.0381   5.0718   5.3456   5.4954   5.5656   5.8318
     5.9507   6.0164   6.0520   6.1987   6.2485   6.2872   6.4109   6.4571
     6.4664   6.6198   6.6493   6.7083   6.8568   6.8978   7.0020   7.0302
     7.0404   7.2082

     occupation numbers 
     1.0000   1.0000   1.0000   1.0000   1.0000   1.0000   1.0000   1.0000
     1.0000   1.0000   1.0000   1.0000   1.0000   1.0000   1.0000   1.0000
     1.0000   1.0000   1.0000   1.0000   1.0000   1.0000   1.0000   1.0000
     1.0000   1.0000   1.0000   1.0000   1.0000   1.0000   1.0000   1.0000
     1.0000   1.0000   1.0000   1.0000   1.0000   1.0000   1.0000   1.0000
     1.0000   1.0000   1.0000   1.0000   1.0000   1.0000   1.0000   1.0000
     1.0000   1.0000   1.0000   1.0000   1.0000   1.0000   1.0000   1.0000
     1.0000   1.0000   1.0000   1.0000   1.0000   1.0000   1.0000   1.0000
     1.0000   1.0000   1.0000   1.0000   1.0000   1.0000   1.0000   1.0000
     1.0000   1.0000   1.0000   1.0000   1.0000   1.0000   1.0000   1.0000
     1.0000   1.0000   1.0000   1.0000   1.0000   1.0000   1.0000   1.0000
     1.0000   1.0000   1.0000   1.0000   1.0000   1.0000   1.0000   1.0000
     1.0000   1.0000   1.0000   1.0000   1.0000   1.0000   1.0000   1.0000
     1.0000   1.0000   1.0000   1.0000   1.0000   1.0000   1.0000   1.0000
     1.0000   1.0000   1.0000   1.0000   1.0000   1.0000   1.0000   1.0000
     1.0000   1.0000   1.0000   1.0000   1.0000   1.0000   1.0000   1.0000
     1.0000   1.0000   1.0000   1.0000   1.0000   0.9998   0.4142   0.1383
     0.0935   0.0059   0.0011   0.0009   0.0001   0.0000   0.0000   0.0000
     0.0000   0.0000   0.0000   0.0000   0.0000   0.0000   0.0000   0.0000
     0.0000   0.0000   0.0000   0.0000   0.0000   0.0000   0.0000   0.0000
     0.0000   0.0000

          k = 0.0000 0.2600 0.0000 ( 35369 PWs)   bands (ev):

   -59.2565 -59.2464 -59.0025 -58.9905 -58.8428 -58.8406 -58.8287 -58.7853
   -58.7173 -58.7052 -58.5924 -58.5739 -29.0873 -28.9926 -28.9314 -28.8734
   -28.8064 -28.7798 -28.7517 -28.7218 -28.6957 -28.6730 -28.6555 -28.6448
   -28.6375 -28.5907 -28.5771 -28.5463 -28.5247 -28.5198 -28.4947 -28.4454
   -28.4228 -28.4089 -28.3940 -28.3787 -28.3582 -28.3069 -28.2763 -28.2676
   -28.2634 -28.2321 -28.2023 -28.1770 -28.1443 -28.1170 -28.1002 -28.0865
   -17.5774 -17.2218 -16.8107 -16.5969 -16.3713 -16.2897 -16.1471 -16.0869
   -16.0315 -15.9904 -15.9573 -15.7561 -15.6131 -15.5597 -15.4535 -15.4032
   -15.3599 -15.2388 -15.1463 -15.0947 -14.6185  -5.4025  -5.2663  -5.0858
    -4.9674  -4.9288  -4.7082  -4.6023  -4.5516  -4.5143  -4.3673  -4.3038
    -4.1864  -3.9461  -3.8851  -3.7054  -3.6565  -3.5722  -3.4840  -3.3944
    -3.3270  -3.2642  -3.2394  -3.0332  -2.9326  -2.8209  -2.7061  -2.6478
    -2.5398  -2.4336  -2.3457  -2.2943  -2.2142  -2.1622  -2.0556  -2.0305
    -1.9146  -1.8297  -1.6734  -1.5523  -1.4879  -1.4370  -1.3424  -1.2144
    -1.2093  -1.1135  -0.9763  -0.9257  -0.8678  -0.8181  -0.7683  -0.7319
    -0.6687  -0.5798  -0.5282  -0.4039  -0.3181  -0.2509  -0.2201  -0.1922
     0.0786   0.2142   0.3139   0.4431   3.0578   3.2956   4.2343   4.2520
     4.3760   4.8343   4.9108   5.1443   5.2206   5.2507   5.3451   5.4416
     5.6734   5.7167   5.8470   5.8768   5.9775   6.1234   6.1575   6.3607
     6.5474   6.6262   6.6920   6.7415   6.9355   6.9924   7.0724   7.1627
     7.2406   7.3391

     occupation numbers 
     1.0000   1.0000   1.0000   1.0000   1.0000   1.0000   1.0000   1.0000
     1.0000   1.0000   1.0000   1.0000   1.0000   1.0000   1.0000   1.0000
     1.0000   1.0000   1.0000   1.0000   1.0000   1.0000   1.0000   1.0000
     1.0000   1.0000   1.0000   1.0000   1.0000   1.0000   1.0000   1.0000
     1.0000   1.0000   1.0000   1.0000   1.0000   1.0000   1.0000   1.0000
     1.0000   1.0000   1.0000   1.0000   1.0000   1.0000   1.0000   1.0000
     1.0000   1.0000   1.0000   1.0000   1.0000   1.0000   1.0000   1.0000
     1.0000   1.0000   1.0000   1.0000   1.0000   1.0000   1.0000   1.0000
     1.0000   1.0000   1.0000   1.0000   1.0000   1.0000   1.0000   1.0000
     1.0000   1.0000   1.0000   1.0000   1.0000   1.0000   1.0000   1.0000
     1.0000   1.0000   1.0000   1.0000   1.0000   1.0000   1.0000   1.0000
     1.0000   1.0000   1.0000   1.0000   1.0000   1.0000   1.0000   1.0000
     1.0000   1.0000   1.0000   1.0000   1.0000   1.0000   1.0000   1.0000
     1.0000   1.0000   1.0000   1.0000   1.0000   1.0000   1.0000   1.0000
     1.0000   1.0000   1.0000   1.0000   1.0000   1.0000   1.0000   1.0000
     1.0000   1.0000   1.0000   1.0000   1.0000   1.0000   1.0000   1.0000
     1.0000   1.0000   1.0000   1.0000   0.9996   0.9976   0.2956   0.2693
     0.1291   0.0051   0.0029   0.0005   0.0003   0.0002   0.0001   0.0001
     0.0000   0.0000   0.0000   0.0000   0.0000   0.0000   0.0000   0.0000
     0.0000   0.0000   0.0000   0.0000   0.0000   0.0000   0.0000   0.0000
     0.0000   0.0000

          k = 0.0000-0.5200 0.0000 ( 35392 PWs)   bands (ev):

   -59.2539 -59.2489 -59.0000 -58.9929 -58.8424 -58.8380 -58.8312 -58.7856
   -58.7149 -58.7076 -58.5914 -58.5752 -29.0684 -28.9230 -28.8869 -28.8820
   -28.7862 -28.7810 -28.7585 -28.7210 -28.6969 -28.6779 -28.6482 -28.6336
   -28.6247 -28.5981 -28.5774 -28.5553 -28.5242 -28.5147 -28.4924 -28.4612
   -28.4550 -28.4228 -28.4160 -28.3743 -28.3648 -28.3431 -28.3081 -28.2917
   -28.2674 -28.2312 -28.1895 -28.1685 -28.1511 -28.1427 -28.1218 -28.0946
   -17.2013 -16.9102 -16.6576 -16.5336 -16.3397 -16.2156 -16.1830 -16.0690
   -16.0445 -16.0066 -15.9577 -15.9396 -15.7928 -15.6321 -15.6285 -15.4350
   -15.4261 -15.3035 -15.1999 -15.1754 -14.6713  -5.2014  -5.1301  -4.9923
    -4.7971  -4.6356  -4.5535  -4.4681  -4.4543  -4.2788  -4.2477  -4.2270
    -4.1578  -4.0582  -3.9490  -3.8836  -3.8306  -3.7691  -3.5870  -3.5497
    -3.2894  -3.2259  -3.1354  -3.0915  -2.8877  -2.8568  -2.7653  -2.6413
    -2.6032  -2.4291  -2.3681  -2.2818  -2.2211  -2.0815  -2.0126  -1.9552
    -1.8410  -1.6470  -1.5899  -1.5311  -1.4632  -1.4503  -1.3304  -1.3082
    -1.2603  -1.1761  -1.1671  -1.1069  -1.0345  -0.9603  -0.8972  -0.8316
    -0.7565  -0.6443  -0.5757  -0.5521  -0.4354  -0.3125  -0.2341  -0.2231
     0.0357   0.1590   0.3095   0.3936   3.6384   3.7962   4.0624   4.1353
     4.3646   4.5098   4.5754   5.0240   5.1015   5.2325   5.2456   5.2770
     5.4591   5.5079   5.5596   5.6792   5.7392   5.9697   6.1590   6.3031
     6.4446   6.4821   6.5774   6.8473   6.9830   7.1043   7.1343   7.1930
     7.2712   7.2820

     occupation numbers 
     1.0000   1.0000   1.0000   1.0000   1.0000   1.0000   1.0000   1.0000
     1.0000   1.0000   1.0000   1.0000   1.0000   1.0000   1.0000   1.0000
     1.0000   1.0000   1.0000   1.0000   1.0000   1.0000   1.0000   1.0000
     1.0000   1.0000   1.0000   1.0000   1.0000   1.0000   1.0000   1.0000
     1.0000   1.0000   1.0000   1.0000   1.0000   1.0000   1.0000   1.0000
     1.0000   1.0000   1.0000   1.0000   1.0000   1.0000   1.0000   1.0000
     1.0000   1.0000   1.0000   1.0000   1.0000   1.0000   1.0000   1.0000
     1.0000   1.0000   1.0000   1.0000   1.0000   1.0000   1.0000   1.0000
     1.0000   1.0000   1.0000   1.0000   1.0000   1.0000   1.0000   1.0000
     1.0000   1.0000   1.0000   1.0000   1.0000   1.0000   1.0000   1.0000
     1.0000   1.0000   1.0000   1.0000   1.0000   1.0000   1.0000   1.0000
     1.0000   1.0000   1.0000   1.0000   1.0000   1.0000   1.0000   1.0000
     1.0000   1.0000   1.0000   1.0000   1.0000   1.0000   1.0000   1.0000
     1.0000   1.0000   1.0000   1.0000   1.0000   1.0000   1.0000   1.0000
     1.0000   1.0000   1.0000   1.0000   1.0000   1.0000   1.0000   1.0000
     1.0000   1.0000   1.0000   1.0000   1.0000   1.0000   1.0000   1.0000
     1.0000   1.0000   1.0000   1.0000   0.9710   0.9131   0.5976   0.4649
     0.1388   0.0525   0.0331   0.0013   0.0007   0.0003   0.0002   0.0002
     0.0001   0.0000   0.0000   0.0000   0.0000   0.0000   0.0000   0.0000
     0.0000   0.0000   0.0000   0.0000   0.0000   0.0000   0.0000   0.0000
     0.0000   0.0000

          k = 0.2500 0.0000 0.0000 ( 35470 PWs)   bands (ev):

   -59.2562 -59.2467 -59.0020 -58.9910 -58.8427 -58.8401 -58.8292 -58.7854
   -58.7168 -58.7057 -58.5921 -58.5742 -29.0664 -29.0120 -28.9260 -28.8657
   -28.7937 -28.7919 -28.7608 -28.7198 -28.6829 -28.6648 -28.6531 -28.6395
   -28.6188 -28.6124 -28.5861 -28.5590 -28.5304 -28.5216 -28.4910 -28.4326
   -28.4185 -28.4148 -28.3989 -28.3763 -28.3465 -28.3107 -28.2925 -28.2746
   -28.2524 -28.2301 -28.2041 -28.1753 -28.1441 -28.1154 -28.1038 -28.0880
   -17.5681 -17.2095 -16.7914 -16.6585 -16.3645 -16.3423 -16.2291 -16.1519
   -16.0136 -16.0108 -15.8528 -15.7890 -15.5627 -15.5430 -15.4169 -15.3964
   -15.3194 -15.2631 -15.1718 -15.1120 -14.6217  -5.2089  -5.0833  -4.9504
    -4.8958  -4.7948  -4.6676  -4.5721  -4.5284  -4.3591  -4.3077  -4.1960
    -4.0925  -4.0361  -4.0021  -3.9261  -3.8117  -3.7271  -3.5364  -3.3907
    -3.3443  -3.2532  -3.2093  -3.0414  -3.0265  -2.8402  -2.7740  -2.5769
    -2.5206  -2.3929  -2.3431  -2.2912  -2.2281  -2.1477  -2.0390  -1.9168
    -1.8761  -1.7848  -1.7329  -1.6325  -1.5857  -1.5599  -1.5321  -1.3909
    -1.3592  -1.2694  -1.1543  -1.1070  -0.9742  -0.8745  -0.8012  -0.6590
    -0.6105  -0.5487  -0.4371  -0.4027  -0.3449  -0.2010  -0.1629  -0.0530
    -0.0240   0.0716   0.1168   0.3142   2.9610   3.2716   4.1652   4.3306
     4.6329   4.8615   4.9098   5.1581   5.1763   5.5360   5.5841   5.7177
     5.8594   5.9144   6.0525   6.1230   6.2047   6.3053   6.3637   6.4718
     6.5348   6.6239   6.6453   6.7223   6.7718   6.8810   6.9269   7.0641
     7.1504   7.2503

     occupation numbers 
     1.0000   1.0000   1.0000   1.0000   1.0000   1.0000   1.0000   1.0000
     1.0000   1.0000   1.0000   1.0000   1.0000   1.0000   1.0000   1.0000
     1.0000   1.0000   1.0000   1.0000   1.0000   1.0000   1.0000   1.0000
     1.0000   1.0000   1.0000   1.0000   1.0000   1.0000   1.0000   1.0000
     1.0000   1.0000   1.0000   1.0000   1.0000   1.0000   1.0000   1.0000
     1.0000   1.0000   1.0000   1.0000   1.0000   1.0000   1.0000   1.0000
     1.0000   1.0000   1.0000   1.0000   1.0000   1.0000   1.0000   1.0000
     1.0000   1.0000   1.0000   1.0000   1.0000   1.0000   1.0000   1.0000
     1.0000   1.0000   1.0000   1.0000   1.0000   1.0000   1.0000   1.0000
     1.0000   1.0000   1.0000   1.0000   1.0000   1.0000   1.0000   1.0000
     1.0000   1.0000   1.0000   1.0000   1.0000   1.0000   1.0000   1.0000
     1.0000   1.0000   1.0000   1.0000   1.0000   1.0000   1.0000   1.0000
     1.0000   1.0000   1.0000   1.0000   1.0000   1.0000   1.0000   1.0000
     1.0000   1.0000   1.0000   1.0000   1.0000   1.0000   1.0000   1.0000
     1.0000   1.0000   1.0000   1.0000   1.0000   1.0000   1.0000   1.0000
     1.0000   1.0000   1.0000   1.0000   1.0000   1.0000   1.0000   1.0000
     1.0000   1.0000   1.0000   1.0000   0.9998   0.9980   0.4108   0.1714
     0.0219   0.0042   0.0029   0.0005   0.0004   0.0000   0.0000   0.0000
     0.0000   0.0000   0.0000   0.0000   0.0000   0.0000   0.0000   0.0000
     0.0000   0.0000   0.0000   0.0000   0.0000   0.0000   0.0000   0.0000
     0.0000   0.0000

          k = 0.2500 0.2600 0.0000 ( 35420 PWs)   bands (ev):

   -59.2550 -59.2478 -59.0007 -58.9922 -58.8425 -58.8388 -58.8304 -58.7856
   -58.7156 -58.7069 -58.5916 -58.5748 -29.0806 -29.0188 -28.9349 -28.8777
   -28.8156 -28.7788 -28.7513 -28.7241 -28.7041 -28.6715 -28.6432 -28.6359
   -28.6236 -28.6122 -28.5884 -28.5490 -28.5264 -28.5004 -28.4738 -28.4559
   -28.4449 -28.4221 -28.3898 -28.3703 -28.3352 -28.3248 -28.2963 -28.2710
   -28.2450 -28.2189 -28.1952 -28.1607 -28.1534 -28.1288 -28.1079 -28.0706
   -17.3856 -17.0706 -16.7489 -16.6727 -16.4140 -16.3499 -16.2407 -16.1751
   -16.0284 -16.0041 -15.9106 -15.7448 -15.6292 -15.5413 -15.4682 -15.4201
   -15.3714 -15.2845 -15.1525 -15.0816 -14.6729  -5.1864  -5.0378  -4.8018
    -4.7483  -4.6864  -4.6233  -4.4983  -4.4083  -4.3293  -4.2941  -4.1957
    -4.0877  -3.9994  -3.9483  -3.8507  -3.6374  -3.5268  -3.4085  -3.3442
    -3.3147  -3.2608  -3.1938  -3.1321  -3.0145  -2.9817  -2.8770  -2.7474
    -2.5307  -2.4569  -2.3796  -2.3116  -2.2244  -2.1591  -2.0865  -1.8993
    -1.8133  -1.7788  -1.7341  -1.6218  -1.5727  -1.4955  -1.4322  -1.3967
    -1.3175  -1.2489  -1.1464  -1.0709  -1.0248  -0.9786  -0.9359  -0.7863
    -0.6847  -0.6442  -0.5505  -0.4543  -0.4468  -0.3976  -0.2563  -0.1615
    -0.1149  -0.0069   0.1125   0.3007   3.1568   3.4902   4.0773   4.1326
     4.5978   4.7698   4.8700   5.0450   5.1696   5.2143   5.3663   5.4786
     5.5770   5.7663   5.8385   5.9055   6.0164   6.0891   6.1396   6.3667
     6.4309   6.6094   6.6987   6.7534   6.7746   6.9285   6.9983   7.1274
     7.2090   7.2498

     occupation numbers 
     1.0000   1.0000   1.0000   1.0000   1.0000   1.0000   1.0000   1.0000
     1.0000   1.0000   1.0000   1.0000   1.0000   1.0000   1.0000   1.0000
     1.0000   1.0000   1.0000   1.0000   1.0000   1.0000   1.0000   1.0000
     1.0000   1.0000   1.0000   1.0000   1.0000   1.0000   1.0000   1.0000
     1.0000   1.0000   1.0000   1.0000   1.0000   1.0000   1.0000   1.0000
     1.0000   1.0000   1.0000   1.0000   1.0000   1.0000   1.0000   1.0000
     1.0000   1.0000   1.0000   1.0000   1.0000   1.0000   1.0000   1.0000
     1.0000   1.0000   1.0000   1.0000   1.0000   1.0000   1.0000   1.0000
     1.0000   1.0000   1.0000   1.0000   1.0000   1.0000   1.0000   1.0000
     1.0000   1.0000   1.0000   1.0000   1.0000   1.0000   1.0000   1.0000
     1.0000   1.0000   1.0000   1.0000   1.0000   1.0000   1.0000   1.0000
     1.0000   1.0000   1.0000   1.0000   1.0000   1.0000   1.0000   1.0000
     1.0000   1.0000   1.0000   1.0000   1.0000   1.0000   1.0000   1.0000
     1.0000   1.0000   1.0000   1.0000   1.0000   1.0000   1.0000   1.0000
     1.0000   1.0000   1.0000   1.0000   1.0000   1.0000   1.0000   1.0000
     1.0000   1.0000   1.0000   1.0000   1.0000   1.0000   1.0000   1.0000
     1.0000   1.0000   1.0000   1.0000   0.9991   0.9901   0.5710   0.4698
     0.0282   0.0081   0.0039   0.0011   0.0004   0.0003   0.0001   0.0000
     0.0000   0.0000   0.0000   0.0000   0.0000   0.0000   0.0000   0.0000
     0.0000   0.0000   0.0000   0.0000   0.0000   0.0000   0.0000   0.0000
     0.0000   0.0000

          k = 0.2500-0.5200 0.0000 ( 35366 PWs)   bands (ev):

   -59.2531 -59.2496 -58.9990 -58.9939 -58.8423 -58.8370 -58.8321 -58.7856
   -58.7140 -58.7085 -58.5911 -58.5755 -29.0869 -29.0296 -28.9354 -28.9172
   -28.7923 -28.7885 -28.7540 -28.7439 -28.6938 -28.6766 -28.6568 -28.6502
   -28.6178 -28.6045 -28.5992 -28.5720 -28.5283 -28.5168 -28.4929 -28.4615
   -28.4261 -28.3922 -28.3789 -28.3601 -28.3447 -28.3050 -28.2829 -28.2527
   -28.2439 -28.2181 -28.1911 -28.1531 -28.1372 -28.1179 -28.1061 -28.0938
   -17.1436 -16.8746 -16.7204 -16.6805 -16.4632 -16.3935 -16.3177 -16.2610
   -16.1266 -16.0458 -15.9990 -15.7402 -15.6900 -15.5504 -15.4388 -15.4020
   -15.3140 -15.2720 -15.1762 -15.1247 -14.5935  -5.0564  -5.0236  -4.8178
    -4.6107  -4.5770  -4.4846  -4.3422  -4.3171  -4.2128  -4.1714  -4.0906
    -4.0373  -3.9389  -3.8730  -3.7895  -3.7423  -3.6387  -3.5661  -3.4274
    -3.3481  -3.3100  -3.0088  -2.9648  -2.9017  -2.7971  -2.7326  -2.6643
    -2.6087  -2.4633  -2.4106  -2.3556  -2.2863  -2.2653  -2.2137  -2.0473
    -1.9495  -1.8977  -1.8607  -1.7266  -1.5915  -1.5013  -1.3985  -1.3845
    -1.3346  -1.2411  -1.1939  -1.1305  -1.0336  -0.9893  -0.8883  -0.8483
    -0.7447  -0.7179  -0.6029  -0.5607  -0.4920  -0.4366  -0.2950  -0.2291
    -0.2173  -0.0686   0.1025   0.2822   3.6710   3.7244   4.0430   4.1237
     4.4571   4.4819   4.6637   4.9786   5.0229   5.0967   5.1610   5.3005
     5.3811   5.4526   5.6002   5.6955   5.7705   5.9875   6.1106   6.1783
     6.3740   6.4815   6.6699   6.7102   6.8688   6.9555   7.0327   7.1876
     7.2303   7.2793

     occupation numbers 
     1.0000   1.0000   1.0000   1.0000   1.0000   1.0000   1.0000   1.0000
     1.0000   1.0000   1.0000   1.0000   1.0000   1.0000   1.0000   1.0000
     1.0000   1.0000   1.0000   1.0000   1.0000   1.0000   1.0000   1.0000
     1.0000   1.0000   1.0000   1.0000   1.0000   1.0000   1.0000   1.0000
     1.0000   1.0000   1.0000   1.0000   1.0000   1.0000   1.0000   1.0000
     1.0000   1.0000   1.0000   1.0000   1.0000   1.0000   1.0000   1.0000
     1.0000   1.0000   1.0000   1.0000   1.0000   1.0000   1.0000   1.0000
     1.0000   1.0000   1.0000   1.0000   1.0000   1.0000   1.0000   1.0000
     1.0000   1.0000   1.0000   1.0000   1.0000   1.0000   1.0000   1.0000
     1.0000   1.0000   1.0000   1.0000   1.0000   1.0000   1.0000   1.0000
     1.0000   1.0000   1.0000   1.0000   1.0000   1.0000   1.0000   1.0000
     1.0000   1.0000   1.0000   1.0000   1.0000   1.0000   1.0000   1.0000
     1.0000   1.0000   1.0000   1.0000   1.0000   1.0000   1.0000   1.0000
     1.0000   1.0000   1.0000   1.0000   1.0000   1.0000   1.0000   1.0000
     1.0000   1.0000   1.0000   1.0000   1.0000   1.0000   1.0000   1.0000
     1.0000   1.0000   1.0000   1.0000   1.0000   1.0000   1.0000   1.0000
     1.0000   1.0000   1.0000   1.0000   0.9635   0.9468   0.6313   0.4862
     0.0755   0.0637   0.0176   0.0018   0.0013   0.0007   0.0005   0.0002
     0.0001   0.0001   0.0000   0.0000   0.0000   0.0000   0.0000   0.0000
     0.0000   0.0000   0.0000   0.0000   0.0000   0.0000   0.0000   0.0000
     0.0000   0.0000

          k = 0.2500-0.2600 0.0000 ( 35420 PWs)   bands (ev):

   -59.2550 -59.2478 -59.0007 -58.9922 -58.8426 -58.8388 -58.8304 -58.7855
   -58.7156 -58.7069 -58.5916 -58.5748 -29.0807 -29.0187 -28.9349 -28.8777
   -28.8156 -28.7789 -28.7513 -28.7252 -28.7043 -28.6734 -28.6578 -28.6397
   -28.6327 -28.6182 -28.5888 -28.5661 -28.5385 -28.5001 -28.4790 -28.4614
   -28.4298 -28.4133 -28.3840 -28.3485 -28.3336 -28.3150 -28.2997 -28.2597
   -28.2293 -28.2195 -28.1987 -28.1645 -28.1444 -28.1401 -28.0977 -28.0743
   -17.3862 -17.0829 -16.7725 -16.6735 -16.4265 -16.3586 -16.2547 -16.1978
   -16.0495 -16.0213 -15.9109 -15.7457 -15.6292 -15.5398 -15.4375 -15.4109
   -15.3227 -15.2893 -15.1746 -15.1199 -14.5474  -5.1848  -5.0364  -4.7919
    -4.7479  -4.6972  -4.6307  -4.4819  -4.4038  -4.3438  -4.2878  -4.1914
    -4.1036  -3.9944  -3.9407  -3.8457  -3.6255  -3.5132  -3.3856  -3.3428
    -3.3203  -3.2477  -3.1816  -3.1409  -3.0225  -2.9515  -2.8461  -2.7470
    -2.5575  -2.5146  -2.3948  -2.3245  -2.1820  -2.1339  -2.0620  -1.9686
    -1.8981  -1.7909  -1.7667  -1.6592  -1.5977  -1.5228  -1.4538  -1.4184
    -1.2894  -1.2595  -1.1892  -1.1120  -1.0197  -0.9858  -0.8361  -0.7776
    -0.6568  -0.5965  -0.4967  -0.4511  -0.4278  -0.3968  -0.2943  -0.1588
    -0.1212   0.0055   0.1287   0.2814   3.3616   3.4906   4.0776   4.3233
     4.4675   4.5981   4.8694   5.1638   5.2102   5.2849   5.4722   5.5545
     5.6778   5.8014   5.8623   5.9305   5.9797   6.0295   6.1901   6.2406
     6.3719   6.4771   6.6275   6.7256   6.7701   6.8966   7.0225   7.0751
     7.1529   7.2137

     occupation numbers 
     1.0000   1.0000   1.0000   1.0000   1.0000   1.0000   1.0000   1.0000
     1.0000   1.0000   1.0000   1.0000   1.0000   1.0000   1.0000   1.0000
     1.0000   1.0000   1.0000   1.0000   1.0000   1.0000   1.0000   1.0000
     1.0000   1.0000   1.0000   1.0000   1.0000   1.0000   1.0000   1.0000
     1.0000   1.0000   1.0000   1.0000   1.0000   1.0000   1.0000   1.0000
     1.0000   1.0000   1.0000   1.0000   1.0000   1.0000   1.0000   1.0000
     1.0000   1.0000   1.0000   1.0000   1.0000   1.0000   1.0000   1.0000
     1.0000   1.0000   1.0000   1.0000   1.0000   1.0000   1.0000   1.0000
     1.0000   1.0000   1.0000   1.0000   1.0000   1.0000   1.0000   1.0000
     1.0000   1.0000   1.0000   1.0000   1.0000   1.0000   1.0000   1.0000
     1.0000   1.0000   1.0000   1.0000   1.0000   1.0000   1.0000   1.0000
     1.0000   1.0000   1.0000   1.0000   1.0000   1.0000   1.0000   1.0000
     1.0000   1.0000   1.0000   1.0000   1.0000   1.0000   1.0000   1.0000
     1.0000   1.0000   1.0000   1.0000   1.0000   1.0000   1.0000   1.0000
     1.0000   1.0000   1.0000   1.0000   1.0000   1.0000   1.0000   1.0000
     1.0000   1.0000   1.0000   1.0000   1.0000   1.0000   1.0000   1.0000
     1.0000   1.0000   1.0000   1.0000   0.9961   0.9900   0.5704   0.1791
     0.0703   0.0281   0.0039   0.0005   0.0003   0.0002   0.0000   0.0000
     0.0000   0.0000   0.0000   0.0000   0.0000   0.0000   0.0000   0.0000
     0.0000   0.0000   0.0000   0.0000   0.0000   0.0000   0.0000   0.0000
     0.0000   0.0000

          k =-0.5000 0.0000 0.0000 ( 35502 PWs)   bands (ev):

   -59.2515 -59.2514 -58.9971 -58.9959 -58.8423 -58.8348 -58.8345 -58.7858
   -58.7126 -58.7099 -58.5906 -58.5758 -28.9995 -28.9992 -28.8730 -28.8728
   -28.7849 -28.7847 -28.7175 -28.7173 -28.6864 -28.6863 -28.6517 -28.6516
   -28.5974 -28.5804 -28.5777 -28.5702 -28.5419 -28.5415 -28.4869 -28.4854
   -28.4258 -28.4217 -28.4048 -28.3965 -28.3663 -28.3463 -28.2884 -28.2812
   -28.2728 -28.2287 -28.1933 -28.1888 -28.1615 -28.1281 -28.1250 -28.0956
   -16.9630 -16.9620 -16.6865 -16.6798 -16.5004 -16.4799 -16.2598 -16.2419
   -15.9951 -15.9830 -15.7981 -15.7976 -15.5867 -15.5863 -15.4620 -15.4599
   -15.4077 -15.3566 -15.3099 -15.2516 -14.6821  -4.8447  -4.8438  -4.5933
    -4.5922  -4.4207  -4.4096  -4.2939  -4.2844  -4.1962  -4.1862  -4.0525
    -3.9890  -3.8788  -3.8733  -3.7924  -3.7855  -3.6774  -3.6553  -3.5447
    -3.5303  -3.4237  -3.4129  -3.3162  -3.3004  -3.1844  -3.1404  -2.7479
    -2.6858  -2.5490  -2.4809  -2.3751  -2.3203  -2.1964  -2.1601  -2.0786
    -1.9665  -1.8382  -1.7652  -1.6667  -1.6167  -1.5348  -1.3700  -1.3439
    -1.2865  -1.2499  -1.1421  -1.0826  -1.0414  -0.9300  -0.7840  -0.7180
    -0.7092  -0.6252  -0.5587  -0.4530  -0.4120  -0.4054  -0.3953  -0.2318
    -0.2047  -0.1173  -0.0874   0.2274   3.3799   3.9805   3.9893   3.9902
     4.6271   5.0179   5.0185   5.0864   5.1824   5.1828   5.4204   5.8508
     5.8517   5.9189   5.9231   6.0338   6.1404   6.1846   6.3134   6.3966
     6.4819   6.6044   6.6728   6.7659   6.8186   7.0083   7.0254   7.0726
     7.0861   7.1203

     occupation numbers 
     1.0000   1.0000   1.0000   1.0000   1.0000   1.0000   1.0000   1.0000
     1.0000   1.0000   1.0000   1.0000   1.0000   1.0000   1.0000   1.0000
     1.0000   1.0000   1.0000   1.0000   1.0000   1.0000   1.0000   1.0000
     1.0000   1.0000   1.0000   1.0000   1.0000   1.0000   1.0000   1.0000
     1.0000   1.0000   1.0000   1.0000   1.0000   1.0000   1.0000   1.0000
     1.0000   1.0000   1.0000   1.0000   1.0000   1.0000   1.0000   1.0000
     1.0000   1.0000   1.0000   1.0000   1.0000   1.0000   1.0000   1.0000
     1.0000   1.0000   1.0000   1.0000   1.0000   1.0000   1.0000   1.0000
     1.0000   1.0000   1.0000   1.0000   1.0000   1.0000   1.0000   1.0000
     1.0000   1.0000   1.0000   1.0000   1.0000   1.0000   1.0000   1.0000
     1.0000   1.0000   1.0000   1.0000   1.0000   1.0000   1.0000   1.0000
     1.0000   1.0000   1.0000   1.0000   1.0000   1.0000   1.0000   1.0000
     1.0000   1.0000   1.0000   1.0000   1.0000   1.0000   1.0000   1.0000
     1.0000   1.0000   1.0000   1.0000   1.0000   1.0000   1.0000   1.0000
     1.0000   1.0000   1.0000   1.0000   1.0000   1.0000   1.0000   1.0000
     1.0000   1.0000   1.0000   1.0000   1.0000   1.0000   1.0000   1.0000
     1.0000   1.0000   1.0000   1.0000   0.9956   0.7305   0.7176   0.7162
     0.0229   0.0013   0.0013   0.0008   0.0004   0.0004   0.0001   0.0000
     0.0000   0.0000   0.0000   0.0000   0.0000   0.0000   0.0000   0.0000
     0.0000   0.0000   0.0000   0.0000   0.0000   0.0000   0.0000   0.0000
     0.0000   0.0000

          k =-0.5000 0.2600 0.0000 ( 35450 PWs)   bands (ev):

   -59.2514 -59.2513 -58.9971 -58.9958 -58.8423 -58.8348 -58.8344 -58.7857
   -58.7126 -58.7099 -58.5907 -58.5759 -29.0545 -29.0542 -28.9234 -28.9234
   -28.7951 -28.7949 -28.7446 -28.7443 -28.6796 -28.6782 -28.6521 -28.6496
   -28.6203 -28.6050 -28.5904 -28.5814 -28.5266 -28.5231 -28.4959 -28.4719
   -28.4287 -28.3907 -28.3750 -28.3627 -28.3405 -28.3134 -28.2638 -28.2492
   -28.2440 -28.2234 -28.1966 -28.1560 -28.1393 -28.1164 -28.1078 -28.0945
   -16.9688 -16.9680 -16.7080 -16.7042 -16.5645 -16.5451 -16.3505 -16.3375
   -16.0567 -16.0451 -15.8256 -15.8244 -15.5610 -15.5568 -15.4250 -15.4051
   -15.3089 -15.2753 -15.2065 -15.1568 -14.5978  -4.8954  -4.8924  -4.5835
    -4.5735  -4.3835  -4.3620  -4.2619  -4.2571  -4.1256  -4.1139  -3.9938
    -3.9412  -3.8652  -3.8469  -3.7515  -3.7361  -3.6623  -3.6362  -3.4767
    -3.4509  -3.2534  -3.2364  -3.1514  -3.1307  -2.9253  -2.9056  -2.7166
    -2.6845  -2.5610  -2.5326  -2.3372  -2.2725  -2.2307  -2.1973  -2.0282
    -1.9912  -1.9755  -1.8913  -1.7634  -1.6839  -1.6014  -1.5497  -1.4201
    -1.3661  -1.2816  -1.2347  -1.1767  -1.0717  -1.0241  -0.9025  -0.8732
    -0.7291  -0.6400  -0.5873  -0.5416  -0.4984  -0.4120  -0.3937  -0.2927
    -0.2455  -0.1002  -0.0476   0.1796   3.5422   3.9075   3.9081   4.0930
     4.4407   4.7986   4.7993   4.9951   4.9967   5.2089   5.5029   5.5184
     5.5642   5.7500   5.7902   5.9492   6.0120   6.1163   6.1799   6.2466
     6.2938   6.4464   6.5254   6.5978   6.7253   6.7977   6.9660   7.0300
     7.0827   7.1652

     occupation numbers 
     1.0000   1.0000   1.0000   1.0000   1.0000   1.0000   1.0000   1.0000
     1.0000   1.0000   1.0000   1.0000   1.0000   1.0000   1.0000   1.0000
     1.0000   1.0000   1.0000   1.0000   1.0000   1.0000   1.0000   1.0000
     1.0000   1.0000   1.0000   1.0000   1.0000   1.0000   1.0000   1.0000
     1.0000   1.0000   1.0000   1.0000   1.0000   1.0000   1.0000   1.0000
     1.0000   1.0000   1.0000   1.0000   1.0000   1.0000   1.0000   1.0000
     1.0000   1.0000   1.0000   1.0000   1.0000   1.0000   1.0000   1.0000
     1.0000   1.0000   1.0000   1.0000   1.0000   1.0000   1.0000   1.0000
     1.0000   1.0000   1.0000   1.0000   1.0000   1.0000   1.0000   1.0000
     1.0000   1.0000   1.0000   1.0000   1.0000   1.0000   1.0000   1.0000
     1.0000   1.0000   1.0000   1.0000   1.0000   1.0000   1.0000   1.0000
     1.0000   1.0000   1.0000   1.0000   1.0000   1.0000   1.0000   1.0000
     1.0000   1.0000   1.0000   1.0000   1.0000   1.0000   1.0000   1.0000
     1.0000   1.0000   1.0000   1.0000   1.0000   1.0000   1.0000   1.0000
     1.0000   1.0000   1.0000   1.0000   1.0000   1.0000   1.0000   1.0000
     1.0000   1.0000   1.0000   1.0000   1.0000   1.0000   1.0000   1.0000
     1.0000   1.0000   1.0000   1.0000   0.9855   0.8226   0.8219   0.5424
     0.0843   0.0066   0.0066   0.0016   0.0015   0.0003   0.0000   0.0000
     0.0000   0.0000   0.0000   0.0000   0.0000   0.0000   0.0000   0.0000
     0.0000   0.0000   0.0000   0.0000   0.0000   0.0000   0.0000   0.0000
     0.0000   0.0000

          k =-0.5000-0.5200 0.0000 ( 35320 PWs)   bands (ev):

   -59.2514 -59.2513 -58.9970 -58.9958 -58.8422 -58.8347 -58.8344 -58.7857
   -58.7126 -58.7099 -58.5908 -58.5759 -29.0941 -29.0938 -28.9701 -28.9700
   -28.8279 -28.8275 -28.7449 -28.7437 -28.6947 -28.6935 -28.6679 -28.6557
   -28.6389 -28.6267 -28.5801 -28.5627 -28.5217 -28.4909 -28.4882 -28.4726
   -28.4176 -28.3829 -28.3394 -28.3305 -28.3288 -28.3077 -28.2364 -28.2249
   -28.2086 -28.2062 -28.1959 -28.1566 -28.1224 -28.1109 -28.0799 -28.0753
   -16.9795 -16.9789 -16.7304 -16.7293 -16.6030 -16.5932 -16.4375 -16.4208
   -16.1224 -16.0945 -15.8564 -15.8533 -15.5268 -15.5241 -15.3644 -15.3515
   -15.2087 -15.2034 -15.1447 -15.0863 -14.5240  -4.7656  -4.7625  -4.5278
    -4.5260  -4.3877  -4.3709  -4.2257  -4.2063  -4.1098  -4.0854  -4.0107
    -4.0058  -3.8960  -3.8688  -3.8419  -3.8250  -3.6493  -3.5994  -3.2606
    -3.2113  -3.0899  -3.0467  -3.0362  -2.9256  -2.7899  -2.7876  -2.7566
    -2.7207  -2.5779  -2.5662  -2.4039  -2.3653  -2.1463  -2.0809  -1.9929
    -1.9540  -1.9153  -1.8907  -1.8225  -1.8049  -1.7269  -1.6451  -1.5047
    -1.3134  -1.2945  -1.2390  -1.2049  -1.1396  -1.0764  -0.9761  -0.8635
    -0.7810  -0.7643  -0.7203  -0.6424  -0.5047  -0.4954  -0.4532  -0.3800
    -0.2982  -0.1558  -0.1434   0.1171   3.7866   3.7944   3.7957   3.9911
     4.4801   4.4804   4.6188   5.0720   5.0817   5.1388   5.2309   5.2436
     5.4239   5.4847   5.5094   5.7659   5.8630   5.9635   6.0871   6.0892
     6.2028   6.3310   6.4835   6.5632   6.6726   6.8193   6.8954   7.0674
     7.1237   7.2821

     occupation numbers 
     1.0000   1.0000   1.0000   1.0000   1.0000   1.0000   1.0000   1.0000
     1.0000   1.0000   1.0000   1.0000   1.0000   1.0000   1.0000   1.0000
     1.0000   1.0000   1.0000   1.0000   1.0000   1.0000   1.0000   1.0000
     1.0000   1.0000   1.0000   1.0000   1.0000   1.0000   1.0000   1.0000
     1.0000   1.0000   1.0000   1.0000   1.0000   1.0000   1.0000   1.0000
     1.0000   1.0000   1.0000   1.0000   1.0000   1.0000   1.0000   1.0000
     1.0000   1.0000   1.0000   1.0000   1.0000   1.0000   1.0000   1.0000
     1.0000   1.0000   1.0000   1.0000   1.0000   1.0000   1.0000   1.0000
     1.0000   1.0000   1.0000   1.0000   1.0000   1.0000   1.0000   1.0000
     1.0000   1.0000   1.0000   1.0000   1.0000   1.0000   1.0000   1.0000
     1.0000   1.0000   1.0000   1.0000   1.0000   1.0000   1.0000   1.0000
     1.0000   1.0000   1.0000   1.0000   1.0000   1.0000   1.0000   1.0000
     1.0000   1.0000   1.0000   1.0000   1.0000   1.0000   1.0000   1.0000
     1.0000   1.0000   1.0000   1.0000   1.0000   1.0000   1.0000   1.0000
     1.0000   1.0000   1.0000   1.0000   1.0000   1.0000   1.0000   1.0000
     1.0000   1.0000   1.0000   1.0000   1.0000   1.0000   1.0000   1.0000
     1.0000   1.0000   1.0000   1.0000   0.9185   0.9141   0.9134   0.7149
     0.0645   0.0643   0.0243   0.0009   0.0008   0.0005   0.0003   0.0003
     0.0001   0.0000   0.0000   0.0000   0.0000   0.0000   0.0000   0.0000
     0.0000   0.0000   0.0000   0.0000   0.0000   0.0000   0.0000   0.0000
     0.0000   0.0000

     the Fermi energy is     4.1162 ev

!    total energy              =   -1853.44038108 Ry
     estimated scf accuracy    <          9.5E-10 Ry
     smearing contrib. (-TS)   =      -0.03685996 Ry
     internal energy E=F+TS    =   -1853.40352113 Ry

     The total energy is F=E-TS. E is the sum of the following terms:
     one-electron contribution =  -41392.15746512 Ry
     hartree contribution      =   20723.28382259 Ry
     xc contribution           =    -289.34781629 Ry
     ewald contribution        =   19104.81840964 Ry
     electric field correction =      -0.00047195 Ry

     convergence has been achieved in  10 iterations

     Forces acting on atoms (cartesian axes, Ry/au):

     atom    1 type  1   force =     0.01547981   -0.01587308    0.07318308
     atom    2 type  1   force =     0.00024705   -0.00185399    0.00986922
     atom    3 type  1   force =     0.00530506   -0.00486621    0.00802734
     atom    4 type  1   force =     0.01554163    0.01583970    0.07317606
     atom    5 type  1   force =     0.00060939    0.00170144    0.00984269
     atom    6 type  1   force =    -0.00209756    0.01331968    0.01545379
     atom    7 type  1   force =    -0.00385151    0.00872738    0.01282109
     atom    8 type  1   force =    -0.00028026    0.00103094    0.00873356
     atom    9 type  1   force =     0.02866384    0.05681325   -0.03418948
     atom   10 type  1   force =    -0.00361081   -0.00884076    0.01278814
     atom   11 type  1   force =     0.00012905   -0.00113707    0.01013709
     atom   12 type  1   force =    -0.06022663   -0.03663304   -0.02701841
     atom   13 type  2   force =    -0.01630902    0.02019080   -0.02494227
     atom   14 type  2   force =    -0.00071684    0.00135439   -0.00415670
     atom   15 type  2   force =     0.01107608   -0.01487353    0.00819136
     atom   16 type  2   force =    -0.01620481   -0.02015222   -0.02513876
     atom   17 type  2   force =    -0.00051191   -0.00120541   -0.00418310
     atom   18 type  2   force =     0.01195347    0.01281689   -0.01518305
     atom   19 type  2   force =     0.00399915   -0.00230761   -0.06019069
     atom   20 type  2   force =     0.00059160   -0.00004553   -0.00487847
     atom   21 type  2   force =    -0.00449818   -0.01178175    0.02421450
     atom   22 type  2   force =     0.00082066    0.00309312   -0.00213513
     atom   23 type  2   force =     0.00149882    0.00109888   -0.00462702
     atom   24 type  2   force =     0.00075488   -0.00305341   -0.00187686
     atom   25 type  2   force =     0.00022773   -0.00076714   -0.00433538
     atom   26 type  2   force =     0.00028346   -0.00012462    0.00017026
     atom   27 type  2   force =     0.00400193    0.00228067   -0.06017948
     atom   28 type  2   force =    -0.00069397   -0.00005235   -0.00729652
     atom   29 type  2   force =     0.00057381    0.00002267   -0.00482076
     atom   30 type  2   force =    -0.00077910   -0.00001302   -0.00176671
     atom   31 type  2   force =     0.01077490   -0.01594266    0.02995159
     atom   32 type  2   force =    -0.00069499    0.00022593   -0.00717516
     atom   33 type  2   force =    -0.00205674    0.00100766   -0.00246583
     The non-local contrib.  to forces
     atom    1 type  1   force =    -0.01955393    0.01743449   -0.07741453
     atom    2 type  1   force =    -0.03042531    0.06476796    0.03264565
     atom    3 type  1   force =    -0.03393679    0.06842663    0.04096133
     atom    4 type  1   force =    -0.01941195   -0.01735628   -0.07746974
     atom    5 type  1   force =    -0.03077391   -0.06479614    0.03262285
     atom    6 type  1   force =    -0.03049275   -0.07167719    0.03199289
     atom    7 type  1   force =     0.03184803   -0.07181465    0.01795238
     atom    8 type  1   force =     0.03044853   -0.06394728    0.03342581
     atom    9 type  1   force =     0.01442701   -0.12188999    0.18130876
     atom   10 type  1   force =     0.03194347    0.07181286    0.01797449
     atom   11 type  1   force =     0.03049296    0.06421574    0.03358153
     atom   12 type  1   force =     0.10659385    0.00581229    0.19725967
     atom   13 type  2   force =    -0.08632856    0.07685609    0.03789290
     atom   14 type  2   force =    -0.05376417    0.04733552    0.03192153
     atom   15 type  2   force =    -0.04221882    0.02461489    0.02988859
     atom   16 type  2   force =    -0.08571563   -0.07635677    0.03745986
     atom   17 type  2   force =    -0.05305597   -0.04667417    0.03183149
     atom   18 type  2   force =    -0.03351998   -0.01828325    0.00758762
     atom   19 type  2   force =    -0.04576160   -0.15011527   -0.04243455
     atom   20 type  2   force =    -0.05225685   -0.14667584    0.00587563
     atom   21 type  2   force =    -0.06507020   -0.16919210    0.03734341
     atom   22 type  2   force =     0.05485888    0.04896784    0.03687850
     atom   23 type  2   force =     0.05465697    0.04676404    0.03089692
     atom   24 type  2   force =     0.05499895   -0.04925105    0.03681601
     atom   25 type  2   force =     0.05265009   -0.04644355    0.03041941
     atom   26 type  2   force =     0.15009204   -0.17806638   -0.32536251
     atom   27 type  2   force =    -0.04569753    0.15006888   -0.04243247
     atom   28 type  2   force =     0.05237771    0.14634650    0.00006627
     atom   29 type  2   force =    -0.05242297    0.14651976    0.00601448
     atom   30 type  2   force =     0.05286879    0.14659790    0.01050429
     atom   31 type  2   force =    -0.03276471    0.13051505    0.03240517
     atom   32 type  2   force =     0.05238529   -0.14653023    0.00018500
     atom   33 type  2   force =     0.04980361   -0.14492124    0.00985203
     The ionic contribution  to forces
     atom    1 type  1   force =    -1.52878987    1.02840423 -240.46745097
     atom    2 type  1   force =    -1.80760101   -2.70611671  -48.28909844
     atom    3 type  1   force =    -2.11386375   -2.51769637  146.41771428
     atom    4 type  1   force =    -1.52591236   -1.02735551 -240.46788819
     atom    5 type  1   force =    -1.80318598    2.70465257  -48.28781238
     atom    6 type  1   force =    -1.48296973    2.77098433  147.51222328
     atom    7 type  1   force =     1.80518420    2.50026670 -145.90688173
     atom    8 type  1   force =     1.77582999    2.71354563   49.28828262
     atom    9 type  1   force =    -3.89309924   -1.34053613  236.78614751
     atom   10 type  1   force =     1.81769337   -2.50024312 -145.90464541
     atom   11 type  1   force =     1.83193997   -2.71295855   49.29641505
     atom   12 type  1   force =     6.37355331   -0.62272535  236.93994577
     atom   13 type  2   force =     0.85452833    0.36071835 -108.77738988
     atom   14 type  2   force =     0.86482137    0.79728146  -12.11749471
     atom   15 type  2   force =     0.09357756    0.62469288   85.55799015
     atom   16 type  2   force =     0.85580329   -0.36221569 -108.76123504
     atom   17 type  2   force =     0.86816431   -0.79905233  -12.10084227
     atom   18 type  2   force =     1.56940994   -0.97741711   85.12710824
     atom   19 type  2   force =     0.37643212    2.31165835  -98.26636894
     atom   20 type  2   force =     0.36455649    2.42154293   -0.02636164
     atom   21 type  2   force =     0.77357577    2.57366154   97.59526223
     atom   22 type  2   force =    -0.86356450    0.78164466  -60.85393158
     atom   23 type  2   force =    -0.86142864    0.79205481   36.72045903
     atom   24 type  2   force =    -0.86708605   -0.77986925  -60.85719944
     atom   25 type  2   force =    -0.87026932   -0.80397354   36.64787813
     atom   26 type  2   force =    -1.95461957    1.50638369  123.44921245
     atom   27 type  2   force =     0.37578424   -2.31348486  -98.26800661
     atom   28 type  2   force =    -0.36310862   -2.41323438  -48.84222019
     atom   29 type  2   force =     0.36113856   -2.42143146   -0.02395125
     atom   30 type  2   force =    -0.39495316   -2.39960405   48.80294795
     atom   31 type  2   force =     0.05967566   -2.04002415   98.17441933
     atom   32 type  2   force =    -0.36232123    2.41551811  -48.84222342
     atom   33 type  2   force =    -0.32889544    2.43492834   48.74499605
     The local contribution  to forces
     atom    1 type  1   force =     1.56382219   -1.06170821  240.61806676
     atom    2 type  1   force =     1.83827298    2.63949330   48.26634164
     atom    3 type  1   force =     2.15310728    2.44440141 -146.45057937
     atom    4 type  1   force =     1.56086451    1.06054500  240.61855215
     atom    5 type  1   force =     1.83456881   -2.63815645   48.26505183
     atom    6 type  1   force =     1.51136269   -2.68598809 -147.52869580
     atom    7 type  1   force =    -1.84088415   -2.41972593  145.90178258
     atom    8 type  1   force =    -1.80655870   -2.64856830  -49.31291615
     atom    9 type  1   force =     3.90734167    1.51924171 -237.00163189
     atom   10 type  1   force =    -1.85324803    2.41958787  145.89949125
     atom   11 type  1   force =    -1.86230459    2.64760375  -49.31980091
     atom   12 type  1   force =    -6.54037972    0.58027644 -237.16421072
     atom   13 type  2   force =    -0.78450940   -0.41738510  108.71457223
     atom   14 type  2   force =    -0.81177465   -0.84326341   12.08143624
     atom   15 type  2   force =    -0.04028126   -0.66418224  -85.57965229
     atom   16 type  2   force =    -0.78629307    0.41841870  108.69865405
     atom   17 type  2   force =    -0.81562073    0.84451892   12.06484748
     atom   18 type  2   force =    -1.52393969    1.00851510  -85.14984340
     atom   19 type  2   force =    -0.32667127   -2.16385245   98.24863083
     atom   20 type  2   force =    -0.31170804   -2.27491379    0.01563304
     atom   21 type  2   force =    -0.71300506   -2.41625268  -97.60836637
     atom   22 type  2   force =     0.80952585   -0.82752078   60.81493672
     atom   23 type  2   force =     0.80826969   -0.83772179  -36.75593347
     atom   24 type  2   force =     0.81284163    0.82606548   60.81852546
     atom   25 type  2   force =     0.81784639    0.84964898  -36.68258316
     atom   26 type  2   force =     1.80481068   -1.32844473 -123.12366815
     atom   27 type  2   force =    -0.32608460    2.16569560   98.25027768
     atom   28 type  2   force =     0.31003677    2.26683406   48.83487312
     atom   29 type  2   force =    -0.30814196    2.27493266    0.01314113
     atom   30 type  2   force =     0.34130548    2.25299155  -48.81516553
     atom   31 type  2   force =    -0.01613492    1.89356504  -98.17684855
     atom   32 type  2   force =     0.30924080   -2.26876350   48.83487912
     atom   33 type  2   force =     0.27703476   -2.28900060  -48.75725971
     The core correction contribution to forces
     atom    1 type  1   force =     0.00000000    0.00000000    0.00000000
     atom    2 type  1   force =     0.00000000    0.00000000    0.00000000
     atom    3 type  1   force =     0.00000000    0.00000000    0.00000000
     atom    4 type  1   force =     0.00000000    0.00000000    0.00000000
     atom    5 type  1   force =     0.00000000    0.00000000    0.00000000
     atom    6 type  1   force =     0.00000000    0.00000000    0.00000000
     atom    7 type  1   force =     0.00000000    0.00000000    0.00000000
     atom    8 type  1   force =     0.00000000    0.00000000    0.00000000
     atom    9 type  1   force =     0.00000000    0.00000000    0.00000000
     atom   10 type  1   force =     0.00000000    0.00000000    0.00000000
     atom   11 type  1   force =     0.00000000    0.00000000    0.00000000
     atom   12 type  1   force =     0.00000000    0.00000000    0.00000000
     atom   13 type  2   force =     0.00000000    0.00000000    0.00000000
     atom   14 type  2   force =     0.00000000    0.00000000    0.00000000
     atom   15 type  2   force =     0.00000000    0.00000000    0.00000000
     atom   16 type  2   force =     0.00000000    0.00000000    0.00000000
     atom   17 type  2   force =     0.00000000    0.00000000    0.00000000
     atom   18 type  2   force =     0.00000000    0.00000000    0.00000000
     atom   19 type  2   force =     0.00000000    0.00000000    0.00000000
     atom   20 type  2   force =     0.00000000    0.00000000    0.00000000
     atom   21 type  2   force =     0.00000000    0.00000000    0.00000000
     atom   22 type  2   force =     0.00000000    0.00000000    0.00000000
     atom   23 type  2   force =     0.00000000    0.00000000    0.00000000
     atom   24 type  2   force =     0.00000000    0.00000000    0.00000000
     atom   25 type  2   force =     0.00000000    0.00000000    0.00000000
     atom   26 type  2   force =     0.00000000    0.00000000    0.00000000
     atom   27 type  2   force =     0.00000000    0.00000000    0.00000000
     atom   28 type  2   force =     0.00000000    0.00000000    0.00000000
     atom   29 type  2   force =     0.00000000    0.00000000    0.00000000
     atom   30 type  2   force =     0.00000000    0.00000000    0.00000000
     atom   31 type  2   force =     0.00000000    0.00000000    0.00000000
     atom   32 type  2   force =     0.00000000    0.00000000    0.00000000
     atom   33 type  2   force =     0.00000000    0.00000000    0.00000000
     The Hubbard contrib.    to forces
     atom    1 type  1   force =     0.00000000    0.00000000    0.00000000
     atom    2 type  1   force =     0.00000000    0.00000000    0.00000000
     atom    3 type  1   force =     0.00000000    0.00000000    0.00000000
     atom    4 type  1   force =     0.00000000    0.00000000    0.00000000
     atom    5 type  1   force =     0.00000000    0.00000000    0.00000000
     atom    6 type  1   force =     0.00000000    0.00000000    0.00000000
     atom    7 type  1   force =     0.00000000    0.00000000    0.00000000
     atom    8 type  1   force =     0.00000000    0.00000000    0.00000000
     atom    9 type  1   force =     0.00000000    0.00000000    0.00000000
     atom   10 type  1   force =     0.00000000    0.00000000    0.00000000
     atom   11 type  1   force =     0.00000000    0.00000000    0.00000000
     atom   12 type  1   force =     0.00000000    0.00000000    0.00000000
     atom   13 type  2   force =     0.00000000    0.00000000    0.00000000
     atom   14 type  2   force =     0.00000000    0.00000000    0.00000000
     atom   15 type  2   force =     0.00000000    0.00000000    0.00000000
     atom   16 type  2   force =     0.00000000    0.00000000    0.00000000
     atom   17 type  2   force =     0.00000000    0.00000000    0.00000000
     atom   18 type  2   force =     0.00000000    0.00000000    0.00000000
     atom   19 type  2   force =     0.00000000    0.00000000    0.00000000
     atom   20 type  2   force =     0.00000000    0.00000000    0.00000000
     atom   21 type  2   force =     0.00000000    0.00000000    0.00000000
     atom   22 type  2   force =     0.00000000    0.00000000    0.00000000
     atom   23 type  2   force =     0.00000000    0.00000000    0.00000000
     atom   24 type  2   force =     0.00000000    0.00000000    0.00000000
     atom   25 type  2   force =     0.00000000    0.00000000    0.00000000
     atom   26 type  2   force =     0.00000000    0.00000000    0.00000000
     atom   27 type  2   force =     0.00000000    0.00000000    0.00000000
     atom   28 type  2   force =     0.00000000    0.00000000    0.00000000
     atom   29 type  2   force =     0.00000000    0.00000000    0.00000000
     atom   30 type  2   force =     0.00000000    0.00000000    0.00000000
     atom   31 type  2   force =     0.00000000    0.00000000    0.00000000
     atom   32 type  2   force =     0.00000000    0.00000000    0.00000000
     atom   33 type  2   force =     0.00000000    0.00000000    0.00000000
     The SCF correction term to forces
     atom    1 type  1   force =     0.00000000    0.00000000    0.00000000
     atom    2 type  1   force =     0.00000000    0.00000000    0.00000000
     atom    3 type  1   force =     0.00000000    0.00000000    0.00000000
     atom    4 type  1   force =     0.00000000    0.00000000    0.00000000
     atom    5 type  1   force =     0.00000000    0.00000000    0.00000000
     atom    6 type  1   force =     0.00000000    0.00000000    0.00000000
     atom    7 type  1   force =     0.00000000    0.00000000    0.00000000
     atom    8 type  1   force =     0.00000000    0.00000000    0.00000000
     atom    9 type  1   force =     0.00000000    0.00000000    0.00000000
     atom   10 type  1   force =     0.00000000    0.00000000    0.00000000
     atom   11 type  1   force =     0.00000000    0.00000000    0.00000000
     atom   12 type  1   force =     0.00000000    0.00000000    0.00000000
     atom   13 type  2   force =     0.00000000    0.00000000    0.00000000
     atom   14 type  2   force =     0.00000000    0.00000000    0.00000000
     atom   15 type  2   force =     0.00000000    0.00000000    0.00000000
     atom   16 type  2   force =     0.00000000    0.00000000    0.00000000
     atom   17 type  2   force =     0.00000000    0.00000000    0.00000000
     atom   18 type  2   force =     0.00000000    0.00000000    0.00000000
     atom   19 type  2   force =     0.00000000    0.00000000    0.00000000
     atom   20 type  2   force =     0.00000000    0.00000000    0.00000000
     atom   21 type  2   force =     0.00000000    0.00000000    0.00000000
     atom   22 type  2   force =     0.00000000    0.00000000    0.00000000
     atom   23 type  2   force =     0.00000000    0.00000000    0.00000000
     atom   24 type  2   force =     0.00000000    0.00000000    0.00000000
     atom   25 type  2   force =     0.00000000    0.00000000    0.00000000
     atom   26 type  2   force =     0.00000002    0.00000132   -0.00000685
     atom   27 type  2   force =     0.00000000    0.00000000    0.00000000
     atom   28 type  2   force =     0.00000000    0.00000000    0.00000000
     atom   29 type  2   force =     0.00000000    0.00000000    0.00000000
     atom   30 type  2   force =     0.00000000    0.00000000    0.00000000
     atom   31 type  2   force =     0.00000000    0.00000000    0.00000000
     atom   32 type  2   force =     0.00000000    0.00000000    0.00000000
     atom   33 type  2   force =     0.00000000    0.00000000    0.00000000

     Total force =     0.000353     Total SCF correction =     0.000007
     Energy error            =      1.9E-06
     Gradient error          =      2.8E-04

     number of scf cycles    =  14
     number of bfgs steps    =  13

     energy   old            =   -1853.4403791361 Ry
     energy   new            =   -1853.4403810843 Ry

     CASE: energy  _new < energy  _old

     new trust radius        =       0.0069467439 bohr
     new conv_thr            =       0.0000000019 Ry


ATOMIC_POSITIONS (angstrom)
Hf            4.0076390000        3.7813620000        6.1529890000    0   0   0
Hf            4.0076390000        3.7813620000       11.0753320000    0   0   0
Hf            4.0076390000        3.7813620000       15.9976750000    0   0   0
Hf            1.4522770000        1.1321830000        6.1529770000    0   0   0
Hf            1.4522770000        1.1321830000       11.0753200000    0   0   0
Hf            1.4522770000        1.1321830000       15.9976630000    0   0   0
Hf            3.6579980000        1.1322110000        8.6140330000    0   0   0
Hf            3.6579980000        1.1322110000       13.5363760000    0   0   0
Hf            3.6579980000        1.1322110000       18.4587190000    0   0   0
Hf            1.1027520000        3.7813090000        8.6141070000    0   0   0
Hf            1.1027520000        3.7813090000       13.5364490000    0   0   0
Hf            1.1027520000        3.7813090000       18.4587920000    0   0   0
O             3.1707970000        2.0862730000        6.8074440000    0   0   0
O             3.1707970000        2.0862730000       11.7297860000    0   0   0
O             3.1707970000        2.0862730000       16.6521290000    0   0   0
O             0.6152330000        2.8266930000        6.8083890000    0   0   0
O             0.6152330000        2.8266930000       11.7307320000    0   0   0
O             0.6152330000        2.8266930000       16.6530750000    0   0   0
O             5.0530890000        0.2074550000        7.3799440000    0   0   0
O             5.0530890000        0.2074550000       12.3022870000    0   0   0
O             5.0530890000        0.2074550000       17.2246300000    0   0   0
O             1.9399660000        2.0865810000        9.2696970000    0   0   0
O             1.9399660000        2.0865810000       14.1920390000    0   0   0
O             4.4952530000        2.8267400000        9.2692970000    0   0   0
O             4.4952530000        2.8267400000       14.1916400000    0   0   0
O             4.5707020366        2.7902695943       18.9977831516
O             2.4978700000       -0.2075440000        7.3798460000    0   0   0
O             2.6124080000       -0.2081150000        9.8410840000    0   0   0
O             2.4978700000       -0.2075440000       12.3021890000    0   0   0
O             2.6124080000       -0.2081150000       14.7634270000    0   0   0
O             2.4978700000       -0.2075440000       17.2245320000    0   0   0
O             5.1675430000        0.2075860000        9.8410300000    0   0   0
O             5.1675430000        0.2075860000       14.7633720000    0   0   0



     Writing output data file ./hfo2.save/
     NEW-OLD atomic charge density approx. for the potential

     negative rho (up, down):  2.517E-05 0.000E+00
 
     Adding external electric field

     Computed dipole along edir(3) : 
        Elec. dipole         -2.7568 Ry au,         -7.0072 Debye
        Ion. dipole          -2.7558 Ry au,         -7.0046 Debye
        Dipole                0.4720 Ry au,          1.1997 Debye
        Dipole field          0.0010 Ry au, 
 
        E field amplitude [Ha a.u.]:  1.0000E-03
        Potential amp.       -0.0000 Ry
        Total length         62.8334 bohr
 

     total cpu time spent up to now is      985.8 secs

     Self-consistent Calculation

     iteration #  1     ecut=    50.00 Ry     beta= 0.30
     Davidson diagonalization with overlap
     ethr =  1.00E-06,  avg # of iterations =  2.0

     Threshold (ethr) on eigenvalues was too large:
     Diagonalizing with lowered threshold

     Davidson diagonalization with overlap
     ethr =  3.81E-09,  avg # of iterations =  3.7

     negative rho (up, down):  1.649E-05 0.000E+00
 
     Adding external electric field

     Computed dipole along edir(3) : 
        Elec. dipole         -2.7568 Ry au,         -7.0072 Debye
        Ion. dipole          -2.7558 Ry au,         -7.0046 Debye
        Dipole                0.4720 Ry au,          1.1998 Debye
        Dipole field          0.0010 Ry au, 
 
        E field amplitude [Ha a.u.]:  1.0000E-03
        Potential amp.       -0.0000 Ry
        Total length         62.8334 bohr
 

     total cpu time spent up to now is     1006.0 secs

     total energy              =   -1853.44038379 Ry
     estimated scf accuracy    <       0.00001073 Ry

     iteration #  2     ecut=    50.00 Ry     beta= 0.30
     Davidson diagonalization with overlap
     ethr =  3.98E-09,  avg # of iterations =  1.0

     negative rho (up, down):  1.090E-05 0.000E+00
 
     Adding external electric field

     Computed dipole along edir(3) : 
        Elec. dipole         -2.7568 Ry au,         -7.0072 Debye
        Ion. dipole          -2.7558 Ry au,         -7.0046 Debye
        Dipole                0.4720 Ry au,          1.1998 Debye
        Dipole field          0.0010 Ry au, 
 
        E field amplitude [Ha a.u.]:  1.0000E-03
        Potential amp.       -0.0000 Ry
        Total length         62.8334 bohr
 

     total cpu time spent up to now is     1017.0 secs

     total energy              =   -1853.44038313 Ry
     estimated scf accuracy    <       0.00000368 Ry

     iteration #  3     ecut=    50.00 Ry     beta= 0.30
     Davidson diagonalization with overlap
     ethr =  1.36E-09,  avg # of iterations =  2.1

     negative rho (up, down):  8.018E-06 0.000E+00
 
     Adding external electric field

     Computed dipole along edir(3) : 
        Elec. dipole         -2.7568 Ry au,         -7.0072 Debye
        Ion. dipole          -2.7558 Ry au,         -7.0046 Debye
        Dipole                0.4720 Ry au,          1.1996 Debye
        Dipole field          0.0010 Ry au, 
 
        E field amplitude [Ha a.u.]:  1.0000E-03
        Potential amp.       -0.0000 Ry
        Total length         62.8334 bohr
 

     total cpu time spent up to now is     1035.4 secs

     total energy              =   -1853.44038258 Ry
     estimated scf accuracy    <       0.00000134 Ry

     iteration #  4     ecut=    50.00 Ry     beta= 0.30
     Davidson diagonalization with overlap
     ethr =  4.95E-10,  avg # of iterations =  4.2

     negative rho (up, down):  4.889E-06 0.000E+00
 
     Adding external electric field

     Computed dipole along edir(3) : 
        Elec. dipole         -2.7568 Ry au,         -7.0072 Debye
        Ion. dipole          -2.7558 Ry au,         -7.0046 Debye
        Dipole                0.4719 Ry au,          1.1995 Debye
        Dipole field          0.0010 Ry au, 
 
        E field amplitude [Ha a.u.]:  1.0000E-03
        Potential amp.        0.0000 Ry
        Total length         62.8334 bohr
 

     total cpu time spent up to now is     1048.2 secs

     total energy              =   -1853.44038277 Ry
     estimated scf accuracy    <       0.00000016 Ry

     iteration #  5     ecut=    50.00 Ry     beta= 0.30
     Davidson diagonalization with overlap
     ethr =  5.76E-11,  avg # of iterations =  4.3

     negative rho (up, down):  2.843E-06 0.000E+00
 
     Adding external electric field

     Computed dipole along edir(3) : 
        Elec. dipole         -2.7568 Ry au,         -7.0072 Debye
        Ion. dipole          -2.7558 Ry au,         -7.0046 Debye
        Dipole                0.4719 Ry au,          1.1993 Debye
        Dipole field          0.0010 Ry au, 
 
        E field amplitude [Ha a.u.]:  1.0000E-03
        Potential amp.        0.0000 Ry
        Total length         62.8334 bohr
 

     total cpu time spent up to now is     1065.9 secs

     total energy              =   -1853.44038277 Ry
     estimated scf accuracy    <       0.00000007 Ry

     iteration #  6     ecut=    50.00 Ry     beta= 0.30
     Davidson diagonalization with overlap
     ethr =  2.45E-11,  avg # of iterations =  2.1

     negative rho (up, down):  1.517E-06 0.000E+00
 
     Adding external electric field

     Computed dipole along edir(3) : 
        Elec. dipole         -2.7568 Ry au,         -7.0072 Debye
        Ion. dipole          -2.7558 Ry au,         -7.0046 Debye
        Dipole                0.4718 Ry au,          1.1992 Debye
        Dipole field          0.0010 Ry au, 
 
        E field amplitude [Ha a.u.]:  1.0000E-03
        Potential amp.        0.0000 Ry
        Total length         62.8334 bohr
 

     total cpu time spent up to now is     1078.2 secs

     total energy              =   -1853.44038277 Ry
     estimated scf accuracy    <       0.00000005 Ry

     iteration #  7     ecut=    50.00 Ry     beta= 0.30
     Davidson diagonalization with overlap
     ethr =  1.94E-11,  avg # of iterations =  2.8

     negative rho (up, down):  6.956E-07 0.000E+00
 
     Adding external electric field

     Computed dipole along edir(3) : 
        Elec. dipole         -2.7568 Ry au,         -7.0072 Debye
        Ion. dipole          -2.7558 Ry au,         -7.0046 Debye
        Dipole                0.4718 Ry au,          1.1992 Debye
        Dipole field          0.0010 Ry au, 
 
        E field amplitude [Ha a.u.]:  1.0000E-03
        Potential amp.        0.0000 Ry
        Total length         62.8334 bohr
 

     total cpu time spent up to now is     1082.2 secs

     total energy              =   -1853.44038278 Ry
     estimated scf accuracy    <          7.9E-09 Ry

     iteration #  8     ecut=    50.00 Ry     beta= 0.30
     Davidson diagonalization with overlap
     ethr =  2.93E-12,  avg # of iterations =  4.2

     negative rho (up, down):  2.180E-07 0.000E+00
 
     Adding external electric field

     Computed dipole along edir(3) : 
        Elec. dipole         -2.7568 Ry au,         -7.0072 Debye
        Ion. dipole          -2.7558 Ry au,         -7.0046 Debye
        Dipole                0.4718 Ry au,          1.1992 Debye
        Dipole field          0.0010 Ry au, 
 
        E field amplitude [Ha a.u.]:  1.0000E-03
        Potential amp.        0.0000 Ry
        Total length         62.8334 bohr
 

     total cpu time spent up to now is     1086.2 secs

     total energy              =   -1853.44038278 Ry
     estimated scf accuracy    <          4.5E-09 Ry

     iteration #  9     ecut=    50.00 Ry     beta= 0.30
     Davidson diagonalization with overlap
     ethr =  1.67E-12,  avg # of iterations =  2.8

     negative rho (up, down):  4.601E-08 0.000E+00
 
     Adding external electric field

     Computed dipole along edir(3) : 
        Elec. dipole         -2.7568 Ry au,         -7.0072 Debye
        Ion. dipole          -2.7558 Ry au,         -7.0046 Debye
        Dipole                0.4718 Ry au,          1.1992 Debye
        Dipole field          0.0010 Ry au, 
 
        E field amplitude [Ha a.u.]:  1.0000E-03
        Potential amp.        0.0000 Ry
        Total length         62.8334 bohr
 

     total cpu time spent up to now is     1090.1 secs

     total energy              =   -1853.44038278 Ry
     estimated scf accuracy    <          2.4E-09 Ry

     iteration # 10     ecut=    50.00 Ry     beta= 0.30
     Davidson diagonalization with overlap
     ethr =  8.80E-13,  avg # of iterations =  2.4
 
     Adding external electric field

     Computed dipole along edir(3) : 
        Elec. dipole         -2.7568 Ry au,         -7.0072 Debye
        Ion. dipole          -2.7558 Ry au,         -7.0046 Debye
        Dipole                0.4714 Ry au,          1.1982 Debye
        Dipole field          0.0010 Ry au, 
 
        E field amplitude [Ha a.u.]:  1.0000E-03
        Potential amp.        0.0001 Ry
        Total length         62.8334 bohr
 

     total cpu time spent up to now is     1092.1 secs

     End of self-consistent calculation

          k = 0.0000 0.0000 0.0000 ( 35385 PWs)   bands (ev):

   -59.2588 -59.2454 -59.0050 -58.9895 -58.8432 -58.8419 -58.8278 -58.7852
   -58.7199 -58.7045 -58.5946 -58.5740 -29.1043 -29.0448 -28.9574 -28.8782
   -28.8323 -28.7742 -28.7683 -28.7403 -28.7022 -28.6679 -28.6515 -28.6417
   -28.6258 -28.6097 -28.5819 -28.5359 -28.5282 -28.5173 -28.4759 -28.4352
   -28.4257 -28.3780 -28.3742 -28.3640 -28.3262 -28.3178 -28.2973 -28.2723
   -28.2435 -28.2001 -28.1943 -28.1648 -28.1439 -28.1177 -28.0853 -28.0635
   -17.8400 -17.4342 -16.9274 -16.6586 -16.3978 -16.3607 -16.2192 -16.1355
   -16.0501 -16.0267 -15.9036 -15.7320 -15.5506 -15.4016 -15.3898 -15.2616
   -15.2551 -15.1344 -15.0835 -15.0140 -14.5627  -5.4561  -5.4338  -5.2638
    -5.2183  -5.0700  -4.9790  -4.6701  -4.6170  -4.4393  -4.4031  -4.2772
    -4.2312  -4.1278  -3.9081  -3.8106  -3.6439  -3.6091  -3.4463  -3.3977
    -3.3449  -3.1397  -3.0793  -2.8497  -2.8075  -2.7800  -2.6688  -2.5952
    -2.4915  -2.4373  -2.2966  -2.2286  -2.1314  -1.9898  -1.9869  -1.9594
    -1.8584  -1.7571  -1.7275  -1.7060  -1.6789  -1.6181  -1.6004  -1.2720
    -1.2435  -1.1869  -1.0675  -0.8940  -0.8699  -0.8217  -0.7145  -0.6557
    -0.5831  -0.5815  -0.3741  -0.2313  -0.1961  -0.1107   0.0688   0.1063
     0.2416   0.2560   0.3713   0.4981   2.6942   2.9312   4.1632   4.3644
     4.4245   4.8127   5.0374   5.0713   5.3441   5.4947   5.5647   5.8311
     5.9507   6.0160   6.0511   6.1983   6.2476   6.2864   6.4106   6.4565
     6.4656   6.6190   6.6485   6.7073   6.8558   6.8969   7.0011   7.0302
     7.0400   7.2068

     occupation numbers 
     1.0000   1.0000   1.0000   1.0000   1.0000   1.0000   1.0000   1.0000
     1.0000   1.0000   1.0000   1.0000   1.0000   1.0000   1.0000   1.0000
     1.0000   1.0000   1.0000   1.0000   1.0000   1.0000   1.0000   1.0000
     1.0000   1.0000   1.0000   1.0000   1.0000   1.0000   1.0000   1.0000
     1.0000   1.0000   1.0000   1.0000   1.0000   1.0000   1.0000   1.0000
     1.0000   1.0000   1.0000   1.0000   1.0000   1.0000   1.0000   1.0000
     1.0000   1.0000   1.0000   1.0000   1.0000   1.0000   1.0000   1.0000
     1.0000   1.0000   1.0000   1.0000   1.0000   1.0000   1.0000   1.0000
     1.0000   1.0000   1.0000   1.0000   1.0000   1.0000   1.0000   1.0000
     1.0000   1.0000   1.0000   1.0000   1.0000   1.0000   1.0000   1.0000
     1.0000   1.0000   1.0000   1.0000   1.0000   1.0000   1.0000   1.0000
     1.0000   1.0000   1.0000   1.0000   1.0000   1.0000   1.0000   1.0000
     1.0000   1.0000   1.0000   1.0000   1.0000   1.0000   1.0000   1.0000
     1.0000   1.0000   1.0000   1.0000   1.0000   1.0000   1.0000   1.0000
     1.0000   1.0000   1.0000   1.0000   1.0000   1.0000   1.0000   1.0000
     1.0000   1.0000   1.0000   1.0000   1.0000   1.0000   1.0000   1.0000
     1.0000   1.0000   1.0000   1.0000   1.0000   0.9998   0.4133   0.1384
     0.0935   0.0059   0.0011   0.0009   0.0001   0.0000   0.0000   0.0000
     0.0000   0.0000   0.0000   0.0000   0.0000   0.0000   0.0000   0.0000
     0.0000   0.0000   0.0000   0.0000   0.0000   0.0000   0.0000   0.0000
     0.0000   0.0000

          k = 0.0000 0.2600 0.0000 ( 35369 PWs)   bands (ev):

   -59.2571 -59.2470 -59.0032 -58.9912 -58.8416 -58.8414 -58.8295 -58.7855
   -58.7182 -58.7061 -58.5936 -58.5751 -29.0880 -28.9934 -28.9322 -28.8742
   -28.8071 -28.7806 -28.7524 -28.7226 -28.6964 -28.6735 -28.6562 -28.6456
   -28.6381 -28.5913 -28.5778 -28.5469 -28.5255 -28.5205 -28.4954 -28.4458
   -28.4234 -28.4094 -28.3942 -28.3796 -28.3589 -28.3075 -28.2769 -28.2683
   -28.2642 -28.2326 -28.2027 -28.1776 -28.1452 -28.1179 -28.1009 -28.0874
   -17.5782 -17.2227 -16.8115 -16.5977 -16.3722 -16.2905 -16.1480 -16.0879
   -16.0324 -15.9914 -15.9580 -15.7568 -15.6139 -15.5605 -15.4545 -15.4043
   -15.3608 -15.2396 -15.1474 -15.0959 -14.6181  -5.4033  -5.2672  -5.0866
    -4.9682  -4.9297  -4.7091  -4.6031  -4.5525  -4.5152  -4.3682  -4.3047
    -4.1873  -3.9470  -3.8859  -3.7062  -3.6573  -3.5731  -3.4849  -3.3952
    -3.3279  -3.2651  -3.2401  -3.0341  -2.9334  -2.8218  -2.7069  -2.6485
    -2.5406  -2.4344  -2.3467  -2.2952  -2.2149  -2.1631  -2.0561  -2.0312
    -1.9153  -1.8305  -1.6742  -1.5532  -1.4886  -1.4379  -1.3433  -1.2152
    -1.2100  -1.1144  -0.9768  -0.9265  -0.8686  -0.8187  -0.7689  -0.7328
    -0.6696  -0.5806  -0.5298  -0.4047  -0.3193  -0.2519  -0.2212  -0.1929
     0.0778   0.2134   0.3129   0.4417   3.0576   3.2949   4.2336   4.2517
     4.3753   4.8340   4.9101   5.1435   5.2202   5.2496   5.3440   5.4407
     5.6724   5.7155   5.8460   5.8758   5.9763   6.1225   6.1567   6.3603
     6.5467   6.6273   6.6917   6.7408   6.9347   6.9917   7.0720   7.1620
     7.2400   7.3401

     occupation numbers 
     1.0000   1.0000   1.0000   1.0000   1.0000   1.0000   1.0000   1.0000
     1.0000   1.0000   1.0000   1.0000   1.0000   1.0000   1.0000   1.0000
     1.0000   1.0000   1.0000   1.0000   1.0000   1.0000   1.0000   1.0000
     1.0000   1.0000   1.0000   1.0000   1.0000   1.0000   1.0000   1.0000
     1.0000   1.0000   1.0000   1.0000   1.0000   1.0000   1.0000   1.0000
     1.0000   1.0000   1.0000   1.0000   1.0000   1.0000   1.0000   1.0000
     1.0000   1.0000   1.0000   1.0000   1.0000   1.0000   1.0000   1.0000
     1.0000   1.0000   1.0000   1.0000   1.0000   1.0000   1.0000   1.0000
     1.0000   1.0000   1.0000   1.0000   1.0000   1.0000   1.0000   1.0000
     1.0000   1.0000   1.0000   1.0000   1.0000   1.0000   1.0000   1.0000
     1.0000   1.0000   1.0000   1.0000   1.0000   1.0000   1.0000   1.0000
     1.0000   1.0000   1.0000   1.0000   1.0000   1.0000   1.0000   1.0000
     1.0000   1.0000   1.0000   1.0000   1.0000   1.0000   1.0000   1.0000
     1.0000   1.0000   1.0000   1.0000   1.0000   1.0000   1.0000   1.0000
     1.0000   1.0000   1.0000   1.0000   1.0000   1.0000   1.0000   1.0000
     1.0000   1.0000   1.0000   1.0000   1.0000   1.0000   1.0000   1.0000
     1.0000   1.0000   1.0000   1.0000   0.9996   0.9976   0.2956   0.2687
     0.1291   0.0051   0.0029   0.0005   0.0003   0.0002   0.0001   0.0001
     0.0000   0.0000   0.0000   0.0000   0.0000   0.0000   0.0000   0.0000
     0.0000   0.0000   0.0000   0.0000   0.0000   0.0000   0.0000   0.0000
     0.0000   0.0000

          k = 0.0000-0.5200 0.0000 ( 35392 PWs)   bands (ev):

   -59.2546 -59.2495 -59.0007 -58.9937 -58.8413 -58.8389 -58.8320 -58.7857
   -58.7158 -58.7085 -58.5925 -58.5764 -29.0691 -28.9237 -28.8875 -28.8828
   -28.7869 -28.7817 -28.7593 -28.7219 -28.6976 -28.6787 -28.6484 -28.6344
   -28.6254 -28.5989 -28.5782 -28.5560 -28.5246 -28.5155 -28.4931 -28.4620
   -28.4549 -28.4236 -28.4166 -28.3747 -28.3656 -28.3438 -28.3087 -28.2925
   -28.2681 -28.2313 -28.1903 -28.1692 -28.1518 -28.1435 -28.1228 -28.0953
   -17.2021 -16.9111 -16.6584 -16.5343 -16.3405 -16.2164 -16.1837 -16.0699
   -16.0455 -16.0074 -15.9586 -15.9405 -15.7938 -15.6331 -15.6292 -15.4360
   -15.4269 -15.3044 -15.2009 -15.1766 -14.6713  -5.2022  -5.1309  -4.9931
    -4.7978  -4.6364  -4.5543  -4.4688  -4.4551  -4.2796  -4.2485  -4.2279
    -4.1587  -4.0592  -3.9499  -3.8844  -3.8315  -3.7699  -3.5878  -3.5506
    -3.2900  -3.2268  -3.1362  -3.0923  -2.8885  -2.8577  -2.7661  -2.6422
    -2.6041  -2.4298  -2.3688  -2.2826  -2.2220  -2.0826  -2.0134  -1.9561
    -1.8418  -1.6475  -1.5907  -1.5311  -1.4637  -1.4506  -1.3313  -1.3090
    -1.2611  -1.1770  -1.1680  -1.1078  -1.0353  -0.9613  -0.8982  -0.8324
    -0.7572  -0.6460  -0.5766  -0.5532  -0.4366  -0.3141  -0.2348  -0.2242
     0.0349   0.1581   0.3083   0.3926   3.6397   3.7955   4.0600   4.1347
     4.3639   4.5100   4.5748   5.0233   5.1006   5.2314   5.2449   5.2759
     5.4574   5.5069   5.5582   5.6785   5.7380   5.9696   6.1582   6.3023
     6.4446   6.4826   6.5767   6.8498   6.9823   7.1036   7.1339   7.1926
     7.2704   7.2812

     occupation numbers 
     1.0000   1.0000   1.0000   1.0000   1.0000   1.0000   1.0000   1.0000
     1.0000   1.0000   1.0000   1.0000   1.0000   1.0000   1.0000   1.0000
     1.0000   1.0000   1.0000   1.0000   1.0000   1.0000   1.0000   1.0000
     1.0000   1.0000   1.0000   1.0000   1.0000   1.0000   1.0000   1.0000
     1.0000   1.0000   1.0000   1.0000   1.0000   1.0000   1.0000   1.0000
     1.0000   1.0000   1.0000   1.0000   1.0000   1.0000   1.0000   1.0000
     1.0000   1.0000   1.0000   1.0000   1.0000   1.0000   1.0000   1.0000
     1.0000   1.0000   1.0000   1.0000   1.0000   1.0000   1.0000   1.0000
     1.0000   1.0000   1.0000   1.0000   1.0000   1.0000   1.0000   1.0000
     1.0000   1.0000   1.0000   1.0000   1.0000   1.0000   1.0000   1.0000
     1.0000   1.0000   1.0000   1.0000   1.0000   1.0000   1.0000   1.0000
     1.0000   1.0000   1.0000   1.0000   1.0000   1.0000   1.0000   1.0000
     1.0000   1.0000   1.0000   1.0000   1.0000   1.0000   1.0000   1.0000
     1.0000   1.0000   1.0000   1.0000   1.0000   1.0000   1.0000   1.0000
     1.0000   1.0000   1.0000   1.0000   1.0000   1.0000   1.0000   1.0000
     1.0000   1.0000   1.0000   1.0000   1.0000   1.0000   1.0000   1.0000
     1.0000   1.0000   1.0000   1.0000   0.9706   0.9131   0.6006   0.4649
     0.1388   0.0522   0.0331   0.0013   0.0007   0.0003   0.0002   0.0002
     0.0001   0.0000   0.0000   0.0000   0.0000   0.0000   0.0000   0.0000
     0.0000   0.0000   0.0000   0.0000   0.0000   0.0000   0.0000   0.0000
     0.0000   0.0000

          k = 0.2500 0.0000 0.0000 ( 35470 PWs)   bands (ev):

   -59.2568 -59.2474 -59.0027 -58.9918 -58.8415 -58.8409 -58.8300 -58.7856
   -58.7177 -58.7067 -58.5933 -58.5754 -29.0671 -29.0127 -28.9267 -28.8665
   -28.7945 -28.7926 -28.7615 -28.7206 -28.6836 -28.6654 -28.6538 -28.6400
   -28.6193 -28.6131 -28.5868 -28.5597 -28.5309 -28.5223 -28.4918 -28.4333
   -28.4192 -28.4155 -28.3992 -28.3763 -28.3473 -28.3115 -28.2933 -28.2754
   -28.2529 -28.2308 -28.2045 -28.1758 -28.1451 -28.1163 -28.1046 -28.0890
   -17.5689 -17.2104 -16.7923 -16.6592 -16.3653 -16.3431 -16.2300 -16.1528
   -16.0147 -16.0117 -15.8535 -15.7897 -15.5635 -15.5438 -15.4179 -15.3973
   -15.3205 -15.2640 -15.1729 -15.1131 -14.6212  -5.2097  -5.0842  -4.9512
    -4.8967  -4.7957  -4.6685  -4.5730  -4.5293  -4.3601  -4.3085  -4.1968
    -4.0935  -4.0369  -4.0029  -3.9269  -3.8128  -3.7283  -3.5372  -3.3916
    -3.3451  -3.2540  -3.2101  -3.0423  -3.0273  -2.8409  -2.7749  -2.5776
    -2.5215  -2.3937  -2.3440  -2.2920  -2.2288  -2.1487  -2.0399  -1.9176
    -1.8769  -1.7856  -1.7338  -1.6333  -1.5865  -1.5605  -1.5328  -1.3915
    -1.3601  -1.2701  -1.1552  -1.1078  -0.9750  -0.8752  -0.8021  -0.6602
    -0.6114  -0.5494  -0.4380  -0.4036  -0.3459  -0.2021  -0.1637  -0.0539
    -0.0248   0.0707   0.1158   0.3127   2.9606   3.2709   4.1649   4.3299
     4.6322   4.8608   4.9089   5.1565   5.1754   5.5353   5.5838   5.7173
     5.8587   5.9136   6.0520   6.1222   6.2042   6.3043   6.3635   6.4712
     6.5338   6.6231   6.6448   6.7215   6.7710   6.8804   6.9267   7.0635
     7.1496   7.2496

     occupation numbers 
     1.0000   1.0000   1.0000   1.0000   1.0000   1.0000   1.0000   1.0000
     1.0000   1.0000   1.0000   1.0000   1.0000   1.0000   1.0000   1.0000
     1.0000   1.0000   1.0000   1.0000   1.0000   1.0000   1.0000   1.0000
     1.0000   1.0000   1.0000   1.0000   1.0000   1.0000   1.0000   1.0000
     1.0000   1.0000   1.0000   1.0000   1.0000   1.0000   1.0000   1.0000
     1.0000   1.0000   1.0000   1.0000   1.0000   1.0000   1.0000   1.0000
     1.0000   1.0000   1.0000   1.0000   1.0000   1.0000   1.0000   1.0000
     1.0000   1.0000   1.0000   1.0000   1.0000   1.0000   1.0000   1.0000
     1.0000   1.0000   1.0000   1.0000   1.0000   1.0000   1.0000   1.0000
     1.0000   1.0000   1.0000   1.0000   1.0000   1.0000   1.0000   1.0000
     1.0000   1.0000   1.0000   1.0000   1.0000   1.0000   1.0000   1.0000
     1.0000   1.0000   1.0000   1.0000   1.0000   1.0000   1.0000   1.0000
     1.0000   1.0000   1.0000   1.0000   1.0000   1.0000   1.0000   1.0000
     1.0000   1.0000   1.0000   1.0000   1.0000   1.0000   1.0000   1.0000
     1.0000   1.0000   1.0000   1.0000   1.0000   1.0000   1.0000   1.0000
     1.0000   1.0000   1.0000   1.0000   1.0000   1.0000   1.0000   1.0000
     1.0000   1.0000   1.0000   1.0000   0.9998   0.9980   0.4102   0.1714
     0.0219   0.0042   0.0029   0.0005   0.0004   0.0000   0.0000   0.0000
     0.0000   0.0000   0.0000   0.0000   0.0000   0.0000   0.0000   0.0000
     0.0000   0.0000   0.0000   0.0000   0.0000   0.0000   0.0000   0.0000
     0.0000   0.0000

          k = 0.2500 0.2600 0.0000 ( 35420 PWs)   bands (ev):

   -59.2556 -59.2485 -59.0015 -58.9929 -58.8413 -58.8397 -58.8312 -58.7857
   -58.7165 -58.7078 -58.5928 -58.5760 -29.0813 -29.0195 -28.9357 -28.8785
   -28.8164 -28.7795 -28.7520 -28.7250 -28.7048 -28.6722 -28.6437 -28.6365
   -28.6243 -28.6129 -28.5891 -28.5497 -28.5269 -28.5012 -28.4745 -28.4563
   -28.4453 -28.4228 -28.3902 -28.3708 -28.3360 -28.3255 -28.2970 -28.2714
   -28.2455 -28.2196 -28.1960 -28.1615 -28.1541 -28.1294 -28.1087 -28.0716
   -17.3864 -17.0714 -16.7497 -16.6734 -16.4148 -16.3508 -16.2416 -16.1760
   -16.0291 -16.0051 -15.9113 -15.7455 -15.6300 -15.5422 -15.4693 -15.4209
   -15.3724 -15.2854 -15.1535 -15.0826 -14.6728  -5.1873  -5.0386  -4.8027
    -4.7491  -4.6873  -4.6241  -4.4991  -4.4091  -4.3300  -4.2949  -4.1966
    -4.0886  -4.0001  -3.9491  -3.8516  -3.6381  -3.5276  -3.4092  -3.3450
    -3.3155  -3.2616  -3.1947  -3.1329  -3.0154  -2.9825  -2.8780  -2.7482
    -2.5316  -2.4583  -2.3804  -2.3122  -2.2252  -2.1598  -2.0872  -1.9001
    -1.8143  -1.7795  -1.7349  -1.6226  -1.5736  -1.4964  -1.4332  -1.3974
    -1.3180  -1.2495  -1.1474  -1.0714  -1.0254  -0.9793  -0.9366  -0.7873
    -0.6859  -0.6451  -0.5518  -0.4551  -0.4478  -0.3990  -0.2577  -0.1624
    -0.1158  -0.0078   0.1113   0.2995   3.1562   3.4896   4.0766   4.1326
     4.5971   4.7682   4.8693   5.0453   5.1689   5.2135   5.3645   5.4774
     5.5759   5.7654   5.8377   5.9046   6.0156   6.0884   6.1387   6.3661
     6.4310   6.6087   6.6993   6.7532   6.7762   6.9290   6.9975   7.1265
     7.2083   7.2490

     occupation numbers 
     1.0000   1.0000   1.0000   1.0000   1.0000   1.0000   1.0000   1.0000
     1.0000   1.0000   1.0000   1.0000   1.0000   1.0000   1.0000   1.0000
     1.0000   1.0000   1.0000   1.0000   1.0000   1.0000   1.0000   1.0000
     1.0000   1.0000   1.0000   1.0000   1.0000   1.0000   1.0000   1.0000
     1.0000   1.0000   1.0000   1.0000   1.0000   1.0000   1.0000   1.0000
     1.0000   1.0000   1.0000   1.0000   1.0000   1.0000   1.0000   1.0000
     1.0000   1.0000   1.0000   1.0000   1.0000   1.0000   1.0000   1.0000
     1.0000   1.0000   1.0000   1.0000   1.0000   1.0000   1.0000   1.0000
     1.0000   1.0000   1.0000   1.0000   1.0000   1.0000   1.0000   1.0000
     1.0000   1.0000   1.0000   1.0000   1.0000   1.0000   1.0000   1.0000
     1.0000   1.0000   1.0000   1.0000   1.0000   1.0000   1.0000   1.0000
     1.0000   1.0000   1.0000   1.0000   1.0000   1.0000   1.0000   1.0000
     1.0000   1.0000   1.0000   1.0000   1.0000   1.0000   1.0000   1.0000
     1.0000   1.0000   1.0000   1.0000   1.0000   1.0000   1.0000   1.0000
     1.0000   1.0000   1.0000   1.0000   1.0000   1.0000   1.0000   1.0000
     1.0000   1.0000   1.0000   1.0000   1.0000   1.0000   1.0000   1.0000
     1.0000   1.0000   1.0000   1.0000   0.9991   0.9901   0.5710   0.4686
     0.0282   0.0082   0.0039   0.0011   0.0004   0.0003   0.0001   0.0000
     0.0000   0.0000   0.0000   0.0000   0.0000   0.0000   0.0000   0.0000
     0.0000   0.0000   0.0000   0.0000   0.0000   0.0000   0.0000   0.0000
     0.0000   0.0000

          k = 0.2500-0.5200 0.0000 ( 35366 PWs)   bands (ev):

   -59.2538 -59.2502 -58.9997 -58.9947 -58.8412 -58.8379 -58.8330 -58.7858
   -58.7149 -58.7094 -58.5923 -58.5767 -29.0876 -29.0303 -28.9362 -28.9179
   -28.7931 -28.7893 -28.7547 -28.7446 -28.6945 -28.6772 -28.6577 -28.6509
   -28.6182 -28.6051 -28.5999 -28.5727 -28.5290 -28.5174 -28.4934 -28.4622
   -28.4268 -28.3929 -28.3797 -28.3608 -28.3451 -28.3055 -28.2832 -28.2535
   -28.2448 -28.2183 -28.1917 -28.1538 -28.1380 -28.1189 -28.1071 -28.0946
   -17.1443 -16.8755 -16.7211 -16.6814 -16.4640 -16.3944 -16.3186 -16.2620
   -16.1274 -16.0467 -15.9999 -15.7411 -15.6908 -15.5513 -15.4396 -15.4030
   -15.3150 -15.2730 -15.1772 -15.1258 -14.5932  -5.0572  -5.0244  -4.8187
    -4.6115  -4.5778  -4.4854  -4.3430  -4.3179  -4.2137  -4.1723  -4.0916
    -4.0381  -3.9398  -3.8739  -3.7903  -3.7431  -3.6396  -3.5669  -3.4282
    -3.3487  -3.3109  -3.0095  -2.9656  -2.9025  -2.7979  -2.7334  -2.6651
    -2.6097  -2.4642  -2.4115  -2.3566  -2.2871  -2.2661  -2.2146  -2.0485
    -1.9504  -1.8984  -1.8614  -1.7276  -1.5919  -1.5021  -1.3993  -1.3853
    -1.3347  -1.2416  -1.1946  -1.1311  -1.0344  -0.9902  -0.8893  -0.8493
    -0.7453  -0.7189  -0.6037  -0.5622  -0.4928  -0.4376  -0.2967  -0.2299
    -0.2184  -0.0696   0.1015   0.2810   3.6715   3.7237   4.0423   4.1228
     4.4552   4.4812   4.6631   4.9779   5.0221   5.0962   5.1600   5.2994
     5.3803   5.4502   5.5992   5.6946   5.7698   5.9868   6.1105   6.1774
     6.3740   6.4839   6.6713   6.7095   6.8684   6.9548   7.0324   7.1868
     7.2297   7.2787

     occupation numbers 
     1.0000   1.0000   1.0000   1.0000   1.0000   1.0000   1.0000   1.0000
     1.0000   1.0000   1.0000   1.0000   1.0000   1.0000   1.0000   1.0000
     1.0000   1.0000   1.0000   1.0000   1.0000   1.0000   1.0000   1.0000
     1.0000   1.0000   1.0000   1.0000   1.0000   1.0000   1.0000   1.0000
     1.0000   1.0000   1.0000   1.0000   1.0000   1.0000   1.0000   1.0000
     1.0000   1.0000   1.0000   1.0000   1.0000   1.0000   1.0000   1.0000
     1.0000   1.0000   1.0000   1.0000   1.0000   1.0000   1.0000   1.0000
     1.0000   1.0000   1.0000   1.0000   1.0000   1.0000   1.0000   1.0000
     1.0000   1.0000   1.0000   1.0000   1.0000   1.0000   1.0000   1.0000
     1.0000   1.0000   1.0000   1.0000   1.0000   1.0000   1.0000   1.0000
     1.0000   1.0000   1.0000   1.0000   1.0000   1.0000   1.0000   1.0000
     1.0000   1.0000   1.0000   1.0000   1.0000   1.0000   1.0000   1.0000
     1.0000   1.0000   1.0000   1.0000   1.0000   1.0000   1.0000   1.0000
     1.0000   1.0000   1.0000   1.0000   1.0000   1.0000   1.0000   1.0000
     1.0000   1.0000   1.0000   1.0000   1.0000   1.0000   1.0000   1.0000
     1.0000   1.0000   1.0000   1.0000   1.0000   1.0000   1.0000   1.0000
     1.0000   1.0000   1.0000   1.0000   0.9631   0.9468   0.6313   0.4866
     0.0761   0.0637   0.0176   0.0018   0.0013   0.0007   0.0005   0.0002
     0.0001   0.0001   0.0000   0.0000   0.0000   0.0000   0.0000   0.0000
     0.0000   0.0000   0.0000   0.0000   0.0000   0.0000   0.0000   0.0000
     0.0000   0.0000

          k = 0.2500-0.2600 0.0000 ( 35420 PWs)   bands (ev):

   -59.2556 -59.2485 -59.0015 -58.9929 -58.8414 -58.8397 -58.8312 -58.7856
   -58.7165 -58.7078 -58.5928 -58.5760 -29.0814 -29.0194 -28.9356 -28.8785
   -28.8164 -28.7797 -28.7521 -28.7260 -28.7050 -28.6741 -28.6582 -28.6404
   -28.6334 -28.6190 -28.5895 -28.5666 -28.5392 -28.5009 -28.4797 -28.4621
   -28.4305 -28.4139 -28.3847 -28.3487 -28.3344 -28.3157 -28.3003 -28.2599
   -28.2297 -28.2202 -28.1996 -28.1652 -28.1454 -28.1406 -28.0985 -28.0752
   -17.3869 -17.0838 -16.7734 -16.6742 -16.4273 -16.3594 -16.2557 -16.1988
   -16.0506 -16.0222 -15.9117 -15.7464 -15.6300 -15.5407 -15.4384 -15.4118
   -15.3238 -15.2903 -15.1757 -15.1211 -14.5469  -5.1857  -5.0372  -4.7928
    -4.7487  -4.6981  -4.6316  -4.4829  -4.4047  -4.3447  -4.2887  -4.1923
    -4.1046  -3.9952  -3.9416  -3.8467  -3.6263  -3.5140  -3.3865  -3.3435
    -3.3212  -3.2487  -3.1824  -3.1417  -3.0234  -2.9525  -2.8470  -2.7477
    -2.5582  -2.5155  -2.3955  -2.3252  -2.1828  -2.1347  -2.0635  -1.9688
    -1.8989  -1.7918  -1.7677  -1.6599  -1.5985  -1.5235  -1.4547  -1.4192
    -1.2899  -1.2602  -1.1901  -1.1129  -1.0205  -0.9866  -0.8365  -0.7785
    -0.6576  -0.5973  -0.4979  -0.4521  -0.4287  -0.3976  -0.2952  -0.1598
    -0.1223   0.0046   0.1276   0.2800   3.3620   3.4899   4.0769   4.3222
     4.4662   4.5974   4.8687   5.1631   5.2095   5.2839   5.4715   5.5539
     5.6768   5.8008   5.8606   5.9292   5.9792   6.0283   6.1892   6.2408
     6.3720   6.4787   6.6268   6.7249   6.7693   6.8962   7.0219   7.0748
     7.1532   7.2130

     occupation numbers 
     1.0000   1.0000   1.0000   1.0000   1.0000   1.0000   1.0000   1.0000
     1.0000   1.0000   1.0000   1.0000   1.0000   1.0000   1.0000   1.0000
     1.0000   1.0000   1.0000   1.0000   1.0000   1.0000   1.0000   1.0000
     1.0000   1.0000   1.0000   1.0000   1.0000   1.0000   1.0000   1.0000
     1.0000   1.0000   1.0000   1.0000   1.0000   1.0000   1.0000   1.0000
     1.0000   1.0000   1.0000   1.0000   1.0000   1.0000   1.0000   1.0000
     1.0000   1.0000   1.0000   1.0000   1.0000   1.0000   1.0000   1.0000
     1.0000   1.0000   1.0000   1.0000   1.0000   1.0000   1.0000   1.0000
     1.0000   1.0000   1.0000   1.0000   1.0000   1.0000   1.0000   1.0000
     1.0000   1.0000   1.0000   1.0000   1.0000   1.0000   1.0000   1.0000
     1.0000   1.0000   1.0000   1.0000   1.0000   1.0000   1.0000   1.0000
     1.0000   1.0000   1.0000   1.0000   1.0000   1.0000   1.0000   1.0000
     1.0000   1.0000   1.0000   1.0000   1.0000   1.0000   1.0000   1.0000
     1.0000   1.0000   1.0000   1.0000   1.0000   1.0000   1.0000   1.0000
     1.0000   1.0000   1.0000   1.0000   1.0000   1.0000   1.0000   1.0000
     1.0000   1.0000   1.0000   1.0000   1.0000   1.0000   1.0000   1.0000
     1.0000   1.0000   1.0000   1.0000   0.9961   0.9900   0.5705   0.1796
     0.0706   0.0281   0.0039   0.0005   0.0003   0.0002   0.0000   0.0000
     0.0000   0.0000   0.0000   0.0000   0.0000   0.0000   0.0000   0.0000
     0.0000   0.0000   0.0000   0.0000   0.0000   0.0000   0.0000   0.0000
     0.0000   0.0000

          k =-0.5000 0.0000 0.0000 ( 35502 PWs)   bands (ev):

   -59.2521 -59.2520 -58.9978 -58.9966 -58.8411 -58.8356 -58.8353 -58.7859
   -58.7135 -58.7109 -58.5918 -58.5770 -29.0002 -28.9999 -28.8738 -28.8736
   -28.7857 -28.7854 -28.7183 -28.7181 -28.6871 -28.6870 -28.6525 -28.6524
   -28.5973 -28.5810 -28.5785 -28.5708 -28.5427 -28.5423 -28.4877 -28.4862
   -28.4260 -28.4224 -28.4051 -28.3971 -28.3671 -28.3470 -28.2890 -28.2820
   -28.2731 -28.2291 -28.1942 -28.1896 -28.1623 -28.1285 -28.1260 -28.0965
   -16.9638 -16.9627 -16.6874 -16.6807 -16.5015 -16.4806 -16.2608 -16.2426
   -15.9961 -15.9837 -15.7988 -15.7983 -15.5875 -15.5871 -15.4629 -15.4608
   -15.4090 -15.3576 -15.3110 -15.2526 -14.6819  -4.8455  -4.8447  -4.5941
    -4.5930  -4.4215  -4.4105  -4.2947  -4.2853  -4.1970  -4.1870  -4.0529
    -3.9901  -3.8797  -3.8742  -3.7931  -3.7864  -3.6784  -3.6561  -3.5456
    -3.5312  -3.4246  -3.4137  -3.3173  -3.3011  -3.1854  -3.1413  -2.7488
    -2.6867  -2.5500  -2.4817  -2.3760  -2.3212  -2.1972  -2.1609  -2.0790
    -1.9674  -1.8390  -1.7660  -1.6673  -1.6175  -1.5360  -1.3704  -1.3443
    -1.2873  -1.2506  -1.1431  -1.0832  -1.0423  -0.9303  -0.7849  -0.7187
    -0.7100  -0.6266  -0.5608  -0.4536  -0.4128  -0.4064  -0.3965  -0.2327
    -0.2057  -0.1184  -0.0884   0.2258   3.3801   3.9794   3.9886   3.9895
     4.6261   5.0172   5.0178   5.0846   5.1817   5.1821   5.4195   5.8500
     5.8508   5.9183   5.9222   6.0351   6.1395   6.1842   6.3127   6.3962
     6.4818   6.6036   6.6714   6.7657   6.8178   7.0074   7.0245   7.0720
     7.0852   7.1197

     occupation numbers 
     1.0000   1.0000   1.0000   1.0000   1.0000   1.0000   1.0000   1.0000
     1.0000   1.0000   1.0000   1.0000   1.0000   1.0000   1.0000   1.0000
     1.0000   1.0000   1.0000   1.0000   1.0000   1.0000   1.0000   1.0000
     1.0000   1.0000   1.0000   1.0000   1.0000   1.0000   1.0000   1.0000
     1.0000   1.0000   1.0000   1.0000   1.0000   1.0000   1.0000   1.0000
     1.0000   1.0000   1.0000   1.0000   1.0000   1.0000   1.0000   1.0000
     1.0000   1.0000   1.0000   1.0000   1.0000   1.0000   1.0000   1.0000
     1.0000   1.0000   1.0000   1.0000   1.0000   1.0000   1.0000   1.0000
     1.0000   1.0000   1.0000   1.0000   1.0000   1.0000   1.0000   1.0000
     1.0000   1.0000   1.0000   1.0000   1.0000   1.0000   1.0000   1.0000
     1.0000   1.0000   1.0000   1.0000   1.0000   1.0000   1.0000   1.0000
     1.0000   1.0000   1.0000   1.0000   1.0000   1.0000   1.0000   1.0000
     1.0000   1.0000   1.0000   1.0000   1.0000   1.0000   1.0000   1.0000
     1.0000   1.0000   1.0000   1.0000   1.0000   1.0000   1.0000   1.0000
     1.0000   1.0000   1.0000   1.0000   1.0000   1.0000   1.0000   1.0000
     1.0000   1.0000   1.0000   1.0000   1.0000   1.0000   1.0000   1.0000
     1.0000   1.0000   1.0000   1.0000   0.9955   0.7312   0.7176   0.7163
     0.0229   0.0013   0.0013   0.0008   0.0004   0.0004   0.0001   0.0000
     0.0000   0.0000   0.0000   0.0000   0.0000   0.0000   0.0000   0.0000
     0.0000   0.0000   0.0000   0.0000   0.0000   0.0000   0.0000   0.0000
     0.0000   0.0000

          k =-0.5000 0.2600 0.0000 ( 35450 PWs)   bands (ev):

   -59.2521 -59.2520 -58.9978 -58.9966 -58.8411 -58.8356 -58.8353 -58.7859
   -58.7135 -58.7108 -58.5919 -58.5770 -29.0552 -29.0549 -28.9242 -28.9241
   -28.7959 -28.7956 -28.7454 -28.7451 -28.6803 -28.6789 -28.6527 -28.6503
   -28.6207 -28.6056 -28.5911 -28.5820 -28.5273 -28.5239 -28.4964 -28.4727
   -28.4292 -28.3914 -28.3758 -28.3635 -28.3411 -28.3138 -28.2639 -28.2500
   -28.2447 -28.2239 -28.1973 -28.1567 -28.1402 -28.1174 -28.1087 -28.0953
   -16.9695 -16.9687 -16.7089 -16.7050 -16.5655 -16.5459 -16.3513 -16.3384
   -16.0576 -16.0460 -15.8264 -15.8251 -15.5618 -15.5576 -15.4260 -15.4060
   -15.3099 -15.2763 -15.2076 -15.1578 -14.5975  -4.8962  -4.8932  -4.5843
    -4.5743  -4.3843  -4.3629  -4.2628  -4.2580  -4.1264  -4.1148  -3.9946
    -3.9421  -3.8660  -3.8478  -3.7523  -3.7370  -3.6632  -3.6371  -3.4776
    -3.4518  -3.2542  -3.2373  -3.1522  -3.1319  -2.9262  -2.9062  -2.7173
    -2.6854  -2.5617  -2.5335  -2.3376  -2.2733  -2.2316  -2.1982  -2.0291
    -1.9920  -1.9763  -1.8922  -1.7641  -1.6847  -1.6023  -1.5506  -1.4206
    -1.3669  -1.2823  -1.2355  -1.1776  -1.0726  -1.0247  -0.9034  -0.8740
    -0.7296  -0.6412  -0.5885  -0.5427  -0.4990  -0.4133  -0.3942  -0.2939
    -0.2465  -0.1015  -0.0487   0.1783   3.5423   3.9068   3.9075   4.0926
     4.4385   4.7979   4.7986   4.9944   4.9959   5.2085   5.5017   5.5172
     5.5626   5.7491   5.7894   5.9483   6.0115   6.1161   6.1796   6.2462
     6.2935   6.4469   6.5249   6.5988   6.7247   6.7980   6.9654   7.0299
     7.0819   7.1645

     occupation numbers 
     1.0000   1.0000   1.0000   1.0000   1.0000   1.0000   1.0000   1.0000
     1.0000   1.0000   1.0000   1.0000   1.0000   1.0000   1.0000   1.0000
     1.0000   1.0000   1.0000   1.0000   1.0000   1.0000   1.0000   1.0000
     1.0000   1.0000   1.0000   1.0000   1.0000   1.0000   1.0000   1.0000
     1.0000   1.0000   1.0000   1.0000   1.0000   1.0000   1.0000   1.0000
     1.0000   1.0000   1.0000   1.0000   1.0000   1.0000   1.0000   1.0000
     1.0000   1.0000   1.0000   1.0000   1.0000   1.0000   1.0000   1.0000
     1.0000   1.0000   1.0000   1.0000   1.0000   1.0000   1.0000   1.0000
     1.0000   1.0000   1.0000   1.0000   1.0000   1.0000   1.0000   1.0000
     1.0000   1.0000   1.0000   1.0000   1.0000   1.0000   1.0000   1.0000
     1.0000   1.0000   1.0000   1.0000   1.0000   1.0000   1.0000   1.0000
     1.0000   1.0000   1.0000   1.0000   1.0000   1.0000   1.0000   1.0000
     1.0000   1.0000   1.0000   1.0000   1.0000   1.0000   1.0000   1.0000
     1.0000   1.0000   1.0000   1.0000   1.0000   1.0000   1.0000   1.0000
     1.0000   1.0000   1.0000   1.0000   1.0000   1.0000   1.0000   1.0000
     1.0000   1.0000   1.0000   1.0000   1.0000   1.0000   1.0000   1.0000
     1.0000   1.0000   1.0000   1.0000   0.9854   0.8226   0.8219   0.5420
     0.0852   0.0066   0.0066   0.0016   0.0015   0.0003   0.0000   0.0000
     0.0000   0.0000   0.0000   0.0000   0.0000   0.0000   0.0000   0.0000
     0.0000   0.0000   0.0000   0.0000   0.0000   0.0000   0.0000   0.0000
     0.0000   0.0000

          k =-0.5000-0.5200 0.0000 ( 35320 PWs)   bands (ev):

   -59.2520 -59.2519 -58.9978 -58.9965 -58.8411 -58.8356 -58.8352 -58.7858
   -58.7135 -58.7108 -58.5920 -58.5771 -29.0948 -29.0945 -28.9709 -28.9708
   -28.8287 -28.8283 -28.7456 -28.7445 -28.6955 -28.6942 -28.6683 -28.6565
   -28.6395 -28.6273 -28.5806 -28.5634 -28.5223 -28.4916 -28.4889 -28.4732
   -28.4183 -28.3835 -28.3399 -28.3313 -28.3296 -28.3081 -28.2363 -28.2253
   -28.2094 -28.2071 -28.1965 -28.1576 -28.1230 -28.1117 -28.0808 -28.0763
   -16.9803 -16.9796 -16.7313 -16.7301 -16.6041 -16.5941 -16.4383 -16.4218
   -16.1232 -16.0955 -15.8571 -15.8540 -15.5277 -15.5249 -15.3653 -15.3524
   -15.2097 -15.2044 -15.1458 -15.0873 -14.5236  -4.7665  -4.7633  -4.5285
    -4.5268  -4.3885  -4.3717  -4.2266  -4.2073  -4.1106  -4.0862  -4.0115
    -4.0067  -3.8971  -3.8695  -3.8428  -3.8259  -3.6500  -3.6003  -3.2613
    -3.2123  -3.0908  -3.0475  -3.0370  -2.9266  -2.7907  -2.7885  -2.7575
    -2.7215  -2.5786  -2.5670  -2.4052  -2.3659  -2.1469  -2.0818  -1.9935
    -1.9545  -1.9158  -1.8916  -1.8231  -1.8058  -1.7275  -1.6460  -1.5050
    -1.3142  -1.2952  -1.2397  -1.2056  -1.1406  -1.0771  -0.9768  -0.8641
    -0.7820  -0.7649  -0.7212  -0.6435  -0.5058  -0.4962  -0.4540  -0.3810
    -0.3004  -0.1568  -0.1446   0.1160   3.7860   3.7937   3.7950   3.9916
     4.4794   4.4797   4.6159   5.0712   5.0810   5.1375   5.2302   5.2428
     5.4229   5.4814   5.5088   5.7651   5.8620   5.9625   6.0869   6.0905
     6.2022   6.3339   6.4831   6.5643   6.6725   6.8184   6.8952   7.0665
     7.1233   7.2811

     occupation numbers 
     1.0000   1.0000   1.0000   1.0000   1.0000   1.0000   1.0000   1.0000
     1.0000   1.0000   1.0000   1.0000   1.0000   1.0000   1.0000   1.0000
     1.0000   1.0000   1.0000   1.0000   1.0000   1.0000   1.0000   1.0000
     1.0000   1.0000   1.0000   1.0000   1.0000   1.0000   1.0000   1.0000
     1.0000   1.0000   1.0000   1.0000   1.0000   1.0000   1.0000   1.0000
     1.0000   1.0000   1.0000   1.0000   1.0000   1.0000   1.0000   1.0000
     1.0000   1.0000   1.0000   1.0000   1.0000   1.0000   1.0000   1.0000
     1.0000   1.0000   1.0000   1.0000   1.0000   1.0000   1.0000   1.0000
     1.0000   1.0000   1.0000   1.0000   1.0000   1.0000   1.0000   1.0000
     1.0000   1.0000   1.0000   1.0000   1.0000   1.0000   1.0000   1.0000
     1.0000   1.0000   1.0000   1.0000   1.0000   1.0000   1.0000   1.0000
     1.0000   1.0000   1.0000   1.0000   1.0000   1.0000   1.0000   1.0000
     1.0000   1.0000   1.0000   1.0000   1.0000   1.0000   1.0000   1.0000
     1.0000   1.0000   1.0000   1.0000   1.0000   1.0000   1.0000   1.0000
     1.0000   1.0000   1.0000   1.0000   1.0000   1.0000   1.0000   1.0000
     1.0000   1.0000   1.0000   1.0000   1.0000   1.0000   1.0000   1.0000
     1.0000   1.0000   1.0000   1.0000   0.9185   0.9141   0.9134   0.7131
     0.0645   0.0643   0.0247   0.0009   0.0008   0.0005   0.0003   0.0003
     0.0001   0.0000   0.0000   0.0000   0.0000   0.0000   0.0000   0.0000
     0.0000   0.0000   0.0000   0.0000   0.0000   0.0000   0.0000   0.0000
     0.0000   0.0000

     the Fermi energy is     4.1155 ev

!    total energy              =   -1853.44038278 Ry
     estimated scf accuracy    <          1.7E-09 Ry
     smearing contrib. (-TS)   =      -0.03687780 Ry
     internal energy E=F+TS    =   -1853.40350497 Ry

     The total energy is F=E-TS. E is the sum of the following terms:
     one-electron contribution =  -41391.36073471 Ry
     hartree contribution      =   20722.87958549 Ry
     xc contribution           =    -289.34812212 Ry
     ewald contribution        =   19104.42623831 Ry
     electric field correction =      -0.00047195 Ry

     convergence has been achieved in  10 iterations

     Forces acting on atoms (cartesian axes, Ry/au):

     atom    1 type  1   force =     0.01547983   -0.01587297    0.07318399
     atom    2 type  1   force =     0.00024689   -0.00185389    0.00985919
     atom    3 type  1   force =     0.00528170   -0.00481551    0.00790358
     atom    4 type  1   force =     0.01554167    0.01583893    0.07317699
     atom    5 type  1   force =     0.00060950    0.00170064    0.00983259
     atom    6 type  1   force =    -0.00208825    0.01328112    0.01543671
     atom    7 type  1   force =    -0.00385153    0.00872662    0.01281682
     atom    8 type  1   force =    -0.00027897    0.00102776    0.00872529
     atom    9 type  1   force =     0.02865995    0.05673002   -0.03408958
     atom   10 type  1   force =    -0.00361083   -0.00884066    0.01278386
     atom   11 type  1   force =     0.00012956   -0.00113423    0.01013031
     atom   12 type  1   force =    -0.06008068   -0.03668586   -0.02684814
     atom   13 type  2   force =    -0.01630855    0.02018991   -0.02494090
     atom   14 type  2   force =    -0.00071662    0.00135364   -0.00415427
     atom   15 type  2   force =     0.01113961   -0.01481246    0.00825410
     atom   16 type  2   force =    -0.01620427   -0.02015196   -0.02513737
     atom   17 type  2   force =    -0.00051157   -0.00120518   -0.00418063
     atom   18 type  2   force =     0.01186884    0.01283201   -0.01514904
     atom   19 type  2   force =     0.00399882   -0.00230778   -0.06018933
     atom   20 type  2   force =     0.00059118   -0.00004584   -0.00487630
     atom   21 type  2   force =    -0.00450544   -0.01181231    0.02423551
     atom   22 type  2   force =     0.00082035    0.00309223   -0.00213325
     atom   23 type  2   force =     0.00149777    0.00109442   -0.00461741
     atom   24 type  2   force =     0.00075450   -0.00305318   -0.00187496
     atom   25 type  2   force =     0.00022551   -0.00076568   -0.00433241
     atom   26 type  2   force =     0.00010798   -0.00004490    0.00006296
     atom   27 type  2   force =     0.00400158    0.00228016   -0.06017820
     atom   28 type  2   force =    -0.00069351   -0.00005285   -0.00729479
     atom   29 type  2   force =     0.00057319    0.00002243   -0.00481947
     atom   30 type  2   force =    -0.00077814   -0.00001342   -0.00177416
     atom   31 type  2   force =     0.01085006   -0.01593389    0.02982322
     atom   32 type  2   force =    -0.00069458    0.00022585   -0.00717334
     atom   33 type  2   force =    -0.00205557    0.00100684   -0.00246156
     The non-local contrib.  to forces
     atom    1 type  1   force =    -0.01955381    0.01743486   -0.07741089
     atom    2 type  1   force =    -0.03042523    0.06476772    0.03265045
     atom    3 type  1   force =    -0.03390460    0.06839809    0.04101864
     atom    4 type  1   force =    -0.01941182   -0.01735666   -0.07746609
     atom    5 type  1   force =    -0.03077415   -0.06479578    0.03262771
     atom    6 type  1   force =    -0.03048908   -0.07164746    0.03201178
     atom    7 type  1   force =     0.03184820   -0.07181446    0.01795773
     atom    8 type  1   force =     0.03044887   -0.06394516    0.03343324
     atom    9 type  1   force =     0.01411258   -0.12173933    0.18094157
     atom   10 type  1   force =     0.03194359    0.07181269    0.01797984
     atom   11 type  1   force =     0.03049266    0.06421315    0.03358927
     atom   12 type  1   force =     0.10633812    0.00629445    0.19690877
     atom   13 type  2   force =    -0.08632817    0.07685542    0.03789813
     atom   14 type  2   force =    -0.05376416    0.04733536    0.03192844
     atom   15 type  2   force =    -0.04212991    0.02472068    0.02996423
     atom   16 type  2   force =    -0.08571522   -0.07635611    0.03746511
     atom   17 type  2   force =    -0.05305572   -0.04667406    0.03183856
     atom   18 type  2   force =    -0.03365098   -0.01826645    0.00763565
     atom   19 type  2   force =    -0.04576197   -0.15011512   -0.04242888
     atom   20 type  2   force =    -0.05225696   -0.14667580    0.00588270
     atom   21 type  2   force =    -0.06508837   -0.16925068    0.03734052
     atom   22 type  2   force =     0.05485856    0.04896751    0.03688472
     atom   23 type  2   force =     0.05465666    0.04676205    0.03091667
     atom   24 type  2   force =     0.05499861   -0.04925070    0.03682229
     atom   25 type  2   force =     0.05264697   -0.04644277    0.03043289
     atom   26 type  2   force =     0.14916113   -0.17706820   -0.32671430
     atom   27 type  2   force =    -0.04569790    0.15006872   -0.04242683
     atom   28 type  2   force =     0.05237812    0.14634632    0.00007244
     atom   29 type  2   force =    -0.05242371    0.14652005    0.00601957
     atom   30 type  2   force =     0.05287070    0.14659784    0.01049569
     atom   31 type  2   force =    -0.03265444    0.13052809    0.03220280
     atom   32 type  2   force =     0.05238564   -0.14653001    0.00019139
     atom   33 type  2   force =     0.04980448   -0.14492023    0.00986640
     The ionic contribution  to forces
     atom    1 type  1   force =    -1.52878987    1.02840423 -240.46644458
     atom    2 type  1   force =    -1.80760209   -2.70611784  -48.28808510
     atom    3 type  1   force =    -2.11404508   -2.51890855  146.42267232
     atom    4 type  1   force =    -1.52591235   -1.02735550 -240.46688184
     atom    5 type  1   force =    -1.80318483    2.70465289  -48.28681292
     atom    6 type  1   force =    -1.48232390    2.77083809  147.51076560
     atom    7 type  1   force =     1.80518423    2.50026672 -145.90587527
     atom    8 type  1   force =     1.77584063    2.71355946   49.28930471
     atom    9 type  1   force =    -3.90324259   -1.33964900  236.77206700
     atom   10 type  1   force =     1.81769333   -2.50024316 -145.90363913
     atom   11 type  1   force =     1.83191989   -2.71297687   49.29738803
     atom   12 type  1   force =     6.37429844   -0.61269547  236.92493893
     atom   13 type  2   force =     0.85452833    0.36071836 -108.77688668
     atom   14 type  2   force =     0.86482479    0.79728472  -12.11698862
     atom   15 type  2   force =     0.09517002    0.62682534   85.55980507
     atom   16 type  2   force =     0.85580328   -0.36221569 -108.76073185
     atom   17 type  2   force =     0.86816077   -0.79904987  -12.10034053
     atom   18 type  2   force =     1.56740673   -0.97586788   85.12619842
     atom   19 type  2   force =     0.37643209    2.31165834  -98.26586576
     atom   20 type  2   force =     0.36454698    2.42153679   -0.02586166
     atom   21 type  2   force =     0.77139469    2.57008235   97.59388553
     atom   22 type  2   force =    -0.86356432    0.78164479  -60.85342858
     atom   23 type  2   force =    -0.86134762    0.79211705   36.72088027
     atom   24 type  2   force =    -0.86708623   -0.77986915  -60.85669600
     atom   25 type  2   force =    -0.87035361   -0.80390896   36.64851320
     atom   26 type  2   force =    -1.94557908    1.49891685  123.45951374
     atom   27 type  2   force =     0.37578427   -2.31348487  -98.26750343
     atom   28 type  2   force =    -0.36310815   -2.41323467  -48.84171695
     atom   29 type  2   force =     0.36114822   -2.42143803   -0.02344840
     atom   30 type  2   force =    -0.39476819   -2.39974762   48.80346214
     atom   31 type  2   force =     0.06216171   -2.04203732   98.17413551
     atom   32 type  2   force =    -0.36232170    2.41551786  -48.84172043
     atom   33 type  2   force =    -0.32906878    2.43477663   48.74539725
     The local contribution  to forces
     atom    1 type  1   force =     1.56382256   -1.06170690  240.61704463
     atom    2 type  1   force =     1.83827382    2.63949481   48.26527776
     atom    3 type  1   force =     2.15323489    2.44569094 -146.45572569
     atom    4 type  1   force =     1.56086489    1.06054367  240.61753006
     atom    5 type  1   force =     1.83456798   -2.63815729   48.26400179
     atom    6 type  1   force =     1.51072107   -2.68590665 -147.52728160
     atom    7 type  1   force =    -1.84088441   -2.41972622  145.90074667
     atom    8 type  1   force =    -1.80656835   -2.64858663  -49.31397264
     atom    9 type  1   force =     3.91779640    1.51811649 -236.98711685
     atom   10 type  1   force =    -1.85324816    2.41958816  145.89845555
     atom   11 type  1   force =    -1.86228388    2.64762737  -49.32080747
     atom   12 type  1   force =    -6.54071642    0.56970818 -237.14871441
     atom   13 type  2   force =    -0.78450897   -0.41738557  108.71406370
     atom   14 type  2   force =    -0.81177802   -0.84326674   12.08090797
     atom   15 type  2   force =    -0.04189986   -0.66635835  -85.58148782
     atom   16 type  2   force =    -0.78629262    0.41841916  108.69814553
     atom   17 type  2   force =    -0.81561712    0.84451661   12.06432344
     atom   18 type  2   force =    -1.52189040    1.00696341  -85.14895402
     atom   19 type  2   force =    -0.32667157   -2.16385230   98.24812096
     atom   20 type  2   force =    -0.31169874   -2.27490745    0.01511223
     atom   21 type  2   force =    -0.71081239   -2.41264479  -97.60697769
     atom   22 type  2   force =     0.80952576   -0.82752086   60.81441744
     atom   23 type  2   force =     0.80818774   -0.83778645  -36.75636528
     atom   24 type  2   force =     0.81284190    0.82606534   60.81800575
     atom   25 type  2   force =     0.81793131    0.84958527  -36.68322918
     atom   26 type  2   force =     1.79652673   -1.32189393 -123.13274326
     atom   27 type  2   force =    -0.32608494    2.16569548   98.24976780
     atom   28 type  2   force =     0.31003629    2.26683444   48.83435014
     atom   29 type  2   force =    -0.30815155    2.27493888    0.01261835
     atom   30 type  2   force =     0.34111977    2.25313534  -48.81567650
     atom   31 type  2   force =    -0.01865671    1.89557313  -98.17650182
     atom   32 type  2   force =     0.30924131   -2.26876334   48.83435637
     atom   33 type  2   force =     0.27720840   -2.28884982  -48.75766760
     The core correction contribution to forces
     atom    1 type  1   force =     0.00000000    0.00000000    0.00000000
     atom    2 type  1   force =     0.00000000    0.00000000    0.00000000
     atom    3 type  1   force =     0.00000000    0.00000000    0.00000000
     atom    4 type  1   force =     0.00000000    0.00000000    0.00000000
     atom    5 type  1   force =     0.00000000    0.00000000    0.00000000
     atom    6 type  1   force =     0.00000000    0.00000000    0.00000000
     atom    7 type  1   force =     0.00000000    0.00000000    0.00000000
     atom    8 type  1   force =     0.00000000    0.00000000    0.00000000
     atom    9 type  1   force =     0.00000000    0.00000000    0.00000000
     atom   10 type  1   force =     0.00000000    0.00000000    0.00000000
     atom   11 type  1   force =     0.00000000    0.00000000    0.00000000
     atom   12 type  1   force =     0.00000000    0.00000000    0.00000000
     atom   13 type  2   force =     0.00000000    0.00000000    0.00000000
     atom   14 type  2   force =     0.00000000    0.00000000    0.00000000
     atom   15 type  2   force =     0.00000000    0.00000000    0.00000000
     atom   16 type  2   force =     0.00000000    0.00000000    0.00000000
     atom   17 type  2   force =     0.00000000    0.00000000    0.00000000
     atom   18 type  2   force =     0.00000000    0.00000000    0.00000000
     atom   19 type  2   force =     0.00000000    0.00000000    0.00000000
     atom   20 type  2   force =     0.00000000    0.00000000    0.00000000
     atom   21 type  2   force =     0.00000000    0.00000000    0.00000000
     atom   22 type  2   force =     0.00000000    0.00000000    0.00000000
     atom   23 type  2   force =     0.00000000    0.00000000    0.00000000
     atom   24 type  2   force =     0.00000000    0.00000000    0.00000000
     atom   25 type  2   force =     0.00000000    0.00000000    0.00000000
     atom   26 type  2   force =     0.00000000    0.00000000    0.00000000
     atom   27 type  2   force =     0.00000000    0.00000000    0.00000000
     atom   28 type  2   force =     0.00000000    0.00000000    0.00000000
     atom   29 type  2   force =     0.00000000    0.00000000    0.00000000
     atom   30 type  2   force =     0.00000000    0.00000000    0.00000000
     atom   31 type  2   force =     0.00000000    0.00000000    0.00000000
     atom   32 type  2   force =     0.00000000    0.00000000    0.00000000
     atom   33 type  2   force =     0.00000000    0.00000000    0.00000000
     The Hubbard contrib.    to forces
     atom    1 type  1   force =     0.00000000    0.00000000    0.00000000
     atom    2 type  1   force =     0.00000000    0.00000000    0.00000000
     atom    3 type  1   force =     0.00000000    0.00000000    0.00000000
     atom    4 type  1   force =     0.00000000    0.00000000    0.00000000
     atom    5 type  1   force =     0.00000000    0.00000000    0.00000000
     atom    6 type  1   force =     0.00000000    0.00000000    0.00000000
     atom    7 type  1   force =     0.00000000    0.00000000    0.00000000
     atom    8 type  1   force =     0.00000000    0.00000000    0.00000000
     atom    9 type  1   force =     0.00000000    0.00000000    0.00000000
     atom   10 type  1   force =     0.00000000    0.00000000    0.00000000
     atom   11 type  1   force =     0.00000000    0.00000000    0.00000000
     atom   12 type  1   force =     0.00000000    0.00000000    0.00000000
     atom   13 type  2   force =     0.00000000    0.00000000    0.00000000
     atom   14 type  2   force =     0.00000000    0.00000000    0.00000000
     atom   15 type  2   force =     0.00000000    0.00000000    0.00000000
     atom   16 type  2   force =     0.00000000    0.00000000    0.00000000
     atom   17 type  2   force =     0.00000000    0.00000000    0.00000000
     atom   18 type  2   force =     0.00000000    0.00000000    0.00000000
     atom   19 type  2   force =     0.00000000    0.00000000    0.00000000
     atom   20 type  2   force =     0.00000000    0.00000000    0.00000000
     atom   21 type  2   force =     0.00000000    0.00000000    0.00000000
     atom   22 type  2   force =     0.00000000    0.00000000    0.00000000
     atom   23 type  2   force =     0.00000000    0.00000000    0.00000000
     atom   24 type  2   force =     0.00000000    0.00000000    0.00000000
     atom   25 type  2   force =     0.00000000    0.00000000    0.00000000
     atom   26 type  2   force =     0.00000000    0.00000000    0.00000000
     atom   27 type  2   force =     0.00000000    0.00000000    0.00000000
     atom   28 type  2   force =     0.00000000    0.00000000    0.00000000
     atom   29 type  2   force =     0.00000000    0.00000000    0.00000000
     atom   30 type  2   force =     0.00000000    0.00000000    0.00000000
     atom   31 type  2   force =     0.00000000    0.00000000    0.00000000
     atom   32 type  2   force =     0.00000000    0.00000000    0.00000000
     atom   33 type  2   force =     0.00000000    0.00000000    0.00000000
     The SCF correction term to forces
     atom    1 type  1   force =     0.00000000    0.00000000    0.00000000
     atom    2 type  1   force =     0.00000000    0.00000000    0.00000000
     atom    3 type  1   force =     0.00000000    0.00000000    0.00000000
     atom    4 type  1   force =     0.00000000    0.00000000    0.00000000
     atom    5 type  1   force =     0.00000000    0.00000000    0.00000000
     atom    6 type  1   force =     0.00000000    0.00000000    0.00000000
     atom    7 type  1   force =     0.00000000    0.00000000    0.00000000
     atom    8 type  1   force =     0.00000000    0.00000000    0.00000000
     atom    9 type  1   force =     0.00000000    0.00000000    0.00000000
     atom   10 type  1   force =     0.00000000    0.00000000    0.00000000
     atom   11 type  1   force =     0.00000000    0.00000000    0.00000000
     atom   12 type  1   force =     0.00000000    0.00000000    0.00000000
     atom   13 type  2   force =     0.00000000    0.00000000    0.00000000
     atom   14 type  2   force =     0.00000000    0.00000000    0.00000000
     atom   15 type  2   force =     0.00000000    0.00000000    0.00000000
     atom   16 type  2   force =     0.00000000    0.00000000    0.00000000
     atom   17 type  2   force =     0.00000000    0.00000000    0.00000000
     atom   18 type  2   force =     0.00000000    0.00000000    0.00000000
     atom   19 type  2   force =     0.00000000    0.00000000    0.00000000
     atom   20 type  2   force =     0.00000000    0.00000000    0.00000000
     atom   21 type  2   force =     0.00000000    0.00000000    0.00000000
     atom   22 type  2   force =     0.00000000    0.00000000    0.00000000
     atom   23 type  2   force =     0.00000000    0.00000000    0.00000000
     atom   24 type  2   force =     0.00000000    0.00000000    0.00000000
     atom   25 type  2   force =     0.00000000    0.00000000    0.00000000
     atom   26 type  2   force =    -0.00000115   -0.00000077   -0.00000226
     atom   27 type  2   force =     0.00000000    0.00000000    0.00000000
     atom   28 type  2   force =     0.00000000    0.00000000    0.00000000
     atom   29 type  2   force =     0.00000000    0.00000000    0.00000000
     atom   30 type  2   force =     0.00000000    0.00000000    0.00000000
     atom   31 type  2   force =     0.00000000    0.00000000    0.00000000
     atom   32 type  2   force =     0.00000000    0.00000000    0.00000000
     atom   33 type  2   force =     0.00000000    0.00000000    0.00000000

     Total force =     0.000133     Total SCF correction =     0.000003
     Energy error            =      1.7E-06
     Gradient error          =      1.1E-04

     number of scf cycles    =  15
     number of bfgs steps    =  14

     energy   old            =   -1853.4403810843 Ry
     energy   new            =   -1853.4403827752 Ry

     CASE: energy  _new < energy  _old

     new trust radius        =       0.0041462623 bohr
     new conv_thr            =       0.0000000017 Ry


ATOMIC_POSITIONS (angstrom)
Hf            4.0076390000        3.7813620000        6.1529890000    0   0   0
Hf            4.0076390000        3.7813620000       11.0753320000    0   0   0
Hf            4.0076390000        3.7813620000       15.9976750000    0   0   0
Hf            1.4522770000        1.1321830000        6.1529770000    0   0   0
Hf            1.4522770000        1.1321830000       11.0753200000    0   0   0
Hf            1.4522770000        1.1321830000       15.9976630000    0   0   0
Hf            3.6579980000        1.1322110000        8.6140330000    0   0   0
Hf            3.6579980000        1.1322110000       13.5363760000    0   0   0
Hf            3.6579980000        1.1322110000       18.4587190000    0   0   0
Hf            1.1027520000        3.7813090000        8.6141070000    0   0   0
Hf            1.1027520000        3.7813090000       13.5364490000    0   0   0
Hf            1.1027520000        3.7813090000       18.4587920000    0   0   0
O             3.1707970000        2.0862730000        6.8074440000    0   0   0
O             3.1707970000        2.0862730000       11.7297860000    0   0   0
O             3.1707970000        2.0862730000       16.6521290000    0   0   0
O             0.6152330000        2.8266930000        6.8083890000    0   0   0
O             0.6152330000        2.8266930000       11.7307320000    0   0   0
O             0.6152330000        2.8266930000       16.6530750000    0   0   0
O             5.0530890000        0.2074550000        7.3799440000    0   0   0
O             5.0530890000        0.2074550000       12.3022870000    0   0   0
O             5.0530890000        0.2074550000       17.2246300000    0   0   0
O             1.9399660000        2.0865810000        9.2696970000    0   0   0
O             1.9399660000        2.0865810000       14.1920390000    0   0   0
O             4.4952530000        2.8267400000        9.2692970000    0   0   0
O             4.4952530000        2.8267400000       14.1916400000    0   0   0
O             4.5721582678        2.7889994711       18.9988225195
O             2.4978700000       -0.2075440000        7.3798460000    0   0   0
O             2.6124080000       -0.2081150000        9.8410840000    0   0   0
O             2.4978700000       -0.2075440000       12.3021890000    0   0   0
O             2.6124080000       -0.2081150000       14.7634270000    0   0   0
O             2.4978700000       -0.2075440000       17.2245320000    0   0   0
O             5.1675430000        0.2075860000        9.8410300000    0   0   0
O             5.1675430000        0.2075860000       14.7633720000    0   0   0



     Writing output data file ./hfo2.save/
     NEW-OLD atomic charge density approx. for the potential

     negative rho (up, down):  1.326E-05 0.000E+00
 
     Adding external electric field

     Computed dipole along edir(3) : 
        Elec. dipole         -2.7568 Ry au,         -7.0071 Debye
        Ion. dipole          -2.7558 Ry au,         -7.0046 Debye
        Dipole                0.4714 Ry au,          1.1982 Debye
        Dipole field          0.0010 Ry au, 
 
        E field amplitude [Ha a.u.]:  1.0000E-03
        Potential amp.        0.0001 Ry
        Total length         62.8334 bohr
 

     total cpu time spent up to now is     1093.8 secs

     Self-consistent Calculation

     iteration #  1     ecut=    50.00 Ry     beta= 0.30
     Davidson diagonalization with overlap
     ethr =  1.00E-06,  avg # of iterations =  2.0

     Threshold (ethr) on eigenvalues was too large:
     Diagonalizing with lowered threshold

     Davidson diagonalization with overlap
     ethr =  7.16E-09,  avg # of iterations =  1.7

     negative rho (up, down):  8.397E-06 0.000E+00
 
     Adding external electric field

     Computed dipole along edir(3) : 
        Elec. dipole         -2.7568 Ry au,         -7.0071 Debye
        Ion. dipole          -2.7558 Ry au,         -7.0046 Debye
        Dipole                0.4715 Ry au,          1.1984 Debye
        Dipole field          0.0010 Ry au, 
 
        E field amplitude [Ha a.u.]:  1.0000E-03
        Potential amp.        0.0001 Ry
        Total length         62.8334 bohr
 

     total cpu time spent up to now is     1127.2 secs

     total energy              =   -1853.44038341 Ry
     estimated scf accuracy    <       0.00001955 Ry

     iteration #  2     ecut=    50.00 Ry     beta= 0.30
     Davidson diagonalization with overlap
     ethr =  7.24E-09,  avg # of iterations =  1.0

     negative rho (up, down):  5.284E-06 0.000E+00
 
     Adding external electric field

     Computed dipole along edir(3) : 
        Elec. dipole         -2.7568 Ry au,         -7.0071 Debye
        Ion. dipole          -2.7558 Ry au,         -7.0046 Debye
        Dipole                0.4715 Ry au,          1.1985 Debye
        Dipole field          0.0010 Ry au, 
 
        E field amplitude [Ha a.u.]:  1.0000E-03
        Potential amp.        0.0001 Ry
        Total length         62.8334 bohr
 

     total cpu time spent up to now is     1152.7 secs

     total energy              =   -1853.44038324 Ry
     estimated scf accuracy    <       0.00000298 Ry

     iteration #  3     ecut=    50.00 Ry     beta= 0.30
     Davidson diagonalization with overlap
     ethr =  1.10E-09,  avg # of iterations =  2.3

     negative rho (up, down):  3.763E-06 0.000E+00
 
     Adding external electric field

     Computed dipole along edir(3) : 
        Elec. dipole         -2.7568 Ry au,         -7.0071 Debye
        Ion. dipole          -2.7558 Ry au,         -7.0046 Debye
        Dipole                0.4716 Ry au,          1.1986 Debye
        Dipole field          0.0010 Ry au, 
 
        E field amplitude [Ha a.u.]:  1.0000E-03
        Potential amp.        0.0001 Ry
        Total length         62.8334 bohr
 

     total cpu time spent up to now is     1165.7 secs

     total energy              =   -1853.44038301 Ry
     estimated scf accuracy    <       0.00000058 Ry

     iteration #  4     ecut=    50.00 Ry     beta= 0.30
     Davidson diagonalization with overlap
     ethr =  2.14E-10,  avg # of iterations =  4.3

     negative rho (up, down):  2.114E-06 0.000E+00
 
     Adding external electric field

     Computed dipole along edir(3) : 
        Elec. dipole         -2.7568 Ry au,         -7.0071 Debye
        Ion. dipole          -2.7558 Ry au,         -7.0046 Debye
        Dipole                0.4716 Ry au,          1.1986 Debye
        Dipole field          0.0010 Ry au, 
 
        E field amplitude [Ha a.u.]:  1.0000E-03
        Potential amp.        0.0001 Ry
        Total length         62.8334 bohr
 

     total cpu time spent up to now is     1169.9 secs

     total energy              =   -1853.44038309 Ry
     estimated scf accuracy    <       0.00000006 Ry

     iteration #  5     ecut=    50.00 Ry     beta= 0.30
     Davidson diagonalization with overlap
     ethr =  2.18E-11,  avg # of iterations =  4.4

     negative rho (up, down):  1.098E-06 0.000E+00
 
     Adding external electric field

     Computed dipole along edir(3) : 
        Elec. dipole         -2.7568 Ry au,         -7.0071 Debye
        Ion. dipole          -2.7558 Ry au,         -7.0046 Debye
        Dipole                0.4716 Ry au,          1.1986 Debye
        Dipole field          0.0010 Ry au, 
 
        E field amplitude [Ha a.u.]:  1.0000E-03
        Potential amp.        0.0001 Ry
        Total length         62.8334 bohr
 

     total cpu time spent up to now is     1176.8 secs

     total energy              =   -1853.44038310 Ry
     estimated scf accuracy    <       0.00000002 Ry

     iteration #  6     ecut=    50.00 Ry     beta= 0.30
     Davidson diagonalization with overlap
     ethr =  6.30E-12,  avg # of iterations =  2.9

     negative rho (up, down):  4.746E-07 0.000E+00
 
     Adding external electric field

     Computed dipole along edir(3) : 
        Elec. dipole         -2.7568 Ry au,         -7.0071 Debye
        Ion. dipole          -2.7558 Ry au,         -7.0046 Debye
        Dipole                0.4715 Ry au,          1.1985 Debye
        Dipole field          0.0010 Ry au, 
 
        E field amplitude [Ha a.u.]:  1.0000E-03
        Potential amp.        0.0001 Ry
        Total length         62.8334 bohr
 

     total cpu time spent up to now is     1180.8 secs

     total energy              =   -1853.44038309 Ry
     estimated scf accuracy    <       0.00000002 Ry

     iteration #  7     ecut=    50.00 Ry     beta= 0.30
     Davidson diagonalization with overlap
     ethr =  6.23E-12,  avg # of iterations =  2.4

     negative rho (up, down):  1.551E-07 0.000E+00
 
     Adding external electric field

     Computed dipole along edir(3) : 
        Elec. dipole         -2.7568 Ry au,         -7.0071 Debye
        Ion. dipole          -2.7558 Ry au,         -7.0046 Debye
        Dipole                0.4715 Ry au,          1.1985 Debye
        Dipole field          0.0010 Ry au, 
 
        E field amplitude [Ha a.u.]:  1.0000E-03
        Potential amp.        0.0001 Ry
        Total length         62.8334 bohr
 

     total cpu time spent up to now is     1184.6 secs

     total energy              =   -1853.44038310 Ry
     estimated scf accuracy    <          5.9E-09 Ry

     iteration #  8     ecut=    50.00 Ry     beta= 0.30
     Davidson diagonalization with overlap
     ethr =  2.17E-12,  avg # of iterations =  2.3

     negative rho (up, down):  2.221E-08 0.000E+00
 
     Adding external electric field

     Computed dipole along edir(3) : 
        Elec. dipole         -2.7568 Ry au,         -7.0071 Debye
        Ion. dipole          -2.7558 Ry au,         -7.0046 Debye
        Dipole                0.4715 Ry au,          1.1985 Debye
        Dipole field          0.0010 Ry au, 
 
        E field amplitude [Ha a.u.]:  1.0000E-03
        Potential amp.        0.0001 Ry
        Total length         62.8334 bohr
 

     total cpu time spent up to now is     1188.4 secs

     total energy              =   -1853.44038310 Ry
     estimated scf accuracy    <          3.3E-09 Ry

     iteration #  9     ecut=    50.00 Ry     beta= 0.30
     Davidson diagonalization with overlap
     ethr =  1.23E-12,  avg # of iterations =  3.4
 
     Adding external electric field

     Computed dipole along edir(3) : 
        Elec. dipole         -2.7568 Ry au,         -7.0071 Debye
        Ion. dipole          -2.7558 Ry au,         -7.0046 Debye
        Dipole                0.4714 Ry au,          1.1983 Debye
        Dipole field          0.0010 Ry au, 
 
        E field amplitude [Ha a.u.]:  1.0000E-03
        Potential amp.        0.0001 Ry
        Total length         62.8334 bohr
 

     total cpu time spent up to now is     1190.5 secs

     End of self-consistent calculation

          k = 0.0000 0.0000 0.0000 ( 35385 PWs)   bands (ev):

   -59.2592 -59.2458 -59.0054 -58.9900 -58.8437 -58.8412 -58.8283 -58.7853
   -58.7204 -58.7050 -58.5952 -58.5746 -29.1047 -29.0452 -28.9578 -28.8787
   -28.8327 -28.7746 -28.7687 -28.7408 -28.7026 -28.6681 -28.6519 -28.6421
   -28.6263 -28.6101 -28.5823 -28.5363 -28.5287 -28.5176 -28.4764 -28.4357
   -28.4261 -28.3785 -28.3741 -28.3643 -28.3267 -28.3181 -28.2977 -28.2726
   -28.2441 -28.2006 -28.1943 -28.1652 -28.1442 -28.1181 -28.0859 -28.0640
   -17.8405 -17.4347 -16.9279 -16.6590 -16.3983 -16.3612 -16.2197 -16.1360
   -16.0506 -16.0273 -15.9041 -15.7324 -15.5511 -15.4021 -15.3903 -15.2622
   -15.2556 -15.1350 -15.0842 -15.0146 -14.5621  -5.4566  -5.4343  -5.2643
    -5.2188  -5.0705  -4.9796  -4.6706  -4.6175  -4.4399  -4.4035  -4.2777
    -4.2316  -4.1283  -3.9086  -3.8112  -3.6444  -3.6097  -3.4469  -3.3982
    -3.3453  -3.1401  -3.0799  -2.8502  -2.8080  -2.7805  -2.6692  -2.5957
    -2.4920  -2.4378  -2.2970  -2.2291  -2.1319  -1.9903  -1.9874  -1.9598
    -1.8590  -1.7575  -1.7278  -1.7065  -1.6795  -1.6186  -1.6008  -1.2725
    -1.2440  -1.1875  -1.0677  -0.8944  -0.8705  -0.8221  -0.7149  -0.6564
    -0.5835  -0.5821  -0.3746  -0.2318  -0.1965  -0.1111   0.0683   0.1058
     0.2410   0.2555   0.3707   0.4973   2.6940   2.9308   4.1631   4.3640
     4.4241   4.8123   5.0370   5.0710   5.3432   5.4942   5.5642   5.8306
     5.9507   6.0157   6.0506   6.1981   6.2472   6.2859   6.4105   6.4561
     6.4652   6.6185   6.6480   6.7067   6.8553   6.8964   7.0005   7.0301
     7.0398   7.2060

     occupation numbers 
     1.0000   1.0000   1.0000   1.0000   1.0000   1.0000   1.0000   1.0000
     1.0000   1.0000   1.0000   1.0000   1.0000   1.0000   1.0000   1.0000
     1.0000   1.0000   1.0000   1.0000   1.0000   1.0000   1.0000   1.0000
     1.0000   1.0000   1.0000   1.0000   1.0000   1.0000   1.0000   1.0000
     1.0000   1.0000   1.0000   1.0000   1.0000   1.0000   1.0000   1.0000
     1.0000   1.0000   1.0000   1.0000   1.0000   1.0000   1.0000   1.0000
     1.0000   1.0000   1.0000   1.0000   1.0000   1.0000   1.0000   1.0000
     1.0000   1.0000   1.0000   1.0000   1.0000   1.0000   1.0000   1.0000
     1.0000   1.0000   1.0000   1.0000   1.0000   1.0000   1.0000   1.0000
     1.0000   1.0000   1.0000   1.0000   1.0000   1.0000   1.0000   1.0000
     1.0000   1.0000   1.0000   1.0000   1.0000   1.0000   1.0000   1.0000
     1.0000   1.0000   1.0000   1.0000   1.0000   1.0000   1.0000   1.0000
     1.0000   1.0000   1.0000   1.0000   1.0000   1.0000   1.0000   1.0000
     1.0000   1.0000   1.0000   1.0000   1.0000   1.0000   1.0000   1.0000
     1.0000   1.0000   1.0000   1.0000   1.0000   1.0000   1.0000   1.0000
     1.0000   1.0000   1.0000   1.0000   1.0000   1.0000   1.0000   1.0000
     1.0000   1.0000   1.0000   1.0000   1.0000   0.9998   0.4127   0.1384
     0.0935   0.0059   0.0011   0.0009   0.0001   0.0000   0.0000   0.0000
     0.0000   0.0000   0.0000   0.0000   0.0000   0.0000   0.0000   0.0000
     0.0000   0.0000   0.0000   0.0000   0.0000   0.0000   0.0000   0.0000
     0.0000   0.0000

          k = 0.0000 0.2600 0.0000 ( 35369 PWs)   bands (ev):

   -59.2575 -59.2474 -59.0037 -58.9917 -58.8419 -58.8409 -58.8300 -58.7856
   -58.7188 -58.7067 -58.5942 -58.5757 -29.0884 -28.9938 -28.9327 -28.8746
   -28.8076 -28.7811 -28.7529 -28.7231 -28.6968 -28.6738 -28.6566 -28.6460
   -28.6384 -28.5917 -28.5782 -28.5473 -28.5259 -28.5209 -28.4958 -28.4460
   -28.4239 -28.4098 -28.3943 -28.3801 -28.3593 -28.3079 -28.2773 -28.2687
   -28.2646 -28.2329 -28.2029 -28.1779 -28.1458 -28.1184 -28.1013 -28.0879
   -17.5787 -17.2232 -16.8120 -16.5981 -16.3726 -16.2910 -16.1486 -16.0884
   -16.0330 -15.9919 -15.9584 -15.7573 -15.6144 -15.5610 -15.4550 -15.4049
   -15.3613 -15.2402 -15.1481 -15.0965 -14.6177  -5.4038  -5.2677  -5.0872
    -4.9687  -4.9302  -4.7096  -4.6036  -4.5530  -4.5157  -4.3687  -4.3052
    -4.1879  -3.9475  -3.8864  -3.7067  -3.6578  -3.5736  -3.4854  -3.3958
    -3.3284  -3.2656  -3.2405  -3.0347  -2.9339  -2.8223  -2.7074  -2.6489
    -2.5412  -2.4349  -2.3472  -2.2957  -2.2154  -2.1637  -2.0564  -2.0316
    -1.9157  -1.8310  -1.6747  -1.5538  -1.4890  -1.4384  -1.3438  -1.2158
    -1.2105  -1.1149  -0.9771  -0.9269  -0.8690  -0.8191  -0.7693  -0.7333
    -0.6702  -0.5810  -0.5308  -0.4052  -0.3200  -0.2525  -0.2218  -0.1934
     0.0773   0.2128   0.3123   0.4410   3.0575   3.2945   4.2333   4.2516
     4.3749   4.8338   4.9097   5.1431   5.2199   5.2489   5.3433   5.4402
     5.6718   5.7148   5.8454   5.8753   5.9756   6.1219   6.1562   6.3600
     6.5462   6.6279   6.6915   6.7404   6.9343   6.9913   7.0718   7.1616
     7.2397   7.3407

     occupation numbers 
     1.0000   1.0000   1.0000   1.0000   1.0000   1.0000   1.0000   1.0000
     1.0000   1.0000   1.0000   1.0000   1.0000   1.0000   1.0000   1.0000
     1.0000   1.0000   1.0000   1.0000   1.0000   1.0000   1.0000   1.0000
     1.0000   1.0000   1.0000   1.0000   1.0000   1.0000   1.0000   1.0000
     1.0000   1.0000   1.0000   1.0000   1.0000   1.0000   1.0000   1.0000
     1.0000   1.0000   1.0000   1.0000   1.0000   1.0000   1.0000   1.0000
     1.0000   1.0000   1.0000   1.0000   1.0000   1.0000   1.0000   1.0000
     1.0000   1.0000   1.0000   1.0000   1.0000   1.0000   1.0000   1.0000
     1.0000   1.0000   1.0000   1.0000   1.0000   1.0000   1.0000   1.0000
     1.0000   1.0000   1.0000   1.0000   1.0000   1.0000   1.0000   1.0000
     1.0000   1.0000   1.0000   1.0000   1.0000   1.0000   1.0000   1.0000
     1.0000   1.0000   1.0000   1.0000   1.0000   1.0000   1.0000   1.0000
     1.0000   1.0000   1.0000   1.0000   1.0000   1.0000   1.0000   1.0000
     1.0000   1.0000   1.0000   1.0000   1.0000   1.0000   1.0000   1.0000
     1.0000   1.0000   1.0000   1.0000   1.0000   1.0000   1.0000   1.0000
     1.0000   1.0000   1.0000   1.0000   1.0000   1.0000   1.0000   1.0000
     1.0000   1.0000   1.0000   1.0000   0.9996   0.9976   0.2956   0.2683
     0.1291   0.0051   0.0029   0.0005   0.0003   0.0002   0.0001   0.0001
     0.0000   0.0000   0.0000   0.0000   0.0000   0.0000   0.0000   0.0000
     0.0000   0.0000   0.0000   0.0000   0.0000   0.0000   0.0000   0.0000
     0.0000   0.0000

          k = 0.0000-0.5200 0.0000 ( 35392 PWs)   bands (ev):

   -59.2550 -59.2499 -59.0012 -58.9941 -58.8406 -58.8394 -58.8325 -58.7858
   -58.7164 -58.7091 -58.5932 -58.5770 -29.0695 -28.9241 -28.8880 -28.8833
   -28.7874 -28.7821 -28.7597 -28.7224 -28.6981 -28.6791 -28.6486 -28.6349
   -28.6258 -28.5994 -28.5786 -28.5564 -28.5249 -28.5160 -28.4935 -28.4625
   -28.4548 -28.4241 -28.4170 -28.3749 -28.3660 -28.3443 -28.3090 -28.2930
   -28.2685 -28.2313 -28.1908 -28.1695 -28.1523 -28.1439 -28.1234 -28.0957
   -17.2026 -16.9116 -16.6589 -16.5347 -16.3410 -16.2169 -16.1841 -16.0704
   -16.0460 -16.0078 -15.9591 -15.9411 -15.7943 -15.6336 -15.6296 -15.4366
   -15.4273 -15.3049 -15.2015 -15.1773 -14.6711  -5.2027  -5.1314  -4.9936
    -4.7982  -4.6369  -4.5547  -4.4693  -4.4556  -4.2801  -4.2490  -4.2284
    -4.1592  -4.0598  -3.9504  -3.8849  -3.8321  -3.7703  -3.5883  -3.5511
    -3.2903  -3.2273  -3.1367  -3.0928  -2.8890  -2.8582  -2.7666  -2.6427
    -2.6046  -2.4302  -2.3693  -2.2830  -2.2225  -2.0833  -2.0139  -1.9566
    -1.8422  -1.6478  -1.5912  -1.5310  -1.4640  -1.4508  -1.3318  -1.3095
    -1.2616  -1.1775  -1.1685  -1.1084  -1.0358  -0.9618  -0.8987  -0.8329
    -0.7576  -0.6470  -0.5771  -0.5539  -0.4373  -0.3151  -0.2352  -0.2248
     0.0344   0.1576   0.3076   0.3920   3.6405   3.7951   4.0586   4.1343
     4.3635   4.5102   4.5744   5.0228   5.1001   5.2307   5.2444   5.2752
     5.4563   5.5063   5.5573   5.6781   5.7373   5.9696   6.1577   6.3018
     6.4447   6.4829   6.5763   6.8514   6.9819   7.1031   7.1336   7.1925
     7.2699   7.2808

     occupation numbers 
     1.0000   1.0000   1.0000   1.0000   1.0000   1.0000   1.0000   1.0000
     1.0000   1.0000   1.0000   1.0000   1.0000   1.0000   1.0000   1.0000
     1.0000   1.0000   1.0000   1.0000   1.0000   1.0000   1.0000   1.0000
     1.0000   1.0000   1.0000   1.0000   1.0000   1.0000   1.0000   1.0000
     1.0000   1.0000   1.0000   1.0000   1.0000   1.0000   1.0000   1.0000
     1.0000   1.0000   1.0000   1.0000   1.0000   1.0000   1.0000   1.0000
     1.0000   1.0000   1.0000   1.0000   1.0000   1.0000   1.0000   1.0000
     1.0000   1.0000   1.0000   1.0000   1.0000   1.0000   1.0000   1.0000
     1.0000   1.0000   1.0000   1.0000   1.0000   1.0000   1.0000   1.0000
     1.0000   1.0000   1.0000   1.0000   1.0000   1.0000   1.0000   1.0000
     1.0000   1.0000   1.0000   1.0000   1.0000   1.0000   1.0000   1.0000
     1.0000   1.0000   1.0000   1.0000   1.0000   1.0000   1.0000   1.0000
     1.0000   1.0000   1.0000   1.0000   1.0000   1.0000   1.0000   1.0000
     1.0000   1.0000   1.0000   1.0000   1.0000   1.0000   1.0000   1.0000
     1.0000   1.0000   1.0000   1.0000   1.0000   1.0000   1.0000   1.0000
     1.0000   1.0000   1.0000   1.0000   1.0000   1.0000   1.0000   1.0000
     1.0000   1.0000   1.0000   1.0000   0.9704   0.9131   0.6024   0.4649
     0.1388   0.0520   0.0331   0.0013   0.0007   0.0003   0.0002   0.0002
     0.0001   0.0000   0.0000   0.0000   0.0000   0.0000   0.0000   0.0000
     0.0000   0.0000   0.0000   0.0000   0.0000   0.0000   0.0000   0.0000
     0.0000   0.0000

          k = 0.2500 0.0000 0.0000 ( 35470 PWs)   bands (ev):

   -59.2572 -59.2478 -59.0032 -58.9922 -58.8414 -58.8408 -58.8306 -58.7857
   -58.7183 -58.7072 -58.5939 -58.5760 -29.0675 -29.0132 -28.9272 -28.8669
   -28.7949 -28.7930 -28.7620 -28.7211 -28.6840 -28.6658 -28.6542 -28.6404
   -28.6196 -28.6134 -28.5872 -28.5601 -28.5312 -28.5227 -28.4922 -28.4338
   -28.4196 -28.4159 -28.3994 -28.3764 -28.3477 -28.3119 -28.2937 -28.2759
   -28.2531 -28.2312 -28.2046 -28.1761 -28.1456 -28.1168 -28.1050 -28.0895
   -17.5694 -17.2109 -16.7927 -16.6596 -16.3658 -16.3436 -16.2305 -16.1534
   -16.0153 -16.0122 -15.8539 -15.7902 -15.5640 -15.5443 -15.4185 -15.3979
   -15.3212 -15.2646 -15.1735 -15.1137 -14.6209  -5.2102  -5.0847  -4.9517
    -4.8971  -4.7962  -4.6690  -4.5735  -4.5298  -4.3607  -4.3090  -4.1973
    -4.0940  -4.0374  -4.0034  -3.9274  -3.8133  -3.7289  -3.5378  -3.3921
    -3.3456  -3.2545  -3.2106  -3.0428  -3.0278  -2.8413  -2.7754  -2.5781
    -2.5220  -2.3941  -2.3445  -2.2925  -2.2293  -2.1493  -2.0405  -1.9180
    -1.8773  -1.7860  -1.7343  -1.6338  -1.5870  -1.5608  -1.5332  -1.3918
    -1.3605  -1.2706  -1.1557  -1.1083  -0.9754  -0.8757  -0.8027  -0.6609
    -0.6118  -0.5497  -0.4386  -0.4041  -0.3465  -0.2027  -0.1642  -0.0545
    -0.0254   0.0701   0.1152   0.3119   2.9604   3.2705   4.1648   4.3295
     4.6318   4.8604   4.9085   5.1555   5.1748   5.5348   5.5837   5.7171
     5.8582   5.9132   6.0516   6.1216   6.2038   6.3037   6.3634   6.4708
     6.5332   6.6226   6.6446   6.7210   6.7705   6.8800   6.9266   7.0631
     7.1492   7.2493

     occupation numbers 
     1.0000   1.0000   1.0000   1.0000   1.0000   1.0000   1.0000   1.0000
     1.0000   1.0000   1.0000   1.0000   1.0000   1.0000   1.0000   1.0000
     1.0000   1.0000   1.0000   1.0000   1.0000   1.0000   1.0000   1.0000
     1.0000   1.0000   1.0000   1.0000   1.0000   1.0000   1.0000   1.0000
     1.0000   1.0000   1.0000   1.0000   1.0000   1.0000   1.0000   1.0000
     1.0000   1.0000   1.0000   1.0000   1.0000   1.0000   1.0000   1.0000
     1.0000   1.0000   1.0000   1.0000   1.0000   1.0000   1.0000   1.0000
     1.0000   1.0000   1.0000   1.0000   1.0000   1.0000   1.0000   1.0000
     1.0000   1.0000   1.0000   1.0000   1.0000   1.0000   1.0000   1.0000
     1.0000   1.0000   1.0000   1.0000   1.0000   1.0000   1.0000   1.0000
     1.0000   1.0000   1.0000   1.0000   1.0000   1.0000   1.0000   1.0000
     1.0000   1.0000   1.0000   1.0000   1.0000   1.0000   1.0000   1.0000
     1.0000   1.0000   1.0000   1.0000   1.0000   1.0000   1.0000   1.0000
     1.0000   1.0000   1.0000   1.0000   1.0000   1.0000   1.0000   1.0000
     1.0000   1.0000   1.0000   1.0000   1.0000   1.0000   1.0000   1.0000
     1.0000   1.0000   1.0000   1.0000   1.0000   1.0000   1.0000   1.0000
     1.0000   1.0000   1.0000   1.0000   0.9998   0.9980   0.4098   0.1714
     0.0219   0.0042   0.0029   0.0005   0.0004   0.0000   0.0000   0.0000
     0.0000   0.0000   0.0000   0.0000   0.0000   0.0000   0.0000   0.0000
     0.0000   0.0000   0.0000   0.0000   0.0000   0.0000   0.0000   0.0000
     0.0000   0.0000

          k = 0.2500 0.2600 0.0000 ( 35420 PWs)   bands (ev):

   -59.2560 -59.2489 -59.0019 -58.9934 -58.8406 -58.8402 -58.8318 -58.7858
   -58.7171 -58.7084 -58.5934 -58.5767 -29.0817 -29.0199 -28.9361 -28.8789
   -28.8168 -28.7800 -28.7524 -28.7254 -28.7052 -28.6727 -28.6440 -28.6369
   -28.6247 -28.6133 -28.5896 -28.5501 -28.5272 -28.5017 -28.4750 -28.4565
   -28.4456 -28.4232 -28.3905 -28.3712 -28.3365 -28.3259 -28.2974 -28.2716
   -28.2458 -28.2200 -28.1965 -28.1620 -28.1544 -28.1297 -28.1092 -28.0721
   -17.3869 -17.0719 -16.7502 -16.6739 -16.4154 -16.3512 -16.2422 -16.1766
   -16.0295 -16.0057 -15.9118 -15.7460 -15.6304 -15.5427 -15.4699 -15.4214
   -15.3730 -15.2859 -15.1540 -15.0832 -14.6727  -5.1878  -5.0391  -4.8031
    -4.7495  -4.6878  -4.6246  -4.4996  -4.4096  -4.3305  -4.2954  -4.1971
    -4.0891  -4.0006  -3.9496  -3.8521  -3.6386  -3.5281  -3.4096  -3.3455
    -3.3159  -3.2620  -3.1951  -3.1334  -3.0159  -2.9830  -2.8785  -2.7487
    -2.5322  -2.4591  -2.3809  -2.3125  -2.2256  -2.1603  -2.0877  -1.9006
    -1.8149  -1.7799  -1.7354  -1.6231  -1.5741  -1.4969  -1.4337  -1.3978
    -1.3183  -1.2499  -1.1479  -1.0717  -1.0257  -0.9797  -0.9370  -0.7878
    -0.6866  -0.6456  -0.5525  -0.4556  -0.4484  -0.3998  -0.2585  -0.1629
    -0.1164  -0.0083   0.1107   0.2988   3.1559   3.4892   4.0762   4.1326
     4.5967   4.7673   4.8689   5.0455   5.1685   5.2131   5.3634   5.4767
     5.5753   5.7649   5.8372   5.9041   6.0151   6.0880   6.1383   6.3657
     6.4311   6.6082   6.6996   6.7530   6.7772   6.9293   6.9971   7.1261
     7.2078   7.2485

     occupation numbers 
     1.0000   1.0000   1.0000   1.0000   1.0000   1.0000   1.0000   1.0000
     1.0000   1.0000   1.0000   1.0000   1.0000   1.0000   1.0000   1.0000
     1.0000   1.0000   1.0000   1.0000   1.0000   1.0000   1.0000   1.0000
     1.0000   1.0000   1.0000   1.0000   1.0000   1.0000   1.0000   1.0000
     1.0000   1.0000   1.0000   1.0000   1.0000   1.0000   1.0000   1.0000
     1.0000   1.0000   1.0000   1.0000   1.0000   1.0000   1.0000   1.0000
     1.0000   1.0000   1.0000   1.0000   1.0000   1.0000   1.0000   1.0000
     1.0000   1.0000   1.0000   1.0000   1.0000   1.0000   1.0000   1.0000
     1.0000   1.0000   1.0000   1.0000   1.0000   1.0000   1.0000   1.0000
     1.0000   1.0000   1.0000   1.0000   1.0000   1.0000   1.0000   1.0000
     1.0000   1.0000   1.0000   1.0000   1.0000   1.0000   1.0000   1.0000
     1.0000   1.0000   1.0000   1.0000   1.0000   1.0000   1.0000   1.0000
     1.0000   1.0000   1.0000   1.0000   1.0000   1.0000   1.0000   1.0000
     1.0000   1.0000   1.0000   1.0000   1.0000   1.0000   1.0000   1.0000
     1.0000   1.0000   1.0000   1.0000   1.0000   1.0000   1.0000   1.0000
     1.0000   1.0000   1.0000   1.0000   1.0000   1.0000   1.0000   1.0000
     1.0000   1.0000   1.0000   1.0000   0.9991   0.9901   0.5710   0.4679
     0.0282   0.0082   0.0039   0.0011   0.0004   0.0003   0.0001   0.0000
     0.0000   0.0000   0.0000   0.0000   0.0000   0.0000   0.0000   0.0000
     0.0000   0.0000   0.0000   0.0000   0.0000   0.0000   0.0000   0.0000
     0.0000   0.0000

          k = 0.2500-0.5200 0.0000 ( 35366 PWs)   bands (ev):

   -59.2542 -59.2506 -59.0002 -58.9951 -58.8405 -58.8384 -58.8335 -58.7859
   -58.7155 -58.7100 -58.5929 -58.5774 -29.0880 -29.0307 -28.9366 -28.9184
   -28.7936 -28.7897 -28.7552 -28.7450 -28.6950 -28.6775 -28.6582 -28.6513
   -28.6184 -28.6054 -28.6003 -28.5731 -28.5295 -28.5177 -28.4937 -28.4626
   -28.4272 -28.3933 -28.3801 -28.3612 -28.3454 -28.3057 -28.2833 -28.2540
   -28.2453 -28.2184 -28.1921 -28.1542 -28.1384 -28.1195 -28.1076 -28.0950
   -17.1448 -16.8761 -16.7215 -16.6819 -16.4645 -16.3949 -16.3191 -16.2626
   -16.1279 -16.0473 -16.0004 -15.7416 -15.6912 -15.5518 -15.4401 -15.4035
   -15.3155 -15.2736 -15.1778 -15.1264 -14.5930  -5.0577  -5.0248  -4.8192
    -4.6119  -4.5783  -4.4859  -4.3434  -4.3184  -4.2142  -4.1728  -4.0921
    -4.0386  -3.9403  -3.8744  -3.7908  -3.7436  -3.6402  -3.5674  -3.4286
    -3.3490  -3.3114  -3.0099  -2.9660  -2.9030  -2.7984  -2.7339  -2.6655
    -2.6102  -2.4647  -2.4119  -2.3572  -2.2875  -2.2666  -2.2151  -2.0492
    -1.9509  -1.8988  -1.8618  -1.7281  -1.5922  -1.5026  -1.3998  -1.3858
    -1.3347  -1.2420  -1.1951  -1.1314  -1.0348  -0.9907  -0.8899  -0.8499
    -0.7457  -0.7194  -0.6042  -0.5631  -0.4932  -0.4381  -0.2977  -0.2304
    -0.2191  -0.0702   0.1009   0.2804   3.6718   3.7233   4.0420   4.1222
     4.4541   4.4808   4.6627   4.9775   5.0216   5.0959   5.1594   5.2987
     5.3798   5.4488   5.5986   5.6941   5.7694   5.9865   6.1105   6.1769
     6.3740   6.4853   6.6723   6.7090   6.8682   6.9543   7.0322   7.1863
     7.2294   7.2783

     occupation numbers 
     1.0000   1.0000   1.0000   1.0000   1.0000   1.0000   1.0000   1.0000
     1.0000   1.0000   1.0000   1.0000   1.0000   1.0000   1.0000   1.0000
     1.0000   1.0000   1.0000   1.0000   1.0000   1.0000   1.0000   1.0000
     1.0000   1.0000   1.0000   1.0000   1.0000   1.0000   1.0000   1.0000
     1.0000   1.0000   1.0000   1.0000   1.0000   1.0000   1.0000   1.0000
     1.0000   1.0000   1.0000   1.0000   1.0000   1.0000   1.0000   1.0000
     1.0000   1.0000   1.0000   1.0000   1.0000   1.0000   1.0000   1.0000
     1.0000   1.0000   1.0000   1.0000   1.0000   1.0000   1.0000   1.0000
     1.0000   1.0000   1.0000   1.0000   1.0000   1.0000   1.0000   1.0000
     1.0000   1.0000   1.0000   1.0000   1.0000   1.0000   1.0000   1.0000
     1.0000   1.0000   1.0000   1.0000   1.0000   1.0000   1.0000   1.0000
     1.0000   1.0000   1.0000   1.0000   1.0000   1.0000   1.0000   1.0000
     1.0000   1.0000   1.0000   1.0000   1.0000   1.0000   1.0000   1.0000
     1.0000   1.0000   1.0000   1.0000   1.0000   1.0000   1.0000   1.0000
     1.0000   1.0000   1.0000   1.0000   1.0000   1.0000   1.0000   1.0000
     1.0000   1.0000   1.0000   1.0000   1.0000   1.0000   1.0000   1.0000
     1.0000   1.0000   1.0000   1.0000   0.9630   0.9468   0.6313   0.4869
     0.0764   0.0637   0.0176   0.0018   0.0013   0.0007   0.0005   0.0002
     0.0001   0.0001   0.0000   0.0000   0.0000   0.0000   0.0000   0.0000
     0.0000   0.0000   0.0000   0.0000   0.0000   0.0000   0.0000   0.0000
     0.0000   0.0000

          k = 0.2500-0.2600 0.0000 ( 35420 PWs)   bands (ev):

   -59.2560 -59.2489 -59.0019 -58.9934 -58.8407 -58.8402 -58.8318 -58.7857
   -58.7171 -58.7084 -58.5934 -58.5766 -29.0818 -29.0199 -28.9361 -28.8790
   -28.8168 -28.7801 -28.7525 -28.7265 -28.7054 -28.6745 -28.6584 -28.6408
   -28.6337 -28.6194 -28.5899 -28.5668 -28.5396 -28.5013 -28.4801 -28.4625
   -28.4309 -28.4143 -28.3851 -28.3489 -28.3349 -28.3162 -28.3007 -28.2600
   -28.2300 -28.2206 -28.2002 -28.1656 -28.1459 -28.1409 -28.0989 -28.0758
   -17.3874 -17.0843 -16.7739 -16.6746 -16.4278 -16.3599 -16.2562 -16.1993
   -16.0512 -16.0227 -15.9121 -15.7469 -15.6305 -15.5412 -15.4389 -15.4123
   -15.3244 -15.2908 -15.1763 -15.1217 -14.5464  -5.1861  -5.0377  -4.7933
    -4.7492  -4.6987  -4.6321  -4.4834  -4.4052  -4.3452  -4.2891  -4.1928
    -4.1051  -3.9957  -3.9422  -3.8473  -3.6267  -3.5146  -3.3870  -3.3440
    -3.3217  -3.2492  -3.1829  -3.1421  -3.0238  -2.9530  -2.8475  -2.7481
    -2.5586  -2.5160  -2.3959  -2.3256  -2.1832  -2.1352  -2.0644  -1.9689
    -1.8994  -1.7922  -1.7683  -1.6603  -1.5990  -1.5238  -1.4552  -1.4197
    -1.2902  -1.2606  -1.1905  -1.1134  -1.0209  -0.9870  -0.8368  -0.7790
    -0.6581  -0.5978  -0.4987  -0.4526  -0.4291  -0.3980  -0.2958  -0.1604
    -0.1229   0.0040   0.1270   0.2792   3.3622   3.4895   4.0765   4.3215
     4.4655   4.5970   4.8683   5.1626   5.2091   5.2833   5.4711   5.5535
     5.6762   5.8005   5.8596   5.9284   5.9789   6.0277   6.1888   6.2409
     6.3720   6.4798   6.6264   6.7245   6.7688   6.8959   7.0215   7.0746
     7.1534   7.2125

     occupation numbers 
     1.0000   1.0000   1.0000   1.0000   1.0000   1.0000   1.0000   1.0000
     1.0000   1.0000   1.0000   1.0000   1.0000   1.0000   1.0000   1.0000
     1.0000   1.0000   1.0000   1.0000   1.0000   1.0000   1.0000   1.0000
     1.0000   1.0000   1.0000   1.0000   1.0000   1.0000   1.0000   1.0000
     1.0000   1.0000   1.0000   1.0000   1.0000   1.0000   1.0000   1.0000
     1.0000   1.0000   1.0000   1.0000   1.0000   1.0000   1.0000   1.0000
     1.0000   1.0000   1.0000   1.0000   1.0000   1.0000   1.0000   1.0000
     1.0000   1.0000   1.0000   1.0000   1.0000   1.0000   1.0000   1.0000
     1.0000   1.0000   1.0000   1.0000   1.0000   1.0000   1.0000   1.0000
     1.0000   1.0000   1.0000   1.0000   1.0000   1.0000   1.0000   1.0000
     1.0000   1.0000   1.0000   1.0000   1.0000   1.0000   1.0000   1.0000
     1.0000   1.0000   1.0000   1.0000   1.0000   1.0000   1.0000   1.0000
     1.0000   1.0000   1.0000   1.0000   1.0000   1.0000   1.0000   1.0000
     1.0000   1.0000   1.0000   1.0000   1.0000   1.0000   1.0000   1.0000
     1.0000   1.0000   1.0000   1.0000   1.0000   1.0000   1.0000   1.0000
     1.0000   1.0000   1.0000   1.0000   1.0000   1.0000   1.0000   1.0000
     1.0000   1.0000   1.0000   1.0000   0.9961   0.9900   0.5705   0.1799
     0.0708   0.0281   0.0039   0.0005   0.0003   0.0002   0.0000   0.0000
     0.0000   0.0000   0.0000   0.0000   0.0000   0.0000   0.0000   0.0000
     0.0000   0.0000   0.0000   0.0000   0.0000   0.0000   0.0000   0.0000
     0.0000   0.0000

          k =-0.5000 0.0000 0.0000 ( 35502 PWs)   bands (ev):

   -59.2525 -59.2524 -58.9983 -58.9971 -58.8404 -58.8361 -58.8358 -58.7860
   -58.7141 -58.7114 -58.5924 -58.5776 -29.0006 -29.0003 -28.8742 -28.8740
   -28.7861 -28.7858 -28.7187 -28.7185 -28.6875 -28.6874 -28.6530 -28.6529
   -28.5973 -28.5814 -28.5790 -28.5712 -28.5432 -28.5427 -28.4882 -28.4867
   -28.4262 -28.4228 -28.4053 -28.3975 -28.3675 -28.3474 -28.2894 -28.2826
   -28.2733 -28.2294 -28.1947 -28.1901 -28.1628 -28.1288 -28.1266 -28.0970
   -16.9642 -16.9632 -16.6880 -16.6811 -16.5021 -16.4810 -16.2613 -16.2430
   -15.9967 -15.9842 -15.7993 -15.7987 -15.5880 -15.5876 -15.4635 -15.4613
   -15.4097 -15.3582 -15.3116 -15.2532 -14.6817  -4.8460  -4.8452  -4.5945
    -4.5934  -4.4220  -4.4111  -4.2952  -4.2858  -4.1974  -4.1875  -4.0531
    -3.9906  -3.8802  -3.8747  -3.7936  -3.7869  -3.6790  -3.6566  -3.5461
    -3.5317  -3.4251  -3.4142  -3.3179  -3.3015  -3.1860  -3.1418  -2.7493
    -2.6872  -2.5505  -2.4821  -2.3765  -2.3216  -2.1977  -2.1614  -2.0792
    -1.9679  -1.8395  -1.7664  -1.6677  -1.6180  -1.5366  -1.3707  -1.3444
    -1.2878  -1.2511  -1.1437  -1.0835  -1.0429  -0.9304  -0.7854  -0.7192
    -0.7104  -0.6274  -0.5620  -0.4539  -0.4133  -0.4070  -0.3971  -0.2333
    -0.2063  -0.1190  -0.0890   0.2249   3.3801   3.9787   3.9882   3.9891
     4.6255   5.0168   5.0174   5.0836   5.1813   5.1817   5.4191   5.8496
     5.8503   5.9179   5.9218   6.0359   6.1391   6.1840   6.3122   6.3959
     6.4818   6.6031   6.6707   6.7656   6.8174   7.0069   7.0240   7.0716
     7.0847   7.1194

     occupation numbers 
     1.0000   1.0000   1.0000   1.0000   1.0000   1.0000   1.0000   1.0000
     1.0000   1.0000   1.0000   1.0000   1.0000   1.0000   1.0000   1.0000
     1.0000   1.0000   1.0000   1.0000   1.0000   1.0000   1.0000   1.0000
     1.0000   1.0000   1.0000   1.0000   1.0000   1.0000   1.0000   1.0000
     1.0000   1.0000   1.0000   1.0000   1.0000   1.0000   1.0000   1.0000
     1.0000   1.0000   1.0000   1.0000   1.0000   1.0000   1.0000   1.0000
     1.0000   1.0000   1.0000   1.0000   1.0000   1.0000   1.0000   1.0000
     1.0000   1.0000   1.0000   1.0000   1.0000   1.0000   1.0000   1.0000
     1.0000   1.0000   1.0000   1.0000   1.0000   1.0000   1.0000   1.0000
     1.0000   1.0000   1.0000   1.0000   1.0000   1.0000   1.0000   1.0000
     1.0000   1.0000   1.0000   1.0000   1.0000   1.0000   1.0000   1.0000
     1.0000   1.0000   1.0000   1.0000   1.0000   1.0000   1.0000   1.0000
     1.0000   1.0000   1.0000   1.0000   1.0000   1.0000   1.0000   1.0000
     1.0000   1.0000   1.0000   1.0000   1.0000   1.0000   1.0000   1.0000
     1.0000   1.0000   1.0000   1.0000   1.0000   1.0000   1.0000   1.0000
     1.0000   1.0000   1.0000   1.0000   1.0000   1.0000   1.0000   1.0000
     1.0000   1.0000   1.0000   1.0000   0.9955   0.7316   0.7176   0.7163
     0.0229   0.0013   0.0013   0.0008   0.0004   0.0004   0.0001   0.0000
     0.0000   0.0000   0.0000   0.0000   0.0000   0.0000   0.0000   0.0000
     0.0000   0.0000   0.0000   0.0000   0.0000   0.0000   0.0000   0.0000
     0.0000   0.0000

          k =-0.5000 0.2600 0.0000 ( 35450 PWs)   bands (ev):

   -59.2525 -59.2524 -58.9983 -58.9970 -58.8404 -58.8361 -58.8358 -58.7860
   -58.7141 -58.7114 -58.5925 -58.5777 -29.0556 -29.0553 -28.9246 -28.9246
   -28.7963 -28.7961 -28.7458 -28.7455 -28.6807 -28.6793 -28.6531 -28.6507
   -28.6209 -28.6059 -28.5914 -28.5823 -28.5278 -28.5243 -28.4967 -28.4731
   -28.4295 -28.3918 -28.3763 -28.3639 -28.3414 -28.3140 -28.2640 -28.2505
   -28.2451 -28.2242 -28.1977 -28.1571 -28.1406 -28.1179 -28.1092 -28.0957
   -16.9700 -16.9692 -16.7094 -16.7055 -16.5661 -16.5463 -16.3518 -16.3389
   -16.0581 -16.0466 -15.8268 -15.8255 -15.5623 -15.5581 -15.4266 -15.4065
   -15.3105 -15.2768 -15.2082 -15.1584 -14.5972  -4.8967  -4.8937  -4.5848
    -4.5748  -4.3847  -4.3634  -4.2633  -4.2585  -4.1268  -4.1153  -3.9950
    -3.9426  -3.8665  -3.8483  -3.7527  -3.7374  -3.6637  -3.6376  -3.4781
    -3.4523  -3.2546  -3.2378  -3.1527  -3.1325  -2.9267  -2.9065  -2.7178
    -2.6859  -2.5621  -2.5340  -2.3378  -2.2738  -2.2322  -2.1986  -2.0295
    -1.9924  -1.9767  -1.8927  -1.7646  -1.6851  -1.6028  -1.5512  -1.4208
    -1.3674  -1.2827  -1.2360  -1.1781  -1.0731  -1.0250  -0.9039  -0.8744
    -0.7299  -0.6419  -0.5891  -0.5433  -0.4993  -0.4141  -0.3946  -0.2947
    -0.2471  -0.1022  -0.0493   0.1776   3.5424   3.9064   3.9071   4.0923
     4.4371   4.7975   4.7982   4.9940   4.9955   5.2083   5.5010   5.5165
     5.5617   5.7485   5.7888   5.9478   6.0112   6.1159   6.1795   6.2460
     6.2933   6.4472   6.5247   6.5995   6.7244   6.7982   6.9651   7.0299
     7.0814   7.1641

     occupation numbers 
     1.0000   1.0000   1.0000   1.0000   1.0000   1.0000   1.0000   1.0000
     1.0000   1.0000   1.0000   1.0000   1.0000   1.0000   1.0000   1.0000
     1.0000   1.0000   1.0000   1.0000   1.0000   1.0000   1.0000   1.0000
     1.0000   1.0000   1.0000   1.0000   1.0000   1.0000   1.0000   1.0000
     1.0000   1.0000   1.0000   1.0000   1.0000   1.0000   1.0000   1.0000
     1.0000   1.0000   1.0000   1.0000   1.0000   1.0000   1.0000   1.0000
     1.0000   1.0000   1.0000   1.0000   1.0000   1.0000   1.0000   1.0000
     1.0000   1.0000   1.0000   1.0000   1.0000   1.0000   1.0000   1.0000
     1.0000   1.0000   1.0000   1.0000   1.0000   1.0000   1.0000   1.0000
     1.0000   1.0000   1.0000   1.0000   1.0000   1.0000   1.0000   1.0000
     1.0000   1.0000   1.0000   1.0000   1.0000   1.0000   1.0000   1.0000
     1.0000   1.0000   1.0000   1.0000   1.0000   1.0000   1.0000   1.0000
     1.0000   1.0000   1.0000   1.0000   1.0000   1.0000   1.0000   1.0000
     1.0000   1.0000   1.0000   1.0000   1.0000   1.0000   1.0000   1.0000
     1.0000   1.0000   1.0000   1.0000   1.0000   1.0000   1.0000   1.0000
     1.0000   1.0000   1.0000   1.0000   1.0000   1.0000   1.0000   1.0000
     1.0000   1.0000   1.0000   1.0000   0.9854   0.8226   0.8219   0.5418
     0.0857   0.0066   0.0066   0.0016   0.0015   0.0003   0.0000   0.0000
     0.0000   0.0000   0.0000   0.0000   0.0000   0.0000   0.0000   0.0000
     0.0000   0.0000   0.0000   0.0000   0.0000   0.0000   0.0000   0.0000
     0.0000   0.0000

          k =-0.5000-0.5200 0.0000 ( 35320 PWs)   bands (ev):

   -59.2524 -59.2523 -58.9982 -58.9970 -58.8404 -58.8361 -58.8357 -58.7859
   -58.7140 -58.7114 -58.5926 -58.5777 -29.0952 -29.0949 -28.9713 -28.9712
   -28.8292 -28.8288 -28.7461 -28.7449 -28.6959 -28.6947 -28.6685 -28.6569
   -28.6399 -28.6276 -28.5809 -28.5637 -28.5226 -28.4921 -28.4893 -28.4736
   -28.4187 -28.3839 -28.3402 -28.3318 -28.3300 -28.3083 -28.2363 -28.2255
   -28.2099 -28.2077 -28.1968 -28.1582 -28.1233 -28.1122 -28.0813 -28.0769
   -16.9807 -16.9801 -16.7318 -16.7306 -16.6047 -16.5946 -16.4387 -16.4224
   -16.1237 -16.0962 -15.8576 -15.8545 -15.5282 -15.5254 -15.3659 -15.3529
   -15.2103 -15.2049 -15.1464 -15.0879 -14.5232  -4.7669  -4.7638  -4.5290
    -4.5273  -4.3890  -4.3721  -4.2271  -4.2078  -4.1111  -4.0867  -4.0120
    -4.0072  -3.8976  -3.8700  -3.8433  -3.8264  -3.6504  -3.6008  -3.2616
    -3.2129  -3.0913  -3.0479  -3.0374  -2.9272  -2.7911  -2.7889  -2.7580
    -2.7220  -2.5791  -2.5675  -2.4059  -2.3663  -2.1473  -2.0823  -1.9938
    -1.9548  -1.9162  -1.8921  -1.8235  -1.8063  -1.7278  -1.6465  -1.5051
    -1.3147  -1.2957  -1.2402  -1.2060  -1.1412  -1.0776  -0.9772  -0.8644
    -0.7826  -0.7653  -0.7218  -0.6442  -0.5064  -0.4966  -0.4545  -0.3815
    -0.3016  -0.1574  -0.1453   0.1155   3.7857   3.7933   3.7946   3.9919
     4.4790   4.4793   4.6141   5.0707   5.0805   5.1368   5.2297   5.2423
     5.4223   5.4795   5.5085   5.7647   5.8615   5.9619   6.0865   6.0916
     6.2019   6.3356   6.4828   6.5650   6.6724   6.8179   6.8951   7.0661
     7.1230   7.2806

     occupation numbers 
     1.0000   1.0000   1.0000   1.0000   1.0000   1.0000   1.0000   1.0000
     1.0000   1.0000   1.0000   1.0000   1.0000   1.0000   1.0000   1.0000
     1.0000   1.0000   1.0000   1.0000   1.0000   1.0000   1.0000   1.0000
     1.0000   1.0000   1.0000   1.0000   1.0000   1.0000   1.0000   1.0000
     1.0000   1.0000   1.0000   1.0000   1.0000   1.0000   1.0000   1.0000
     1.0000   1.0000   1.0000   1.0000   1.0000   1.0000   1.0000   1.0000
     1.0000   1.0000   1.0000   1.0000   1.0000   1.0000   1.0000   1.0000
     1.0000   1.0000   1.0000   1.0000   1.0000   1.0000   1.0000   1.0000
     1.0000   1.0000   1.0000   1.0000   1.0000   1.0000   1.0000   1.0000
     1.0000   1.0000   1.0000   1.0000   1.0000   1.0000   1.0000   1.0000
     1.0000   1.0000   1.0000   1.0000   1.0000   1.0000   1.0000   1.0000
     1.0000   1.0000   1.0000   1.0000   1.0000   1.0000   1.0000   1.0000
     1.0000   1.0000   1.0000   1.0000   1.0000   1.0000   1.0000   1.0000
     1.0000   1.0000   1.0000   1.0000   1.0000   1.0000   1.0000   1.0000
     1.0000   1.0000   1.0000   1.0000   1.0000   1.0000   1.0000   1.0000
     1.0000   1.0000   1.0000   1.0000   1.0000   1.0000   1.0000   1.0000
     1.0000   1.0000   1.0000   1.0000   0.9184   0.9141   0.9134   0.7121
     0.0645   0.0643   0.0249   0.0009   0.0008   0.0005   0.0003   0.0003
     0.0001   0.0000   0.0000   0.0000   0.0000   0.0000   0.0000   0.0000
     0.0000   0.0000   0.0000   0.0000   0.0000   0.0000   0.0000   0.0000
     0.0000   0.0000

     the Fermi energy is     4.1151 ev

!    total energy              =   -1853.44038310 Ry
     estimated scf accuracy    <          7.0E-10 Ry
     smearing contrib. (-TS)   =      -0.03688844 Ry
     internal energy E=F+TS    =   -1853.40349465 Ry

     The total energy is F=E-TS. E is the sum of the following terms:
     one-electron contribution =  -41390.88602182 Ry
     hartree contribution      =   20722.63860462 Ry
     xc contribution           =    -289.34828723 Ry
     ewald contribution        =   19104.19268173 Ry
     electric field correction =      -0.00047195 Ry

     convergence has been achieved in   9 iterations

     Forces acting on atoms (cartesian axes, Ry/au):

     atom    1 type  1   force =     0.01547978   -0.01587379    0.07318325
     atom    2 type  1   force =     0.00024676   -0.00185350    0.00984237
     atom    3 type  1   force =     0.00526689   -0.00478484    0.00781644
     atom    4 type  1   force =     0.01554163    0.01583952    0.07317624
     atom    5 type  1   force =     0.00060960    0.00169999    0.00981565
     atom    6 type  1   force =    -0.00208232    0.01325764    0.01541240
     atom    7 type  1   force =    -0.00385174    0.00872610    0.01280599
     atom    8 type  1   force =    -0.00027853    0.00102587    0.00870062
     atom    9 type  1   force =     0.02865689    0.05667972   -0.03402726
     atom   10 type  1   force =    -0.00361100   -0.00884040    0.01277302
     atom   11 type  1   force =     0.00012980   -0.00113243    0.01010665
     atom   12 type  1   force =    -0.05999010   -0.03671429   -0.02674352
     atom   13 type  2   force =    -0.01630777    0.02018918   -0.02493404
     atom   14 type  2   force =    -0.00071656    0.00135318   -0.00414856
     atom   15 type  2   force =     0.01117700   -0.01477699    0.00829724
     atom   16 type  2   force =    -0.01620355   -0.02015148   -0.02513050
     atom   17 type  2   force =    -0.00051133   -0.00120493   -0.00417493
     atom   18 type  2   force =     0.01181891    0.01284122   -0.01512345
     atom   19 type  2   force =     0.00399837   -0.00230757   -0.06018221
     atom   20 type  2   force =     0.00059086   -0.00004603   -0.00487108
     atom   21 type  2   force =    -0.00450952   -0.01182955    0.02425383
     atom   22 type  2   force =     0.00081992    0.00309159   -0.00212698
     atom   23 type  2   force =     0.00149742    0.00109247   -0.00460945
     atom   24 type  2   force =     0.00075411   -0.00305279   -0.00186865
     atom   25 type  2   force =     0.00022429   -0.00076539   -0.00432859
     atom   26 type  2   force =     0.00000233   -0.00000282    0.00000739
     atom   27 type  2   force =     0.00400113    0.00227973   -0.06017107
     atom   28 type  2   force =    -0.00069329   -0.00005310   -0.00728849
     atom   29 type  2   force =     0.00057274    0.00002245   -0.00481474
     atom   30 type  2   force =    -0.00077796   -0.00001355   -0.00177633
     atom   31 type  2   force =     0.01089480   -0.01592736    0.02975252
     atom   32 type  2   force =    -0.00069434    0.00022585   -0.00716702
     atom   33 type  2   force =    -0.00205520    0.00100632   -0.00245674
     The non-local contrib.  to forces
     atom    1 type  1   force =    -0.01955342    0.01743415   -0.07740803
     atom    2 type  1   force =    -0.03042521    0.06476753    0.03265435
     atom    3 type  1   force =    -0.03388590    0.06838155    0.04104842
     atom    4 type  1   force =    -0.01941143   -0.01735595   -0.07746323
     atom    5 type  1   force =    -0.03077427   -0.06479554    0.03263161
     atom    6 type  1   force =    -0.03048629   -0.07163042    0.03201957
     atom    7 type  1   force =     0.03184830   -0.07181450    0.01796066
     atom    8 type  1   force =     0.03044894   -0.06394394    0.03343405
     atom    9 type  1   force =     0.01392252   -0.12164501    0.18072520
     atom   10 type  1   force =     0.03194368    0.07181274    0.01798276
     atom   11 type  1   force =     0.03049250    0.06421162    0.03359029
     atom   12 type  1   force =     0.10618647    0.00658447    0.19670043
     atom   13 type  2   force =    -0.08632746    0.07685470    0.03790267
     atom   14 type  2   force =    -0.05376407    0.04733522    0.03193235
     atom   15 type  2   force =    -0.04207777    0.02478279    0.03001098
     atom   16 type  2   force =    -0.08571454   -0.07635538    0.03746964
     atom   17 type  2   force =    -0.05305548   -0.04667396    0.03184250
     atom   18 type  2   force =    -0.03372761   -0.01825582    0.00766502
     atom   19 type  2   force =    -0.04576250   -0.15011477   -0.04242328
     atom   20 type  2   force =    -0.05225708   -0.14667582    0.00588578
     atom   21 type  2   force =    -0.06509869   -0.16928458    0.03734158
     atom   22 type  2   force =     0.05485829    0.04896711    0.03688944
     atom   23 type  2   force =     0.05465677    0.04676134    0.03092362
     atom   24 type  2   force =     0.05499834   -0.04925030    0.03682703
     atom   25 type  2   force =     0.05264530   -0.04644286    0.03043594
     atom   26 type  2   force =     0.14860697   -0.17646310   -0.32751515
     atom   27 type  2   force =    -0.04569844    0.15006838   -0.04242123
     atom   28 type  2   force =     0.05237840    0.14634623    0.00007764
     atom   29 type  2   force =    -0.05242416    0.14652027    0.00602158
     atom   30 type  2   force =     0.05287150    0.14659775    0.01048532
     atom   31 type  2   force =    -0.03258865    0.13053772    0.03208523
     atom   32 type  2   force =     0.05238588   -0.14652991    0.00019664
     atom   33 type  2   force =     0.04980486   -0.14491982    0.00986942
     The ionic contribution  to forces
     atom    1 type  1   force =    -1.52878987    1.02840422 -240.46584529
     atom    2 type  1   force =    -1.80760273   -2.70611852  -48.28748167
     atom    3 type  1   force =    -2.11415369   -2.51963223  146.42562179
     atom    4 type  1   force =    -1.52591235   -1.02735550 -240.46628256
     atom    5 type  1   force =    -1.80318415    2.70465308  -48.28621775
     atom    6 type  1   force =    -1.48193826    2.77075166  147.50989615
     atom    7 type  1   force =     1.80518425    2.50026673 -145.90527594
     atom    8 type  1   force =     1.77584698    2.71356779   49.28991357
     atom    9 type  1   force =    -3.90926479   -1.33902193  236.76371154
     atom   10 type  1   force =     1.81769331   -2.50024319 -145.90303990
     atom   11 type  1   force =     1.83190794   -2.71298782   49.29796725
     atom   12 type  1   force =     6.37475062   -0.60669597  236.91598317
     atom   13 type  2   force =     0.85452834    0.36071836 -108.77658704
     atom   14 type  2   force =     0.86482682    0.79728666  -12.11668725
     atom   15 type  2   force =     0.09612203    0.62809318   85.56089228
     atom   16 type  2   force =     0.85580327   -0.36221569 -108.76043221
     atom   17 type  2   force =     0.86815865   -0.79904841  -12.10004175
     atom   18 type  2   force =     1.56621112   -0.97494707   85.12565482
     atom   19 type  2   force =     0.37643208    2.31165833  -98.26556612
     atom   20 type  2   force =     0.36454131    2.42153315   -0.02556392
     atom   21 type  2   force =     0.77009328    2.56795555   97.59306304
     atom   22 type  2   force =    -0.86356421    0.78164488  -60.85312905
     atom   23 type  2   force =    -0.86129926    0.79215405   36.72113114
     atom   24 type  2   force =    -0.86708634   -0.77986909  -60.85639621
     atom   25 type  2   force =    -0.87040390   -0.80387067   36.64889148
     atom   26 type  2   force =    -1.94022194    1.49434205  123.46564159
     atom   27 type  2   force =     0.37578428   -2.31348488  -98.26720379
     atom   28 type  2   force =    -0.36310787   -2.41323484  -48.84141728
     atom   29 type  2   force =     0.36115398   -2.42144194   -0.02314896
     atom   30 type  2   force =    -0.39465789   -2.39983293   48.80376820
     atom   31 type  2   force =     0.06364318   -2.04323328   98.17396558
     atom   32 type  2   force =    -0.36232199    2.41551771  -48.84142091
     atom   33 type  2   force =    -0.32917220    2.43468656   48.74563599
     The local contribution  to forces
     atom    1 type  1   force =     1.56382332   -1.06171290  240.61643367
     atom    2 type  1   force =     1.83827448    2.63949651   48.26461300
     atom    3 type  1   force =     2.15330794    2.44646291 -146.45883922
     atom    4 type  1   force =     1.56086564    1.06054966  240.61691911
     atom    5 type  1   force =     1.83456782   -2.63815861   48.26334515
     atom    6 type  1   force =     1.51034085   -2.68586159 -147.52648899
     atom    7 type  1   force =    -1.84088462   -2.41972695  145.90010402
     atom    8 type  1   force =    -1.80657451   -2.64859841  -49.31467308
     atom    9 type  1   force =     3.92399277    1.51733640 -236.97848132
     atom   10 type  1   force =    -1.85324827    2.41958888  145.89781301
     atom   11 type  1   force =    -1.86227108    2.64764225  -49.32147724
     atom   12 type  1   force =    -6.54091396    0.56339786 -237.13944506
     atom   13 type  2   force =    -0.78450805   -0.41738597  108.71375596
     atom   14 type  2   force =    -0.81177990   -0.84326928   12.08057371
     atom   15 type  2   force =    -0.04286856   -0.66765429  -85.58259648
     atom   16 type  2   force =    -0.78629170    0.41841956  108.69783779
     atom   17 type  2   force =    -0.81561489    0.84451581   12.06399165
     atom   18 type  2   force =    -1.52066419    1.00604261  -85.14843461
     atom   19 type  2   force =    -0.32667198   -2.16385183   98.24781207
     atom   20 type  2   force =    -0.31169337   -2.27490409    0.01477747
     atom   21 type  2   force =    -0.70950485   -2.41050068  -97.60614606
     atom   22 type  2   force =     0.80952574   -0.82752115   60.81409651
     atom   23 type  2   force =     0.80813926   -0.83782422  -36.75666431
     atom   24 type  2   force =     0.81284210    0.82606548   60.81768455
     atom   25 type  2   force =     0.81798228    0.84954698  -36.68365639
     atom   26 type  2   force =     1.79161521   -1.31788090 -123.13813068
     atom   27 type  2   force =    -0.32608537    2.16569502   98.24945891
     atom   28 type  2   force =     0.31003602    2.26683480   48.83402709
     atom   29 type  2   force =    -0.30815727    2.27494298    0.01228269
     atom   30 type  2   force =     0.34100831    2.25322065  -48.81602199
     atom   31 type  2   force =    -0.02016073    1.89676644  -98.17629074
     atom   32 type  2   force =     0.30924163   -2.26876338   48.83403339
     atom   33 type  2   force =     0.27731196   -2.28876057  -48.75795312
     The core correction contribution to forces
     atom    1 type  1   force =     0.00000000    0.00000000    0.00000000
     atom    2 type  1   force =     0.00000000    0.00000000    0.00000000
     atom    3 type  1   force =     0.00000000    0.00000000    0.00000000
     atom    4 type  1   force =     0.00000000    0.00000000    0.00000000
     atom    5 type  1   force =     0.00000000    0.00000000    0.00000000
     atom    6 type  1   force =     0.00000000    0.00000000    0.00000000
     atom    7 type  1   force =     0.00000000    0.00000000    0.00000000
     atom    8 type  1   force =     0.00000000    0.00000000    0.00000000
     atom    9 type  1   force =     0.00000000    0.00000000    0.00000000
     atom   10 type  1   force =     0.00000000    0.00000000    0.00000000
     atom   11 type  1   force =     0.00000000    0.00000000    0.00000000
     atom   12 type  1   force =     0.00000000    0.00000000    0.00000000
     atom   13 type  2   force =     0.00000000    0.00000000    0.00000000
     atom   14 type  2   force =     0.00000000    0.00000000    0.00000000
     atom   15 type  2   force =     0.00000000    0.00000000    0.00000000
     atom   16 type  2   force =     0.00000000    0.00000000    0.00000000
     atom   17 type  2   force =     0.00000000    0.00000000    0.00000000
     atom   18 type  2   force =     0.00000000    0.00000000    0.00000000
     atom   19 type  2   force =     0.00000000    0.00000000    0.00000000
     atom   20 type  2   force =     0.00000000    0.00000000    0.00000000
     atom   21 type  2   force =     0.00000000    0.00000000    0.00000000
     atom   22 type  2   force =     0.00000000    0.00000000    0.00000000
     atom   23 type  2   force =     0.00000000    0.00000000    0.00000000
     atom   24 type  2   force =     0.00000000    0.00000000    0.00000000
     atom   25 type  2   force =     0.00000000    0.00000000    0.00000000
     atom   26 type  2   force =     0.00000000    0.00000000    0.00000000
     atom   27 type  2   force =     0.00000000    0.00000000    0.00000000
     atom   28 type  2   force =     0.00000000    0.00000000    0.00000000
     atom   29 type  2   force =     0.00000000    0.00000000    0.00000000
     atom   30 type  2   force =     0.00000000    0.00000000    0.00000000
     atom   31 type  2   force =     0.00000000    0.00000000    0.00000000
     atom   32 type  2   force =     0.00000000    0.00000000    0.00000000
     atom   33 type  2   force =     0.00000000    0.00000000    0.00000000
     The Hubbard contrib.    to forces
     atom    1 type  1   force =     0.00000000    0.00000000    0.00000000
     atom    2 type  1   force =     0.00000000    0.00000000    0.00000000
     atom    3 type  1   force =     0.00000000    0.00000000    0.00000000
     atom    4 type  1   force =     0.00000000    0.00000000    0.00000000
     atom    5 type  1   force =     0.00000000    0.00000000    0.00000000
     atom    6 type  1   force =     0.00000000    0.00000000    0.00000000
     atom    7 type  1   force =     0.00000000    0.00000000    0.00000000
     atom    8 type  1   force =     0.00000000    0.00000000    0.00000000
     atom    9 type  1   force =     0.00000000    0.00000000    0.00000000
     atom   10 type  1   force =     0.00000000    0.00000000    0.00000000
     atom   11 type  1   force =     0.00000000    0.00000000    0.00000000
     atom   12 type  1   force =     0.00000000    0.00000000    0.00000000
     atom   13 type  2   force =     0.00000000    0.00000000    0.00000000
     atom   14 type  2   force =     0.00000000    0.00000000    0.00000000
     atom   15 type  2   force =     0.00000000    0.00000000    0.00000000
     atom   16 type  2   force =     0.00000000    0.00000000    0.00000000
     atom   17 type  2   force =     0.00000000    0.00000000    0.00000000
     atom   18 type  2   force =     0.00000000    0.00000000    0.00000000
     atom   19 type  2   force =     0.00000000    0.00000000    0.00000000
     atom   20 type  2   force =     0.00000000    0.00000000    0.00000000
     atom   21 type  2   force =     0.00000000    0.00000000    0.00000000
     atom   22 type  2   force =     0.00000000    0.00000000    0.00000000
     atom   23 type  2   force =     0.00000000    0.00000000    0.00000000
     atom   24 type  2   force =     0.00000000    0.00000000    0.00000000
     atom   25 type  2   force =     0.00000000    0.00000000    0.00000000
     atom   26 type  2   force =     0.00000000    0.00000000    0.00000000
     atom   27 type  2   force =     0.00000000    0.00000000    0.00000000
     atom   28 type  2   force =     0.00000000    0.00000000    0.00000000
     atom   29 type  2   force =     0.00000000    0.00000000    0.00000000
     atom   30 type  2   force =     0.00000000    0.00000000    0.00000000
     atom   31 type  2   force =     0.00000000    0.00000000    0.00000000
     atom   32 type  2   force =     0.00000000    0.00000000    0.00000000
     atom   33 type  2   force =     0.00000000    0.00000000    0.00000000
     The SCF correction term to forces
     atom    1 type  1   force =     0.00000000    0.00000000    0.00000000
     atom    2 type  1   force =     0.00000000    0.00000000    0.00000000
     atom    3 type  1   force =     0.00000000    0.00000000    0.00000000
     atom    4 type  1   force =     0.00000000    0.00000000    0.00000000
     atom    5 type  1   force =     0.00000000    0.00000000    0.00000000
     atom    6 type  1   force =     0.00000000    0.00000000    0.00000000
     atom    7 type  1   force =     0.00000000    0.00000000    0.00000000
     atom    8 type  1   force =     0.00000000    0.00000000    0.00000000
     atom    9 type  1   force =     0.00000000    0.00000000    0.00000000
     atom   10 type  1   force =     0.00000000    0.00000000    0.00000000
     atom   11 type  1   force =     0.00000000    0.00000000    0.00000000
     atom   12 type  1   force =     0.00000000    0.00000000    0.00000000
     atom   13 type  2   force =     0.00000000    0.00000000    0.00000000
     atom   14 type  2   force =     0.00000000    0.00000000    0.00000000
     atom   15 type  2   force =     0.00000000    0.00000000    0.00000000
     atom   16 type  2   force =     0.00000000    0.00000000    0.00000000
     atom   17 type  2   force =     0.00000000    0.00000000    0.00000000
     atom   18 type  2   force =     0.00000000    0.00000000    0.00000000
     atom   19 type  2   force =     0.00000000    0.00000000    0.00000000
     atom   20 type  2   force =     0.00000000    0.00000000    0.00000000
     atom   21 type  2   force =     0.00000000    0.00000000    0.00000000
     atom   22 type  2   force =     0.00000000    0.00000000    0.00000000
     atom   23 type  2   force =     0.00000000    0.00000000    0.00000000
     atom   24 type  2   force =     0.00000000    0.00000000    0.00000000
     atom   25 type  2   force =     0.00000000    0.00000000    0.00000000
     atom   26 type  2   force =     0.00000182   -0.00000191   -0.00000076
     atom   27 type  2   force =     0.00000000    0.00000000    0.00000000
     atom   28 type  2   force =     0.00000000    0.00000000    0.00000000
     atom   29 type  2   force =     0.00000000    0.00000000    0.00000000
     atom   30 type  2   force =     0.00000000    0.00000000    0.00000000
     atom   31 type  2   force =     0.00000000    0.00000000    0.00000000
     atom   32 type  2   force =     0.00000000    0.00000000    0.00000000
     atom   33 type  2   force =     0.00000000    0.00000000    0.00000000

     Total force =     0.000008     Total SCF correction =     0.000003
     SCF correction compared to forces is large: reduce conv_thr to get better values
     Energy error            =      3.2E-07
     Gradient error          =      7.4E-06

     bfgs converged in  16 scf cycles and  15 bfgs steps
     (criteria: energy <  1.0E-06 Ry, force <  1.0E-05 Ry/Bohr)

     End of BFGS Geometry Optimization

     Final energy   =   -1853.4403830963 Ry

     File ./hfo2.bfgs deleted, as requested
Begin final coordinates

ATOMIC_POSITIONS (angstrom)
Hf            4.0076390000        3.7813620000        6.1529890000    0   0   0
Hf            4.0076390000        3.7813620000       11.0753320000    0   0   0
Hf            4.0076390000        3.7813620000       15.9976750000    0   0   0
Hf            1.4522770000        1.1321830000        6.1529770000    0   0   0
Hf            1.4522770000        1.1321830000       11.0753200000    0   0   0
Hf            1.4522770000        1.1321830000       15.9976630000    0   0   0
Hf            3.6579980000        1.1322110000        8.6140330000    0   0   0
Hf            3.6579980000        1.1322110000       13.5363760000    0   0   0
Hf            3.6579980000        1.1322110000       18.4587190000    0   0   0
Hf            1.1027520000        3.7813090000        8.6141070000    0   0   0
Hf            1.1027520000        3.7813090000       13.5364490000    0   0   0
Hf            1.1027520000        3.7813090000       18.4587920000    0   0   0
O             3.1707970000        2.0862730000        6.8074440000    0   0   0
O             3.1707970000        2.0862730000       11.7297860000    0   0   0
O             3.1707970000        2.0862730000       16.6521290000    0   0   0
O             0.6152330000        2.8266930000        6.8083890000    0   0   0
O             0.6152330000        2.8266930000       11.7307320000    0   0   0
O             0.6152330000        2.8266930000       16.6530750000    0   0   0
O             5.0530890000        0.2074550000        7.3799440000    0   0   0
O             5.0530890000        0.2074550000       12.3022870000    0   0   0
O             5.0530890000        0.2074550000       17.2246300000    0   0   0
O             1.9399660000        2.0865810000        9.2696970000    0   0   0
O             1.9399660000        2.0865810000       14.1920390000    0   0   0
O             4.4952530000        2.8267400000        9.2692970000    0   0   0
O             4.4952530000        2.8267400000       14.1916400000    0   0   0
O             4.5721582678        2.7889994711       18.9988225195
O             2.4978700000       -0.2075440000        7.3798460000    0   0   0
O             2.6124080000       -0.2081150000        9.8410840000    0   0   0
O             2.4978700000       -0.2075440000       12.3021890000    0   0   0
O             2.6124080000       -0.2081150000       14.7634270000    0   0   0
O             2.4978700000       -0.2075440000       17.2245320000    0   0   0
O             5.1675430000        0.2075860000        9.8410300000    0   0   0
O             5.1675430000        0.2075860000       14.7633720000    0   0   0
End final coordinates



     Writing output data file ./hfo2.save/
 
     init_run     :      0.66s CPU      2.68s WALL (       1 calls)
     electrons    :    984.15s CPU   1162.09s WALL (      16 calls)
     update_pot   :      8.32s CPU      8.87s WALL (      15 calls)
     forces       :      7.19s CPU      7.51s WALL (      16 calls)

     Called by init_run:
     wfcinit      :      0.08s CPU      1.85s WALL (       1 calls)
     potinit      :      0.17s CPU      0.32s WALL (       1 calls)
     hinit0       :      0.21s CPU      0.27s WALL (       1 calls)

     Called by electrons:
     c_bands      :    210.16s CPU    247.02s WALL (     161 calls)
     sum_band     :     37.93s CPU     43.38s WALL (     161 calls)
     v_of_rho     :     24.74s CPU     30.60s WALL (     168 calls)
     v_h          :      2.17s CPU      2.53s WALL (     168 calls)
     v_xc         :     21.58s CPU     26.91s WALL (     168 calls)
     mix_rho      :    707.62s CPU    821.71s WALL (     161 calls)

     Called by c_bands:
     init_us_2    :      1.27s CPU      1.36s WALL (     322 calls)
     cegterg      :    203.27s CPU    229.64s WALL (     161 calls)

     Called by sum_band:
     sum_band:wei :      0.20s CPU      0.23s WALL (     161 calls)
     sum_band:loo :     35.09s CPU     38.64s WALL (     161 calls)
     sum_band:buf :      0.00s CPU      0.00s WALL (     161 calls)
     sum_band:ini :      1.08s CPU      1.10s WALL (     161 calls)

     Called by *egterg:
     cdiaghg      :      6.39s CPU     14.56s WALL (     536 calls)
     cegterg:over :     16.22s CPU     17.10s WALL (     400 calls)
     cegterg:upda :     15.36s CPU     16.10s WALL (     400 calls)
     cegterg:last :     25.77s CPU     27.30s WALL (     297 calls)
     cdiaghg:chol :      0.48s CPU      1.13s WALL (     536 calls)
     cdiaghg:inve :      0.38s CPU      1.11s WALL (     536 calls)
     cdiaghg:para :      1.06s CPU      1.74s WALL (    1072 calls)
     h_psi        :    129.79s CPU    144.37s WALL (     561 calls)
     g_psi        :      0.94s CPU      0.97s WALL (     400 calls)

     Called by h_psi:
     h_psi:calbec :     10.63s CPU     11.11s WALL (     561 calls)
     vloc_psi     :    107.78s CPU    121.73s WALL (     561 calls)
     add_vuspsi   :      8.57s CPU      8.59s WALL (     561 calls)

     General routines
     calbec       :     12.23s CPU     12.82s WALL (     625 calls)
     fft          :     14.84s CPU     21.30s WALL (    2024 calls)
     ffts         :    333.89s CPU    406.05s WALL (  168729 calls)
     fftw         :    132.92s CPU    149.38s WALL (  135308 calls)
     interpolate  :      1.89s CPU      2.46s WALL (     168 calls)
 
     Parallel routines
     fft_scatt_xy :     32.56s CPU     37.52s WALL (  306061 calls)
     fft_scatt_yz :    175.36s CPU    226.38s WALL (  306061 calls)
 
     PWSCF        :  16m41.33s CPU  19m52.60s WALL

 
   This run was terminated on:  23:19:24   4Jan2026            

=------------------------------------------------------------------------------=
   JOB DONE.
=------------------------------------------------------------------------------=
