  <PP_INFO>

############################################################
#    Opium Parameter File                                  #
############################################################
#-----------------------------------------------------------
#Command line   : ./gopium hf hf.log rpt all ke upf 
 
#Opium version  : 4.1 
#Compile Host   : yang15.local 
#Compile OS     : Darwin 17.5.0 i386 
#Compile Date   : Tue Apr 10 00:25:10 EDT 2018 
#-----------------------------------------------------------
#Execution Host : Mac.lan 
#Execution Date : Mon Oct 20 21:43:29 2025
 
#-----------------------------------------------------------
############################################################
[Atom]
Hf
14              # norb: number of orbitals
100 2.00 -643.0 # nlm occ eigen(- means auto-generate)
200 2.00 -77.4
210 6.00 -68.4
300 2.00 -10.0
310 6.00  -6.0
320 10.0  -6.4
400 2.00  -6.4
410 6.00  -6.0
420 10.0  -6.0
430 14.0  -1.9
500 2.00  -2.4
510 6.00  -2.0
520 0.50  -1.0
600 0.00  -1.0

[Pseudo]
4  1.76 1.77 1.80 1.75
opt

 [Optinfo]
 7.07  10
 7.07  10
 7.07  10
 7.07  10

[XC]
 pbesol

[Configs]
4
#
500 2.00  -2.4
510 6.00  -2.0
520 0.00 -1.0
600 0.00 -1.0
#
500 2.00  -2.4
510 6.00  -2.0
520 1.00 -1.0
600 0.00 -1.0
#
500 2.00  -2.4
510 6.00  -2.0
520 1.00 -1.0
600 1.00 -1.0
#
500 2.00  -2.4
510 6.00  -2.0
520 2.00 -1.0
600 2.00 -1.0

[Relativity]
srl              # nrl / srl / frl

[KBdesign]
0                 # local orbital
1                 # number of aug. operators
au 0.01 1.50 3.52
############################################################
  </PP_INFO>



<PP_HEADER>
   0         Version Number
   Hf        Element
   NC        Norm - Conserving pseudopotential
    F      Nonlinear Core Correction
SLA  PW   PSX  PSC     PBESOL  Exchange-Correlation functional
 12          Z valence
 0          Total energy
 0.000000   0.000000     Suggested cutoff for wfc and rho
 2           Max angular momentum component
 1186           Number of points in mesh
 3  3     Number of Wavefuncitons, Number of Projectors
 Wavefunctions         nl  l   occ
                       S  0  2.000000
                       P  1  6.000000
                       D  2  0.500000
</PP_HEADER>
<PP_MESH>
  <PP_R>
 2.4037492838456799e-05  2.4352020243910365e-05  2.4670663198745320e-05  2.4993475554379424e-05 
 2.5320511866869110e-05  2.5651827406129585e-05  2.5987478165275506e-05  2.6327520870084064e-05 
 2.6672012988581725e-05  2.7021012740756422e-05  2.7374579108396927e-05  2.7732771845060899e-05 
 2.8095651486173376e-05  2.8463279359257368e-05  2.8835717594298471e-05  2.9213029134244784e-05 
 2.9595277745644609e-05  2.9982528029423078e-05  3.0374845431799835e-05  3.0772296255349635e-05 
 3.1174947670207637e-05  3.1582867725421291e-05  3.1996125360450831e-05  3.2414790416820176e-05 
 3.2838933649920281e-05  3.3268626740967061e-05  3.3703942309115603e-05  3.4144953923733038e-05 
 3.4591736116831886e-05  3.5044364395666140e-05  3.5502915255492252e-05  3.5967466192496902e-05 
 3.6438095716894174e-05  3.6914883366193758e-05  3.7397909718643231e-05  3.7887256406845793e-05 
 3.8383006131556439e-05  3.8885242675658598e-05  3.9394050918323583e-05  3.9909516849355408e-05 
 4.0431727583723284e-05  4.0960771376284280e-05  4.1496737636698417e-05  4.2039716944539416e-05 
 4.2589801064602633e-05  4.3147082962413603e-05  4.3711656819939463e-05  4.4283618051505871e-05 
 4.4863063319922270e-05  4.5450090552818201e-05  4.6044798959193145e-05  4.6647289046183258e-05 
 4.7257662636047241e-05  4.7876022883374517e-05  4.8502474292518662e-05  4.9137122735258819e-05 
 4.9780075468692338e-05  5.0431441153361460e-05  5.1091329871617221e-05  5.1759853146223627e-05 
 5.2437123959205144e-05  5.3123256770941206e-05  5.3818367539510056e-05  5.4522573740286004e-05 
 5.5235994385793049e-05  5.5958750045818316e-05  5.6690962867788560e-05  5.7432756597413479e-05 
 5.8184256599598839e-05  5.8945589879633690e-05  5.9716885104654386e-05  6.0498272625389761e-05 
 6.1289884498190526e-05  6.2091854507347394e-05  6.2904318187700586e-05  6.3727412847545872e-05 
 6.4561277591839794e-05  6.5406053345708835e-05  6.6261882878266082e-05  6.7128910826739401e-05 
 6.8007283720915740e-05  6.8897150007904835e-05  6.9798660077227128e-05  7.0711966286230034e-05 
 7.1637222985836656e-05  7.2574586546631469e-05  7.3524215385287103e-05  7.4486269991337614e-05 
 7.5460912954301200e-05  7.6448308991158354e-05  7.7448624974189352e-05  7.8462029959176208e-05 
 7.9488695213973407e-05  8.0528794247452514e-05  8.1582502838825787e-05  8.2649999067353072e-05 
 8.3731463342437797e-05  8.4827078434116304e-05  8.5937029503946853e-05  8.7061504136301985e-05 
 8.8200692370070974e-05  8.9354786730776674e-05  9.0523982263112903e-05  9.1708476563907515e-05 
 9.2908469815516418e-05  9.4124164819655261e-05  9.5355767031673268e-05  9.6603484595275538e-05 
 9.7867528377700117e-05  9.9148112005354664e-05  1.0044545189992021e-04  1.0175976731492675e-04 
 1.0309128037280760e-04  1.0444021610243867e-04  1.0580680247716897e-04  1.0719127045334823e-04 
 1.0859385400935974e-04  1.1001479018516267e-04  1.1145431912235275e-04  1.1291268410474654e-04 
 1.1439013159949719e-04  1.1588691129874783e-04  1.1740327616182988e-04  1.1893948245801449e-04 
 1.2049578980982190e-04  1.2207246123689889e-04  1.2366976320046913e-04  1.2528796564836625e-04 
 1.2692734206065548e-04  1.2858816949585223e-04  1.3027072863774610e-04  1.3197530384283668e-04 
 1.3370218318839086e-04  1.3545165852112782e-04  1.3722402550654292e-04  1.3901958367887508e-04 
 1.4083863649172907e-04  1.4268149136935970e-04  1.4454845975862753e-04  1.4643985718163397e-04 
 1.4835600328904502e-04  1.5029722191411361e-04  1.5226384112740755e-04  1.5425619329225470e-04 
 1.5627461512091295e-04  1.5831944773147532e-04  1.6039103670551988e-04  1.6248973214651386e-04 
 1.6461588873898191e-04  1.6676986580844852e-04  1.6895202738216543e-04  1.7116274225063187e-04 
 1.7340238402992257e-04  1.7567133122482878e-04  1.7796996729282677e-04  1.8029868070888310e-04 
 1.8265786503110740e-04  1.8504791896726533e-04  1.8746924644216074e-04  1.8992225666589972e-04 
 1.9240736420304865e-04  1.9492498904269602e-04  1.9747555666943195e-04  2.0005949813525591e-04 
 2.0267725013242572e-04  2.0532925506725933e-04  2.0801596113490285e-04  2.1073782239507620e-04 
 2.1349529884881081e-04  2.1628885651619047e-04  2.1911896751510961e-04  2.2198611014106310e-04 
 2.2489076894797886e-04  2.2783343483010886e-04  2.3081460510499056e-04  2.3383478359749606e-04 
 2.3689448072497889e-04  2.3999421358353610e-04  2.4313450603539837e-04  2.4631588879746422e-04 
 2.4953889953099255e-04  2.5280408293246832e-04  2.5611199082565796e-04  2.5946318225486829e-04 
 2.6285822357942725e-04  2.6629768856939906e-04  2.6978215850255341e-04  2.7331222226260237e-04 
 2.7688847643872320e-04  2.8051152542638355e-04  2.8418198152948551e-04  2.8790046506384665e-04 
 2.9166760446203442e-04  2.9548403637957339e-04  2.9935040580254108e-04  3.0326736615657237e-04 
 3.0723557941728991e-04  3.1125571622217919e-04  3.1532845598392881e-04  3.1945448700525188e-04 
 3.2363450659521158e-04  3.2786922118706714e-04  3.3215934645766383e-04  3.3650560744838322e-04 
 3.4090873868767728e-04  3.4536948431520555e-04  3.4988859820759562e-04  3.5446684410585163e-04 
 3.5910499574442670e-04  3.6380383698198751e-04  3.6856416193388648e-04  3.7338677510637060e-04 
 3.7827249153254424e-04  3.8322213691011206e-04  3.8823654774092366e-04  3.9331657147234384e-04 
 3.9846306664047422e-04  4.0367690301524754e-04  4.0895896174742086e-04  4.1431013551749109e-04 
 4.1973132868656197e-04  4.2522345744918201e-04  4.3078744998818405e-04  4.3642424663154996e-04 
 4.4213480001132829e-04  4.4792007522463238e-04  4.5378104999674231e-04  4.5971871484634479e-04 
 4.6573407325293116e-04  4.7182814182638932e-04  4.7800195047881271e-04  4.8425654259855806e-04 
 4.9059297522658014e-04  4.9701231923507394e-04  5.0351565950845605e-04  5.1010409512671092e-04 
 5.1677873955113958e-04  5.2354072081253549e-04  5.3039118170182650e-04  5.3733127996320729e-04 
 5.4436218848980227e-04  5.5148509552188684e-04  5.5870120484770259e-04  5.6601173600690012e-04 
 5.7341792449664569e-04  5.8092102198042147e-04  5.8852229649955989e-04  5.9622303268754701e-04 
 6.0402453198712676e-04  6.1192811287024904e-04  6.1993511106089481e-04  6.2804687976081503e-04 
 6.3626478987822716e-04  6.4459023025950071e-04  6.5302460792387529e-04  6.6156934830125056e-04 
 6.7022589547308760e-04  6.7899571241646236e-04  6.8788028125131085e-04  6.9688110349091256e-04 
 7.0599970029564863e-04  7.1523761273008214e-04  7.2459640202340175e-04  7.3407764983327321e-04 
 7.4368295851314175e-04  7.5341395138303667e-04  7.6327227300391326e-04  7.7325958945558947e-04 
 7.8337758861831677e-04  7.9362798045803451e-04  8.0401249731536088e-04  8.1453289419836138e-04 
 8.2519094907914856e-04  8.3598846319436412e-04  8.4692726134959293e-04  8.5800919222775896e-04 
 8.6923612870155604e-04  8.8060996814997010e-04  8.9213263277893799e-04  9.0380606994620784e-04 
 9.1563225249044423e-04  9.2761317906464536e-04  9.3975087447391726e-04  9.5204739001767270e-04 
 9.6450480383630625e-04  9.7712522126240306e-04  9.8991077517654610e-04  1.0028636263677770e-03 
 1.0159859638987764e-03  1.0292800054758197e-03  1.0427479978235748e-03  1.0563922170648029e-03 
 1.0702149691050303e-03  1.0842185900222521e-03  1.0984054464617322e-03  1.1127779360359763e-03 
 1.1273384877299290e-03  1.1420895623114830e-03  1.1570336527473510e-03  1.1721732846243860e-03 
 1.1875110165764080e-03  1.2030494407166224e-03  1.2187911830756916e-03  1.2347389040455420e-03 
 1.2508952988289745e-03  1.2672630978951601e-03  1.2838450674410992e-03  1.3006440098591110e-03 
 1.3176627642104478e-03  1.3349042067051006e-03  1.3523712511878895e-03  1.3700668496309017e-03 
 1.3879939926323939e-03  1.4061557099222003e-03  1.4245550708737705e-03  1.4431951850228972e-03 
 1.4620792025932369e-03  1.4812103150287047e-03  1.5005917555328363e-03  1.5202267996152078e-03 
 1.5401187656449997e-03  1.5602710154118174e-03  1.5806869546938359e-03  1.6013700338333851e-03 
 1.6223237483200680e-03  1.6435516393815044e-03  1.6650572945818083e-03  1.6868443484278934e-03 
 1.7089164829837177e-03  1.7312774284925507e-03  1.7539309640074070e-03  1.7768809180297059e-03 
 1.8001311691563005e-03  1.8236856467349688e-03  1.8475483315284836e-03  1.8717232563873704e-03 
 1.8962145069314688e-03  1.9210262222404144e-03  1.9461625955531452e-03  1.9716278749765796e-03 
 1.9974263642035511e-03  2.0235624232401396e-03  2.0500404691425312e-03  2.0768649767635016e-03 
 2.1040404795086855e-03  2.1315715701027255e-03  2.1594629013654606e-03  2.1877191869982566e-03 
 2.2163452023806381e-03  2.2453457853773380e-03  2.2747258371559071e-03  2.3044903230150225e-03 
 2.3346442732236372e-03  2.3651927838711068e-03  2.3961410177284377e-03  2.4274942051208145e-03 
 2.4592576448115248e-03  2.4914367048974807e-03  2.5240368237164235e-03  2.5570635107660267e-03 
 2.5905223476350081e-03  2.6244189889464333e-03  2.6587591633133612e-03  2.6935486743069940e-03 
 2.7287934014374928e-03  2.7644993011476248e-03  2.8006724078194264e-03  2.8373188347940205e-03 
 2.8744447754047876e-03  2.9120565040240557e-03  2.9501603771234803e-03  2.9887628343483056e-03 
 3.0278703996056795e-03  3.0674896821672147e-03  3.1076273777859553e-03  3.1482902698279961e-03 
 3.1894852304188725e-03  3.2312192216049735e-03  3.2734992965301399e-03  3.3163326006276656e-03 
 3.3597263728278887e-03  3.4036879467815944e-03  3.4482247520994155e-03  3.4933443156074471e-03 
 3.5390542626193128e-03  3.5853623182248531e-03  3.6322763085956835e-03  3.6798041623078348e-03 
 3.7279539116817063e-03  3.7767336941395419e-03  3.8261517535806799e-03  3.8762164417747869e-03 
 3.9269362197733217e-03  3.9783196593394850e-03  4.0303754443968632e-03  4.0831123724970279e-03 
 4.1365393563063462e-03  4.1906654251122446e-03  4.2454997263491777e-03  4.3010515271445608e-03 
 4.3573302158849561e-03  4.4143453038026992e-03  4.4721064265833528e-03  4.5306233459941458e-03 
 4.5899059515337338e-03  4.6499642621035502e-03  4.7108084277010277e-03  4.7724487311349663e-03 
 4.8348955897633576e-03  4.8981595572539409e-03  4.9622513253677900e-03  5.0271817257662626e-03 
 5.0929617318415700e-03  5.1596024605713017e-03  5.2271151743972216e-03  5.2955112831286543e-03 
 5.3648023458707644e-03  5.4350000729780773e-03  5.5061163280335527e-03  5.5781631298535504e-03 
 5.6511526545190609e-03  5.7250972374334767e-03  5.8000093754073017e-03  5.8759017287701555e-03 
 5.9527871235103861e-03  6.0306785534426990e-03  6.1095891824041416e-03  6.1895323464788285e-03 
 6.2705215562517524e-03  6.3525704990921297e-03  6.4356930414665864e-03  6.5199032312826220e-03 
 6.6052153002627454e-03  6.6916436663496653e-03  6.7792029361429572e-03  6.8679079073676154e-03 
 6.9577735713749122e-03  7.0488151156759375e-03  7.1410479265083737e-03  7.2344875914367758e-03 
 7.3291499019869106e-03  7.4250508563145669e-03  7.5222066619092809e-03  7.6206337383334342e-03 
 7.7203487199972130e-03  7.8213684589698539e-03  7.9237100278276712e-03  8.0273907225393831e-03 
 8.1324280653891738e-03  8.2388398079379799e-03  8.3466439340235624e-03  8.4558586627998186e-03 
 8.5665024518158436e-03  8.6785940001353340e-03  8.7921522514967463e-03  8.9071963975148275e-03 
 9.0237458809240782e-03  9.1418203988645960e-03  9.2614399062109325e-03  9.3826246189445458e-03 
 9.5053950175703131e-03  9.6297718505778118e-03  9.7557761379478448e-03  9.8834291747048920e-03 
 1.0012752534515973e-02  1.0143768073336706e-02  1.0276497933104983e-02  1.0410964545483015e-02 
 1.0547190635648334e-02  1.0685199226134413e-02  1.0825013640721515e-02  1.0966657508378481e-02 
 1.1110154767256079e-02  1.1255529668732573e-02  1.1402806781512335e-02  1.1552010995777955e-02 
 1.1703167527396762e-02  1.1856301922182375e-02  1.2011440060211981e-02  1.2168608160200151e-02 
 1.2327832783929861e-02  1.2489140840741500e-02  1.2652559592080578e-02  1.2818116656105029e-02 
 1.2985840012352723e-02  1.3155758006470061e-02  1.3327899355002469e-02  1.3502293150247558e-02 
 1.3678968865171807e-02  1.3857956358391538e-02  1.4039285879219127e-02  1.4222988072775148e-02 
 1.4409093985167558e-02  1.4597635068738497e-02  1.4788643187379840e-02  1.4982150621918247e-02 
 1.5178190075570731e-02  1.5376794679471542e-02  1.5577997998271444e-02  1.5781834035810210e-02 
 1.5988337240863307e-02  1.6197542512963899e-02  1.6409485208300902e-02  1.6624201145694267e-02 
 1.6841726612648465e-02  1.7062098371485132e-02  1.7285353665556030e-02  1.7511530225537222e-02 
 1.7740666275805679e-02  1.7972800540899236e-02  1.8207972252061208e-02  1.8446221153870509e-02 
 1.8687587510958607e-02  1.8932112114814322e-02  1.9179836290677706e-02  1.9430801904524078e-02 
 1.9685051370139497e-02  1.9942627656288819e-02  2.0203574293977421e-02  2.0467935383808158e-02 
 2.0735755603434436e-02  2.1007080215110791e-02  2.1281955073342382e-02  2.1560426632634484e-02 
 2.1842541955343402e-02  2.2128348719630136e-02  2.2417895227518116e-02  2.2711230413056286e-02 
 2.3008403850589186e-02  2.3309465763135067e-02  2.3614467030873700e-02  2.3923459199745267e-02 
 2.4236494490161735e-02  2.4553625805832244e-02  2.4874906742703946e-02  2.5200391598019872e-02 
 2.5530135379495205e-02  2.5864193814613870e-02  2.6202623360046487e-02  2.6545481211191730e-02 
 2.6892825311842478e-02  2.7244714363978448e-02  2.7601207837686995e-02  2.7962365981213648e-02 
 2.8328249831144292e-02  2.8698921222720344e-02  2.9074442800289250e-02  2.9454878027891391e-02 
 2.9840291199985707e-02  3.0230747452315600e-02  3.0626312772917035e-02  3.1027054013270675e-02 
 3.1433038899599954e-02  3.1844336044316968e-02  3.2261014957618045e-02  3.2683146059231290e-02 
 3.3110800690317604e-02  3.3544051125527476e-02  3.3982970585215662e-02  3.4427633247815496e-02 
 3.4878114262375325e-02  3.5334489761258761e-02  3.5796836873011398e-02  3.6265233735395475e-02 
 3.6739759508595593e-02  3.7220494388596856e-02  3.7707519620738164e-02  3.8200917513442914e-02 
 3.8700771452129329e-02  3.9207165913302727e-02  3.9720186478832319e-02  4.0239919850414758e-02 
 4.0766453864226775e-02  4.1299877505769959e-02  4.1840280924909323e-02  4.2387755451108906e-02 
 4.2942393608866689e-02  4.3504289133351422e-02  4.4073536986244111e-02  4.4650233371786752e-02 
 4.5234475753041146e-02  4.5826362868360192e-02  4.6425994748075156e-02  4.7033472731400912e-02 
 4.7648899483562490e-02  4.8272379013145780e-02  4.8904016689675214e-02  4.9543919261421508e-02 
 5.0192194873442300e-02  5.0848953085859031e-02  5.1514304892372645e-02  5.2188362739022102e-02 
 5.2871240543187807e-02  5.3563053712843978e-02  5.4263919166062866e-02  5.4973955350774199e-02 
 5.5693282264783144e-02  5.6422021476050244e-02  5.7160296143236713e-02  5.7908231036518369e-02 
 5.8665952558672380e-02  5.9433588766439477e-02  6.0211269392165777e-02  6.0999125865727991e-02 
 6.1797291336745323e-02  6.2605900697082106e-02  6.3425090603644818e-02  6.4254999501477450e-02 
 6.5095767647158867e-02  6.5947537132506895e-02  6.6810451908591834e-02  6.7684657810064663e-02 
 6.8570302579803413e-02  6.9467535893882118e-02  7.0376509386866334e-02  7.1297376677439850e-02 
 7.2230293394366471e-02  7.3175417202791859e-02  7.4132907830889078e-02  7.5102927096853220e-02 
 7.6085638936249089e-02  7.7081209429716233e-02  7.8089806831037722e-02  7.9111601595574982e-02 
 8.0146766409075129e-02  8.1195476216855467e-02  8.2257908253369566e-02  8.3334242072160239e-02 
 8.4424659576204680e-02  8.5529345048656336e-02  8.6648485183989363e-02  8.7782269119550255e-02 
 8.8930888467522631e-02  9.0094537347310141e-02  9.1273412418343039e-02  9.2467712913314196e-02 
 9.3677640671849832e-02  9.4903400174620844e-02  9.6145198577900798e-02  9.7403245748575132e-02 
 9.8677754299610149e-02  9.9968939625984354e-02  1.0127701994109112e-01  1.0260221631361705e-01 
 1.0394475270490316e-01  1.0530485600679496e-01  1.0668275607998767e-01  1.0807868579287316e-01 
 1.0949288106089540e-01  1.1092558088642056e-01  1.1237702739912914e-01  1.1384746589693637e-01 
 1.1533714488744816e-01  1.1684631612995949e-01  1.1837523467800236e-01  1.1992415892245029e-01 
 1.2149335063518743e-01  1.2308307501334764e-01  1.2469360072413470e-01  1.2632519995022698e-01 
 1.2797814843577707e-01  1.2965272553301316e-01  1.3134921424945040e-01  1.3306790129571955e-01 
 1.3480907713402226e-01  1.3657303602721921e-01  1.3836007608856177e-01  1.4017049933207371e-01 
 1.4200461172359208e-01  1.4386272323247645e-01  1.4574514788399434e-01  1.4765220381239216e-01 
 1.4958421331466082e-01  1.5154150290500454e-01  1.5352440337002290e-01  1.5553324982461347e-01 
 1.5756838176860860e-01  1.5963014314415058e-01  1.6171888239381912e-01  1.6383495251951880e-01 
 1.6597871114213736e-01  1.6815052056198426e-01  1.7035074782002069e-01  1.7257976475988993e-01 
 1.7483794809076014e-01  1.7712567945098889e-01  1.7944334547262111e-01  1.8179133784673082e-01 
 1.8417005338961751e-01  1.8657989410986961e-01  1.8902126727630447e-01  1.9149458548679796e-01 
 1.9400026673801463e-01  1.9653873449604914e-01  1.9911041776799465e-01  2.0171575117444507e-01 
 2.0435517502294695e-01  2.0702913538241272e-01  2.0973808415850756e-01  2.1248247917002211e-01 
 2.1526278422624520e-01  2.1807946920534882e-01  2.2093301013379840e-01  2.2382388926680249e-01 
 2.2675259516981519e-01  2.2971962280110469e-01  2.3272547359540249e-01  2.3577065554864715e-01 
 2.3885568330383641e-01  2.4198107823800369e-01  2.4514736855033192e-01  2.4835508935141926e-01 
 2.5160478275371617e-01  2.5489699796314208e-01  2.5823229137190329e-01  2.6161122665252423e-01 
 2.6503437485310943e-01  2.6850231449385231e-01  2.7201563166480613e-01  2.7557492012493473e-01 
 2.7918078140245950e-01  2.8283382489651854e-01  2.8653466798015692e-01  2.9028393610466424e-01 
 2.9408226290527700e-01  2.9793029030826507e-01  3.0182866863941815e-01  3.0577805673395270e-01 
 3.0977912204785718e-01  3.1383254077069150e-01  3.1793899793986791e-01  3.2209918755642164e-01 
 3.2631381270229964e-01  3.3058358565918283e-01  3.3490922802886336e-01  3.3929147085519712e-01 
 3.4373105474765181e-01  3.4822873000647214e-01  3.5278525674948158e-01  3.5740140504054468e-01 
 3.6207795501970969e-01  3.6681569703505340e-01  3.7161543177625300e-01  3.7647797040990344e-01 
 3.8140413471660722e-01  3.8639475722985661e-01  3.9145068137673567e-01  3.9657276162045718e-01 
 4.0176186360477401e-01  4.0701886430027218e-01  4.1234465215258126e-01  4.1774012723252452e-01 
 4.2320620138823178e-01  4.2874379839924548e-01  4.3435385413264027e-01  4.4003731670118773e-01 
 4.4579514662358910e-01  4.5162831698680539e-01  4.5753781361051160e-01  4.6352463521370207e-01 
 4.6958979358347741e-01  4.7573431374603725e-01  4.8195923413991409e-01  4.8826560679146980e-01 
 4.9465449749269375e-01  5.0112698598131866e-01  5.0768416612330514e-01  5.1432714609770391e-01 
 5.2105704858394153e-01  5.2787501095155587e-01  5.3478218545241474e-01  5.4177973941544844e-01 
 5.4886885544393149e-01  5.5605073161534557e-01  5.6332658168385707e-01  5.7069763528544504e-01 
 5.7816513814571180e-01  5.8573035229041404e-01  5.9339455625874837e-01  6.0115904531942688e-01 
 6.0902513168958083e-01  6.1699414475652947e-01  6.2506743130244857e-01  6.3324635573197763e-01 
 6.4153230030281305e-01  6.4992666535930854e-01  6.5843086956913799e-01  6.6704635016305391e-01 
 6.7577456317778239e-01  6.8461698370209634e-01  6.9357510612611095e-01  7.0265044439383650e-01 
 7.1184453225904099e-01  7.2115892354445577e-01  7.3059519240437765e-01  7.4015493359070317e-01 
 7.4983976272244557e-01  7.5965131655877949e-01  7.6959125327565547e-01  7.7966125274603670e-01 
 7.8986301682380267e-01  8.0019826963136076e-01  8.1066875785103587e-01  8.2127625102025770e-01 
 8.3202254183061908e-01  8.4290944643084376e-01  8.5393880473372152e-01  8.6511248072705604e-01 
 8.7643236278868508e-01  8.8790036400561911e-01  8.9951842249735892e-01  9.1128850174344123e-01 
 9.2321259091527330e-01  9.3529270521230545e-01  9.4753088620260562e-01  9.5992920216788902e-01 
 9.7248974845306302e-01  9.8521464782034540e-01  9.9810605080801729e-01  1.0111661360938631e+00 
 1.0243971108633820e+00  1.0378012111828008e+00  1.0513807023769770e+00  1.0651378794122428e+00 
 1.0790750672842604e+00  1.0931946214109518e+00  1.1074989280305709e+00  1.1219904046049816e+00 
 1.1366715002282164e+00  1.1515446960403777e+00  1.1666125056469576e+00  1.1818774755436425e+00 
 1.1973421855466768e+00  1.2130092492288593e+00  1.2288813143612407e+00  1.2449610633606047e+00 
 1.2612512137428078e+00  1.2777545185820307e+00  1.2944737669760731e+00  1.3114117845177073e+00 
 1.3285714337722121e+00  1.3459556147611529e+00  1.3635672654524926e+00  1.3814093622571160e+00 
 1.3994849205318489e+00  1.4177969950890612e+00  1.4363486807129373e+00  1.4551431126825030e+00 
 1.4741834673014929e+00  1.4934729624351564e+00  1.5130148580540816e+00  1.5328124567851396e+00 
 1.5528691044696363e+00  1.5731881907287668e+00  1.5937731495364738e+00  1.6146274597997834e+00 
 1.6357546459467691e+00  1.6571582785221741e+00  1.6788419747908461e+00  1.7008093993490645e+00 
 1.7230642647438632e+00  1.7456103321004637e+00  1.7684514117579104e+00  1.7915913639130296e+00 
 1.8150340992728111e+00  1.8387835797153262e+00  1.8628438189592960e+00  1.8872188832424190e+00 
 1.9119128920085733e+00  1.9369300186040139e+00  1.9622744909826801e+00  1.9879505924207252e+00 
 2.0139626622404077e+00  2.0403150965434316e+00  2.0670123489539183e+00  2.0940589313710678e+00 
 2.1214594147316812e+00  2.1492184297826640e+00  2.1773406678636271e+00  2.2058308816997405e+00 
 2.2346938862049530e+00  2.2639345592957207e+00  2.2935578427153924e+00  2.3235687428693739e+00 
 2.3539723316712178e+00  2.3847737473997954e+00  2.4159781955676767e+00  2.4475909498008708e+00 
 2.4796173527300844e+00  2.5120628168936383e+00  2.5449328256522046e+00  2.5782329341154879e+00 
 2.6119687700810799e+00  2.6461460349855543e+00  2.6807705048680255e+00  2.7158480313463120e+00 
 2.7513845426058769e+00  2.7873860444017033e+00  2.8238586210732830e+00  2.8608084365728796e+00 
 2.8982417355072587e+00  2.9361648441930344e+00  2.9745841717258341e+00  3.0135062110634543e+00 
 3.0529375401231800e+00  3.0928848228934740e+00  3.1333548105602009e+00  3.1743543426476020e+00 
 3.2158903481741850e+00  3.2579698468237344e+00  3.3005999501316805e+00  3.3437878626869462e+00 
 3.3875408833495442e+00  3.4318664064841027e+00  3.4767719232095313e+00  3.5222650226650369e+00 
 3.5683533932927043e+00  3.6150448241368633e+00  3.6623472061604585e+00  3.7102685335786356e+00 
 3.7588169052097857e+00  3.8080005258442631e+00  3.8578277076310190e+00  3.9083068714823659e+00 
 3.9594465484971431e+00  4.0112553814024823e+00  4.0637421260144624e+00  4.1169156527178297e+00 
 4.1707849479651635e+00  4.2253591157955759e+00  4.2806473793733204e+00  4.3366590825465359e+00 
 4.3934036914263679e+00  4.4508907959867781e+00  4.5091301116852600e+00  4.5681314811047820e+00 
 4.6279048756172063e+00  4.6884603970684715e+00  4.7498082794858298e+00  4.8119588908074240e+00 
 4.8749227346344943e+00  4.9387104520065046e+00  5.0033328231995116e+00  5.0688007695480568e+00 
 5.1351253552908993e+00  5.2023177894408743e+00  5.2703894276792829e+00  5.3393517742750065e+00 
 5.4092164840287555e+00  5.4799953642427637e+00  5.5517003767162496e+00  5.6243436397669830e+00 
 5.6979374302793202e+00  5.7724941857790171e+00  5.8480265065352031e+00  5.9245471576898643e+00 
 6.0020690714151703e+00  6.0806053490990495e+00  6.1601692635593572e+00  6.2407742612870036e+00 
 6.3224339647184538e+00  6.4051621745379457e+00  6.4889728720098532e+00  6.5738802213415015e+00 
 6.6598985720770276e+00  6.7470424615224367e+00  6.8353266172024574e+00  6.9247659593495250e+00 
 7.0153756034253334e+00  7.1071708626753942e+00  7.2001672507170031e+00  7.2943804841610751e+00 
 7.3898264852683013e+00  7.4865213846400422e+00  7.5844815239444312e+00  7.6837234586781671e+00 
 7.7842639609644237e+00  7.8861200223873844e+00  7.9893088568638575e+00  8.0938479035524686e+00 
 8.1997548298009360e+00  8.3070475341318346e+00  8.4157441492675797e+00  8.5258630451948338e+00 
 8.6374228322691078e+00  8.7504423643599338e+00  8.8649407420372395e+00  8.9809373157993626e+00 
 9.0984516893433565e+00  9.2175037228780461e+00  9.3381135364804528e+00  9.4603015134961357e+00 
 9.5840883039840321e+00  9.7094948282063598e+00  9.8365422801641937e+00  9.9652521311792981e+00 
 1.0095646133522832e+01  1.0227746324091548e+01  1.0361575028132078e+01  1.0497154863013897e+01 
 1.0634508742051807e+01  1.0773659878378284e+01  1.0914631788866561e+01  1.1057448298105037e+01 
 1.1202133542423688e+01  1.1348711973973169e+01  1.1497208364857283e+01  1.1647647811319530e+01 
 1.1800055737984415e+01  1.1954457902154296e+01  1.2110880398162408e+01  1.2269349661782872e+01 
 1.2429892474698418e+01  1.2592535969026535e+01  1.2757307631904874e+01  1.2924235310136631e+01 
 1.3093347214896749e+01  1.3264671926499600e+01  1.3438238399229228e+01  1.3614075966232638e+01 
 1.3792214344477156e+01  1.3972683639772695e+01  1.4155514351859695e+01  1.4340737379563652e+01 
 1.4528384026017095e+01  1.4718486003949900e+01  1.4911075441048787e+01  1.5106184885387023e+01 
 1.5303847310925063e+01  1.5504096123083290e+01  1.5706965164387562e+01  1.5912488720188712e+01 
 1.6120701524456837e+01  1.6331638765651459e+01  1.6545336092668325e+01  1.6761829620864351e+01 
 1.6981155938161081e+01  1.7203352111228153e+01  1.7428455691747661e+01  1.7656504722760488e+01 
 1.7887537745095656e+01  1.8121593803883812e+01  1.8358712455155967e+01  1.8598933772528557e+01 
 1.8842298353975966e+01  1.9088847328691685e+01  1.9338622364039264e+01  1.9591665672594157e+01 
 1.9848020019277776e+01  2.0107728728584860e+01  2.0370835691905416e+01  2.0637385374942497e+01 
 2.0907422825226885e+01  2.1180993679730420e+01  2.1458144172578653e+01  2.1738921142864502e+01 
 2.2023372042564230e+01  2.2311544944556911e+01  2.2603488550748857e+01  2.2899252200304367e+01 
 2.3198885877984168e+01  2.3502440222592938e+01  2.3809966535537406e+01  2.4121516789496408e+01 
 2.4437143637204375e+01  2.4756900420349790e+01  2.5080841178590070e+01  2.5409020658684359e+01 
 2.5741494323745894e+01  2.6078318362615430e+01  2.6419549699357123e+01  2.6765246002879106e+01 
 2.7115465696679436e+01  2.7470267968719934e+01  2.7829712781429045e+01  2.8193860881835626e+01 
 2.8562773811835356e+01  2.8936513918591444e+01  2.9315144365071490e+01  2.9698729140722101e+01 
 3.0087333072283343e+01  3.0481021834744574e+01  3.0879861962443652e+01  3.1283920860311436e+01 
 3.1693266815263371e+01  3.2107969007740138e+01  3.2528097523399275e+01  3.2953723364959941e+01 
 3.3384918464202286e+01  3.3821755694124413e+01  3.4264308881257897e+01  3.4712652818144683e+01 
 3.5166863275977207e+01  3.5627017017403915e+01  3.6093191809502308e+01  3.6565466436921788e+01 
 3.7043920715198460e+01  3.7528635504244114e+01  3.8019692722011762e+01  3.8517175358339983e+01 
 3.9021167488978371e+01  3.9531754289796559e+01  4.0049022051179101e+01  4.0573058192608848e+01 
 4.1103951277440949e+01  4.1641791027870390e+01  4.2186668340094975e+01  4.2738675299677361e+01 
 4.3297905197107596e+01  4.3864452543569328e+01  4.4438413086912561e+01  4.5019883827835230e+01 
 4.5608963036276464e+01  4.6205750268024573e+01  4.6810346381542132e+01  4.7422853555011336e+01 
 4.8043375303602296e+01  4.8672016496967473e+01  4.9308883376964722e+01  4.9954083575612600e+01 
 5.0607726133280302e+01  5.1269921517115826e+01  5.1940781639715105e+01  5.2620419878035676e+01 
 5.3308951092557237e+01  5.4006491646693888e+01  5.4713159426459519e+01  5.5429073860390830e+01 
 5.6154355939731104e+01  5.6889128238877987e+01  5.7633514936098877e+01  5.8387641834517304e+01 
 5.9151636383373997e+01  5.9925627699566107e+01  6.0709746589468246e+01  6.1504125571039040e+01 
 6.2308898896217130e+01  6.3124202573609878e+01  6.3950174391479273e+01  6.4786953941028457e+01 
 6.5634682639992846e+01  6.6493503756540434e+01  6.7363562433483750e+01  6.8245005712810098e+01 
 6.9137982560531626e+01  7.0042643891860990e+01  7.0959142596716319e+01  7.1887633565560122e+01 
 7.2828273715576032e+01  7.3781222017188213e+01  7.4746639520927758e+01  7.5724689384650560e+01 
 7.6715536901111435e+01  7.7719349525899020e+01  7.8736296905736069e+01  7.9766550907150162e+01 
 8.0810285645519670e+01  8.1867677514499576e+01  8.2938905215832435e+01  8.4024149789549540e+01 
 8.5123594644566509e+01  8.6237425589680825e+01  8.7365830864973177e+01  8.8509001173620874e+01 
 8.9667129714126901e+01  9.0840412212971032e+01  9.2029046957688124e+01  9.3233234830379132e+01 
 9.4453179341660572e+01  9.5689086665058440e+01  9.6941165671852019e+01  9.8209627966373489e+01 
 9.9494687921769668e+01  1.0079656271623161e+02  1.0211547236969818e+02  1.0345163978103993e+02 
 1.0480529076572958e+02  1.0617665409400557e+02  1.0756596152953395e+02  1.0897344786857823e+02 
 1.1039935097967962e+02  1.1184391184385775e+02  1.1330737459533681e+02  1.1478998656280500e+02 
 1.1629199831121355e+02  1.1781366368412293e+02 
  </PP_R>
  <PP_RAB>
 3.1248740689993839e-07  3.1657626317083473e-07  3.2071862158368914e-07  3.2491518220693250e-07 
 3.2916665426929842e-07  3.3347375627968462e-07  3.3783721614858157e-07  3.4225777131109282e-07 
 3.4673616885156242e-07  3.5127316562983346e-07  3.5586952840916001e-07  3.6052603398579168e-07 
 3.6524346932025388e-07  3.7002263167034578e-07  3.7486432872588012e-07  3.7976937874518220e-07 
 3.8473861069337988e-07  3.8977286438250000e-07  3.9487299061339784e-07  4.0003985131954521e-07 
 4.0527431971269926e-07  4.1057728043047675e-07  4.1594962968586078e-07  4.2139227541866227e-07 
 4.2690613744896364e-07  4.3249214763257176e-07  4.3815125001850282e-07  4.4388440100852947e-07 
 4.4969256951881451e-07  4.5557673714365978e-07  4.6153789832139923e-07  4.6757706050245972e-07 
 4.7369524431962425e-07  4.7989348376051883e-07  4.8617282634236203e-07  4.9253433328899533e-07 
 4.9897907971023366e-07  5.0550815478356181e-07  5.1212266193820659e-07  5.1882371904162031e-07 
 5.2561245858840264e-07  5.3249002789169564e-07  5.3945758927707938e-07  5.4651632027901243e-07 
 5.5366741383983417e-07  5.6091207851137685e-07  5.6825153865921302e-07  5.7568703466957629e-07 
 5.8321982315898946e-07  5.9085117718663657e-07  5.9858238646951082e-07  6.0641475760038234e-07 
 6.1434961426861413e-07  6.2238829748386870e-07  6.3053216580274259e-07  6.3878259555836464e-07 
 6.4714098109300032e-07  6.5560873499369897e-07  6.6418728833102384e-07  6.7287809090090708e-07 
 6.8168261146966685e-07  6.9060233802223569e-07  6.9963877801363066e-07  7.0879345862371798e-07 
 7.1806792701530956e-07  7.2746375059563804e-07  7.3698251728125125e-07  7.4662583576637518e-07 
 7.5639533579478487e-07  7.6629266843523799e-07  7.7631950636050698e-07  7.8647754413006686e-07 
 7.9676849847647680e-07  8.0719410859551603e-07  8.1775613644010757e-07  8.2845636701809633e-07 
 8.3929660869391727e-07  8.5027869349421486e-07  8.6140447741745898e-07  8.7267584074761219e-07 
 8.8409468837190457e-07  8.9566295010276280e-07  9.0738258100395258e-07  9.1925556172099040e-07 
 9.3128389881587645e-07  9.4346962510620902e-07  9.5581480000873220e-07  9.6832150988738888e-07 
 9.8099186840591550e-07  9.9382801688505848e-07  1.0068321246644615e-06  1.0200063894692907e-06 
 1.0333530377816542e-06  1.0468743252168826e-06  1.0605725369047351e-06  1.0744499878755898e-06 
 1.0885090234516914e-06  1.1027520196435119e-06  1.1171813835513090e-06  1.1317995537719258e-06 
 1.1466090008109227e-06  1.1616122275000967e-06  1.1768117694204677e-06  1.1922101953307977e-06 
 1.2078101076017134e-06  1.2236141426555182e-06  1.2396249714117525e-06  1.2558452997385820e-06 
 1.2722778689101014e-06  1.2889254560696105e-06  1.3057908746989627e-06  1.3228769750940476e-06 
 1.3401866448464988e-06  1.3577228093317027e-06  1.3754884322031966e-06  1.3934865158935270e-06 
 1.4117201021216765e-06  1.4301922724071147e-06  1.4489061485905858e-06  1.4678648933617051e-06 
 1.4870717107934634e-06  1.5065298468837217e-06  1.5262425901037884e-06  1.5462132719541884e-06 
 1.5664452675276847e-06  1.5869419960796856e-06  1.6077069216060985e-06  1.6287435534287612e-06 
 1.6500554467885210e-06  1.6716462034460789e-06  1.6935194722906992e-06  1.7156789499568767e-06 
 1.7381283814490811e-06  1.7608715607746615e-06  1.7839123315850579e-06  1.8072545878253760e-06 
 1.8309022743924779e-06  1.8548593878016760e-06  1.8791299768621578e-06  1.9037181433612415e-06 
 1.9286280427575853e-06  1.9538638848834769e-06  1.9794299346562981e-06  2.0053305127993109e-06 
 2.0315699965718681e-06  2.0581528205091790e-06  2.0850834771717582e-06  2.1123665179046802e-06 
 2.1400065536067646e-06  2.1680082555098306e-06  2.1963763559681503e-06  2.2251156492582142e-06 
 2.2542309923889932e-06  2.2837273059227739e-06  2.3136095748067480e-06  2.3438828492154802e-06 
 2.3745522454043960e-06  2.4056229465744492e-06  2.4371002037480893e-06  2.4689893366566960e-06 
 2.5012957346396323e-06  2.5340248575550481e-06  2.5671822367026152e-06  2.6007734757583268e-06 
 2.6348042517215340e-06  2.6692803158743712e-06  2.7042074947537367e-06  2.7395916911359903e-06 
 2.7754388850345404e-06  2.8117551347104760e-06  2.8485465776964248e-06  2.8858194318338203e-06 
 2.9235799963237251e-06  2.9618346527914152e-06  3.0005898663648772e-06  3.0398521867674486e-06 
 3.0796282494247256e-06  3.1199247765859694e-06  3.1607485784601785e-06  3.2021065543670347e-06 
 3.2440056939029028e-06  3.2864530781220880e-06  3.3294558807335535e-06  3.3730213693132875e-06 
 3.4171569065325540e-06  3.4618699514021875e-06  3.5071680605331939e-06  3.5530588894138304e-06 
 3.5995501937034014e-06  3.6466498305429859e-06  3.6943657598833115e-06  3.7427060458300063e-06 
 3.7916788580064474e-06  3.8412924729344541e-06  3.8915552754330335e-06  3.9424757600354408e-06 
 3.9940625324247689e-06  4.0463243108883292e-06  4.0992699277910743e-06  4.1529083310682746e-06 
 4.2072485857377501e-06  4.2622998754318728e-06  4.3180715039496297e-06  4.3745728968289814e-06 
 4.4318136029398047e-06  4.4898032960976721e-06  4.5485517766987432e-06  4.6080689733760707e-06 
 4.6683649446775467e-06  4.7294498807658377e-06  4.7913341051405242e-06  4.8540280763828176e-06 
 4.9175423899230748e-06  4.9818877798314564e-06  5.0470751206320076e-06  5.1131154291404696e-06 
 5.1800198663261647e-06  5.2477997391982175e-06  5.3164665027164709e-06  5.3860317617273837e-06 
 5.4565072729253050e-06  5.5279049468393656e-06  5.6002368498463921e-06  5.6735152062101492e-06 
 5.7477524001472672e-06  5.8229609779202210e-06  5.8991536499576496e-06  5.9763432930024819e-06 
 6.0545429522881049e-06  6.1337658437430608e-06  6.2140253562245647e-06  6.2953350537812546e-06 
 6.3777086779455412e-06  6.4611601500559607e-06  6.5457035736099281e-06  6.6313532366472415e-06 
 6.7181236141648144e-06  6.8060293705629611e-06  6.8950853621237442e-06  6.9853066395216943e-06 
 7.0767084503674297e-06  7.1693062417845289e-06  7.2631156630201337e-06  7.3581525680897008e-06 
 7.4544330184563935e-06  7.5519732857454790e-06  7.6507898544942788e-06  7.7508994249381112e-06 
 7.8523189158326481e-06  7.9550654673132375e-06  8.0591564437916323e-06  8.1646094368905947e-06 
 8.2714422684169534e-06  8.3796729933735087e-06  8.4893199030103788e-06  8.6004015279162567e-06 
 8.7129366411501386e-06  8.8269442614140107e-06  8.9424436562670399e-06  9.0594543453818629e-06 
 9.1779961038434322e-06  9.2980889654910678e-06  9.4197532263042224e-06  9.5430094478325512e-06 
 9.6678784606708429e-06  9.7943813679794763e-06  9.9225395490508716e-06  1.0052374662922663e-05 
 1.0183908652038117e-05  1.0317163745954448e-05  1.0452162465099692e-05  1.0588927624578697e-05 
 1.0727482338028931e-05  1.0867850021526734e-05  1.1010054397544708e-05  1.1154119498960866e-05 
 1.1300069673120228e-05  1.1447929585949611e-05  1.1597724226126194e-05  1.1749478909300702e-05 
 1.1903219282375775e-05  1.2058971327840389e-05  1.2216761368160924e-05  1.2376616070229744e-05 
 1.2538562449871980e-05  1.2702627876411240e-05  1.2868840077295099e-05  1.3037227142781100e-05 
 1.3207817530684092e-05  1.3380640071185655e-05  1.3555723971706471e-05  1.3733098821842438e-05 
 1.3912794598365392e-05  1.4094841670289275e-05  1.4279270804002517e-05  1.4466113168467692e-05 
 1.4655400340489076e-05  1.4847164310049277e-05  1.5041437485715562e-05  1.5238252700117017e-05 
 1.5437643215493303e-05  1.5639642729316089e-05  1.5844285379983990e-05  1.6051605752592044e-05 
 1.6261638884776669e-05  1.6474420272637081e-05  1.6689985876734290e-05  1.6908372128168444e-05 
 1.7129615934735820e-05  1.7353754687166308e-05  1.7580826265442562e-05  1.7810869045201721e-05 
 1.8043921904221121e-05  1.8280024228988605e-05  1.8519215921359016e-05  1.8761537405297663e-05 
 1.9007029633712079e-05  1.9255734095373161e-05  1.9507692821926871e-05  1.9762948394997699e-05 
 2.0021543953384994e-05  2.0283523200353625e-05  2.0548930411019866e-05  2.0817810439834004e-05 
 2.1090208728160884e-05  2.1366171311959557e-05  2.1645744829563508e-05  2.1928976529562614e-05 
 2.2215914278788328e-05  2.2506606570403159e-05  2.2801102532096289e-05  2.3099451934386175e-05 
 2.3401705199031906e-05  2.3707913407554594e-05  2.4018128309870286e-05  2.4332402333035814e-05 
 2.4650788590109093e-05  2.4973340889125385e-05  2.5300113742190886e-05  2.5631162374695533e-05 
 2.5966542734646164e-05  2.6306311502121815e-05  2.6650526098852905e-05  2.6999244697925520e-05 
 2.7352526233612911e-05  2.7710430411335432e-05  2.8073017717750986e-05  2.8440349430977333e-05 
 2.8812487630948293e-05  2.9189495209905391e-05  2.9571435883026791e-05  2.9958374199195291e-05 
 3.0350375551907283e-05  3.0747506190324386e-05  3.1149833230469691e-05  3.1557424666570588e-05 
 3.1970349382549822e-05  3.2388677163667251e-05  3.2812478708313505e-05  3.3241825639958348e-05 
 3.3676790519255105e-05  3.4117446856303634e-05  3.4563869123073696e-05  3.5016132765990921e-05 
 3.5474314218687405e-05  3.5938490914919122e-05  3.6408741301652544e-05  3.6885144852322265e-05 
 3.7367782080262236e-05  3.7856734552312725e-05  3.8352084902605245e-05  3.8853916846527968e-05 
 3.9362315194873830e-05  3.9877365868173788e-05  4.0399155911217419e-05  4.0927773507763947e-05 
 4.1463307995445343e-05  4.2005849880864654e-05  4.2555490854891816e-05  4.3112323808159651e-05 
 4.3676442846762550e-05  4.4247943308160728e-05  4.4826921777292402e-05  4.5413476102896813e-05 
 4.6007705414051067e-05  4.6609710136923089e-05  4.7219592011743884e-05  4.7837454110001849e-05 
 4.8463400851862181e-05  4.9097538023814039e-05  4.9739972796548840e-05  5.0390813743072231e-05 
 5.1050170857053184e-05  5.1718155571413304e-05  5.2394880777159221e-05  5.3080460842461360e-05 
 5.3775011631982499e-05  5.4478650526459173e-05  5.5191496442539306e-05  5.5913669852879285e-05 
 5.6645292806504429e-05  5.7386488949435088e-05  5.8137383545583581e-05  5.8898103497923892e-05 
 5.9668777369938534e-05  6.0449535407346147e-05  6.1240509560113359e-05  6.2041833504754553e-05 
 6.2853642666923641e-05  6.3676074244301223e-05  6.4509267229781260e-05  6.5353362434961406e-05 
 6.6208502513940412e-05  6.7074831987426925e-05  6.7952497267163877e-05  6.8841646680672499e-05 
 6.9742430496319932e-05  7.0655000948715004e-05  7.1579512264436179e-05  7.2516120688096149e-05 
 7.3464984508747787e-05  7.4426264086635191e-05  7.5400121880294922e-05  7.6386722474012023e-05 
 7.7386232605635010e-05  7.8398821194755090e-05  7.9424659371253836e-05  8.0463920504224770e-05 
 8.1516780231272775e-05  8.2583416488197681e-05  8.3664009539065613e-05  8.4758742006674085e-05 
 8.5867798903415681e-05  8.6991367662545639e-05  8.8129638169858439e-05  8.9282802795778994e-05 
 9.0451056427873853e-05  9.1634596503787185e-05  9.2833623044608849e-05  9.4048338688678087e-05 
 9.5278948725829835e-05  9.6525661132089370e-05  9.7788686604820653e-05  9.9068238598334647e-05 
 1.0036453335996377e-04  1.0167778996660810e-04  1.0300823036175972e-04  1.0435607939301197e-04 
 1.0572156485005925e-04  1.0710491750319374e-04  1.0850637114230631e-04  1.0992616261639763e-04 
 1.1136453187360596e-04  1.1282172200175933e-04  1.1429797926945770e-04  1.1579355316769276e-04 
 1.1730869645201301e-04  1.1884366518523975e-04  1.2039871878074211e-04  1.2197412004627909e-04 
 1.2357013522841406e-04  1.2518703405751155e-04  1.2682508979332198e-04  1.2848457927116359e-04 
 1.3016578294870764e-04  1.3186898495337718e-04  1.3359447313036478e-04  1.3534253909127918e-04 
 1.3711347826342833e-04  1.3890758993974735e-04  1.4072517732937969e-04  1.4256654760892024e-04 
 1.4443201197432903e-04  1.4632188569352344e-04  1.4823648815966037e-04  1.5017614294511339e-04 
 1.5214117785615789e-04  1.5413192498837087e-04  1.5614872078275574e-04  1.5819190608260195e-04 
 1.6026182619108818e-04  1.6235883092963950e-04  1.6448327469704752e-04  1.6663551652936536e-04 
 1.6881592016058540e-04  1.7102485408411079e-04  1.7326269161503210e-04  1.7552981095321824e-04 
 1.7782659524723349e-04  1.8015343265908999e-04  1.8251071642984865e-04  1.8489884494607691e-04 
 1.8731822180717824e-04  1.8976925589360045e-04  1.9225236143593792e-04  1.9476795808493722e-04 
 1.9731647098241949e-04  1.9989833083313005e-04  2.0251397397752876e-04  2.0516384246553273e-04 
 2.0784838413122298e-04  2.1056805266853068e-04  2.1332330770791171e-04  2.1611461489402545e-04 
 2.1894244596443004e-04  2.2180727882930670e-04  2.2470959765222837e-04  2.2764989293198388e-04 
 2.3062866158547382e-04  2.3364640703169004e-04  2.3670363927679570e-04  2.3980087500031662e-04 
 2.4293863764246189e-04  2.4611745749258620e-04  2.4933787177881019e-04  2.5260042475881299e-04 
 2.5590566781181345e-04  2.5925415953175466e-04  2.6264646582170646e-04  2.6608315998950604e-04 
 2.6956482284464764e-04  2.7309204279644028e-04  2.7666541595345099e-04  2.8028554622424825e-04 
 2.8395304541946423e-04  2.8766853335519176e-04  2.9143263795773546e-04  2.9524599536973170e-04 
 2.9910925005765941e-04  3.0302305492075585e-04  3.0698807140135809e-04  3.1100496959668845e-04 
 3.1507442837210253e-04  3.1919713547581916e-04  3.2337378765515129e-04  3.2760509077425830e-04 
 3.3189175993343764e-04  3.3623451958998029e-04  3.4063410368060434e-04  3.4509125574549250e-04 
 3.4960672905395222e-04  3.5418128673171982e-04  3.5881570188993090e-04  3.6351075775577739e-04 
 3.6826724780487577e-04  3.7308597589536446e-04  3.7796775640376026e-04  3.8291341436258805e-04 
 3.8792378559981418e-04  3.9299971688010280e-04  3.9814206604792146e-04  4.0335170217251873e-04 
 4.0862950569479938e-04  4.1397636857612056e-04  4.1939319444903457e-04  4.2488089877000675e-04 
 4.3044040897412885e-04  4.3607266463185717e-04  4.4177861760780359e-04  4.4755923222160142e-04 
 4.5341548541087922e-04  4.5934836689636387e-04  4.6535887934914816e-04  4.7144803856014115e-04 
 4.7761687361174267e-04  4.8386642705175909e-04  4.9019775506959609e-04  4.9661192767475786e-04 
 5.0311002887768125e-04  5.0969315687293541e-04  5.1636242422482012e-04  5.2311895805539179e-04 
 5.2996390023494805e-04  5.3689840757500940e-04  5.4392365202382120e-04  5.5104082086441576e-04 
 5.5825111691526692e-04  5.6555575873356841e-04  5.7295598082117340e-04  5.8045303383322776e-04 
 5.8804818478953489e-04  5.9574271728868246e-04  6.0353793172497703e-04  6.1143514550821183e-04 
 6.1943569328631236e-04  6.2754092717089507e-04  6.3575221696577776e-04  6.4407095039847959e-04 
 6.5249853335474985e-04  6.6103639011616739e-04  6.6968596360084435e-04  6.7844871560728730e-04 
 6.8732612706144149e-04  6.9631969826697163e-04  7.0543094915881724e-04  7.1466141956006454e-04 
 7.2401266944218084e-04  7.3348627918865309e-04  7.4308384986207726e-04  7.5280700347473881e-04 
 7.6265738326274091e-04  7.7263665396371320e-04  7.8274650209815512e-04  7.9298863625446383e-04 
 8.0336478737768919e-04  8.1387670906206736e-04  8.2452617784738256e-04  8.3531499351920677e-04 
 8.4624497941306520e-04  8.5731798272258963e-04  8.6853587481169382e-04  8.7990055153084061e-04 
 8.9141393353744437e-04  9.0307796662046744e-04  9.1489462202926227e-04  9.2686589680671800e-04 
 9.3899381412676410e-04  9.5128042363629411e-04  9.6372780180155793e-04  9.7633805225909179e-04 
 9.8911330617123812e-04  1.0020557225863111e-03  1.0151674888034903e-03  1.0284508207424746e-03 
 1.0419079633179767e-03  1.0555411908191210e-03  1.0693528072938043e-03  1.0833451469380831e-03 
 1.0975205744906608e-03  1.1118814856325323e-03  1.1264303073918616e-03  1.1411694985541533e-03 
 1.1561015500777942e-03  1.1712289855150318e-03  1.1865543614384595e-03  1.2020802678730845e-03 
 1.2178093287340478e-03  1.2337442022700709e-03  1.2498875815127103e-03  1.2662421947314767e-03 
 1.2828108058949318e-03  1.2995962151377966e-03  1.3166012592341844e-03  1.3338288120770215e-03 
 1.3512817851637411e-03  1.3689631280883344e-03  1.3868758290398397e-03  1.4050229153073511e-03 
 1.4234074537916401e-03  1.4420325515234671e-03  1.4609013561886787e-03  1.4800170566601728e-03 
 1.4993828835368260e-03  1.5190021096894734e-03  1.5388780508140305e-03  1.5590140659918538e-03 
 1.5794135582574366e-03  1.6000799751735193e-03  1.6210168094137509e-03  1.6422275993529507e-03 
 1.6637159296651017e-03  1.6854854319291711e-03  1.7075397852428550e-03  1.7298827168443541e-03 
 1.7525180027422895e-03  1.7754494683538495e-03  1.7986809891513030e-03  1.8222164913169580e-03 
 1.8460599524066968e-03  1.8702154020221939e-03  1.8946869224919264e-03  1.9194786495610981e-03 
 1.9445947730905905e-03  1.9700395377650589e-03  1.9958172438102975e-03  2.0219322477199749e-03 
 2.0483889629919119e-03  2.0751918608739573e-03  2.1023454711196483e-03  2.1298543827537441e-03 
 2.1577232448477856e-03  2.1859567673057955e-03  2.2145597216602689e-03  2.2435369418785690e-03 
 2.2728933251798819e-03  2.3026338328628556e-03  2.3327634911440745e-03  2.3632873920075006e-03 
 2.3942106940650276e-03  2.4255386234283047e-03  2.4572764745919582e-03  2.4894296113283734e-03 
 2.5220034675941900e-03  2.5550035484486386e-03  2.5884354309839304e-03  2.6223047652677856e-03 
 2.6566172752983102e-03  2.6913787599713653e-03  2.7265950940605983e-03  2.7622722292102871e-03 
 2.7984161949411875e-03  2.8350330996695346e-03  2.8721291317393791e-03  2.9097105604684323e-03 
 2.9477837372075973e-03  2.9863550964143609e-03  3.0254311567402322e-03  3.0650185221324129e-03 
 3.1051238829498734e-03  3.1457540170940477e-03  3.1869157911543150e-03  3.2286161615684501e-03 
 3.2708621757983102e-03  3.3136609735208468e-03  3.3570197878347425e-03  3.4009459464828147e-03 
 3.4454468730904225e-03  3.4905300884200798e-03  3.5362032116424795e-03  3.5824739616241515e-03 
 3.6293501582319735e-03  3.6768397236547406e-03  3.7249506837420399e-03  3.7736911693606349e-03 
 3.8230694177686006e-03  3.8730937740074456e-03  3.9237726923124355e-03  3.9751147375413848e-03 
 4.0271285866221428e-03  4.0798230300189897e-03  4.1332069732182824e-03  4.1872894382334810e-03 
 4.2420795651298953e-03  4.2975866135693767e-03  4.3538199643752239e-03  4.4107891211175622e-03 
 4.4685037117194737e-03  4.5269734900841374e-03  4.5862083377432600e-03  4.6462182655270809e-03 
 4.7070134152562256e-03  4.7686040614556939e-03  4.8310006130912889e-03  4.8942136153287442e-03 
 4.9582537513158933e-03  5.0231318439881356e-03  5.0888588578975637e-03  5.1554459010659430e-03 
 5.2229042268620617e-03  5.2912452359035380e-03  5.3604804779835563e-03  5.4306216540228186e-03 
 5.5016806180470130e-03  5.5736693791901912e-03  5.6466001037243233e-03  5.7204851171154406e-03 
 5.7953369061066583e-03  5.8711681208284700e-03  5.9479915769366509e-03  6.0258202577781264e-03 
 6.1046673165852062e-03  6.1845460786984843e-03  6.2654700438188830e-03  6.3474528882891072e-03 
 6.4305084674050180e-03  6.5146508177571427e-03  6.5998941596029665e-03  6.6862528992701507e-03 
 6.7737416315912392e-03  6.8623751423702263e-03  6.9521684108813913e-03  7.0431366124008290e-03 
 7.1352951207711091e-03  7.2286595109994920e-03  7.3232455618901420e-03  7.4190692587107849e-03 
 7.5161467958942529e-03  7.6144945797753825e-03  7.7141292313637286e-03  7.8150675891525499e-03 
 7.9173267119645504e-03  8.0209238818348821e-03  8.1258766069318318e-03  8.2322026245157092e-03 
 8.3399199039365692e-03  8.4490466496710114e-03  8.5596013043987926e-03  8.6716025521197011e-03 
 8.7850693213111699e-03  8.9000207881272525e-03  9.0164763796394421e-03  9.1344557771198733e-03 
 9.2539789193675330e-03  9.3750660060779242e-03  9.4977375012569084e-03  9.6220141366791401e-03 
 9.7479169153917924e-03  9.8754671152641322e-03  1.0004686292583520e-02  1.0135596285698477e-02 
 1.0268219218709435e-02  1.0402577505207690e-02  1.0538693852063467e-02  1.0676591263263350e-02 
 1.0816293043798048e-02  1.0957822803600968e-02  1.1101204461538379e-02  1.1246462249451729e-02 
 1.1393620716252906e-02  1.1542704732073047e-02  1.1693739492465665e-02  1.1846750522664736e-02 
 1.2001763681898552e-02  1.2158805167759971e-02  1.2317901520633872e-02  1.2479079628182557e-02 
 1.2642366729889819e-02  1.2807790421664489e-02  1.2975378660504223e-02  1.3145159769220219e-02 
 1.3317162441223966e-02  1.3491415745376410e-02  1.3667949130900700e-02  1.3846792432359156e-02 
 1.4027975874695384e-02  1.4211530078342373e-02  1.4397486064397421e-02  1.4585875259864760e-02 
 1.4776729502966813e-02  1.4970081048524909e-02  1.5165962573410449e-02  1.5364407182067353e-02 
 1.5565448412106797e-02  1.5769120239975169e-02  1.5975457086696128e-02  1.6184493823687862e-02 
 1.6396265778656501e-02  1.6610808741566400e-02  1.6828158970688949e-02  1.7048353198730194e-02 
 1.7271428639038758e-02  1.7497422991894988e-02  1.7726374450882404e-02  1.7958321709342508e-02 
 1.8193303966914036e-02  1.8431360936157794e-02  1.8672532849268186e-02  1.8916860464872537e-02 
 1.9164385074919407e-02  1.9415148511657033e-02  1.9669193154703061e-02  1.9926561938206813e-02 
 2.0187298358105270e-02  2.0451446479473969e-02  2.0719050943974159e-02  2.0990156977397183e-02 
 2.1264810397307998e-02  2.1543057620788262e-02  2.1824945672280997e-02  2.2110522191537838e-02 
 2.2399835441670221e-02  2.2692934317306027e-02  2.2989868352852834e-02  2.3290687730869383e-02 
 2.3595443290546542e-02  2.3904186536299239e-02  2.4216969646470847e-02  2.4533845482151446e-02 
 2.4854867596111451e-02  2.5180090241852179e-02  2.5509568382774839e-02  2.5843357701469429e-02 
 2.6181514609125298e-02  2.6524096255064609e-02  2.6871160536400936e-02  2.7222766107823881e-02 
 2.7578972391511854e-02  2.7939839587174629e-02  2.8305428682227150e-02  2.8675801462096626e-02 
 2.9051020520664387e-02  2.9431149270844368e-02  2.9816251955300101e-02  3.0206393657301860e-02 
 3.0601640311725829e-02  3.1002058716197340e-02  3.1407716542379796e-02  3.1818682347411316e-02 
 3.2235025585491094e-02  3.2656816619617293e-02  3.3084126733478658e-02  3.3517028143501340e-02 
 3.3955594011054038e-02  3.4399898454812207e-02  3.4850016563284326e-02  3.5306024407502058e-02 
 3.5767999053876398e-02  3.6236018577222140e-02  3.6710162073952675e-02  3.7190509675447431e-02 
 3.7677142561594365e-02  3.8170142974509443e-02  3.8669594232435843e-02  3.9175580743824906e-02 
 3.9688188021601338e-02  4.0207502697615159e-02  4.0733612537282610e-02  4.1266606454418826e-02 
 4.1806574526264399e-02  4.2353608008708542e-02  4.2907799351711844e-02  4.3469242214930301e-02 
 4.4038031483544071e-02  4.4614263284293333e-02  4.5198035001723903e-02  4.5789445294645480e-02 
 4.6388594112805152e-02  4.6995582713779224e-02  4.7610513680085960e-02  4.8233490936522259e-02 
 4.8864619767727213e-02  4.9504006835975417e-02  5.0151760199203248e-02  5.0807989329270754e-02 
 5.1472805130462859e-02  5.2146319958232268e-02  5.2828647638188009e-02  5.3519903485331782e-02 
 5.4220204323547121e-02  5.4929668505342484e-02  5.5648415931853164e-02  5.6376568073104961e-02 
 5.7114247988542782e-02  5.7861580347828109e-02  5.8618691451908379e-02  5.9385709254362165e-02 
 6.0162763383023676e-02  6.0949985161890124e-02  6.1747507633315782e-02  6.2555465580496503e-02 
 6.3373995550248419e-02  6.4203235876084563e-02  6.5043326701593643e-02  6.5894410004124729e-02 
 6.6756629618781690e-02  6.7630131262731361e-02  6.8515062559830670e-02  6.9411573065575077e-02 
 7.0319814292373814e-02  7.1239939735155924e-02  7.2172104897311240e-02  7.3116467316970774e-02 
 7.4073186593631157e-02  7.5042424415127221e-02  7.6024344584957632e-02  7.7019113049968238e-02 
 7.8026897928397204e-02  7.9047869538287643e-02  8.0082200426271635e-02  8.1130065396731038e-02 
 8.2191641541339899e-02  8.3267108268993292e-02  8.4356647336128091e-02  8.5460442877439521e-02 
 8.6578681437001356e-02  8.7711551999791679e-02  8.8859246023631946e-02  9.0021957471543818e-02 
 9.1199882844529331e-02  9.2393221214780122e-02  9.3602174259321033e-02  9.4826946294093967e-02 
 9.6067744308487912e-02  9.7324778000320550e-02  9.8598259811277594e-02  9.9888404962816174e-02 
 1.0119543149253750e-01  1.0251956029103600e-01  1.0386101513923014e-01  1.0522002274618208e-01 
 1.0659681278741216e-01  1.0799161794371384e-01  1.0940467394047854e-01  1.1083621958753284e-01 
 1.1228649681949840e-01  1.1375575073667914e-01  1.1524422964648411e-01  1.1675218510539170e-01 
 1.1827987196146363e-01  1.1982754839741459e-01  1.2139547597424588e-01  1.2298391967544976e-01 
 1.2459314795179241e-01  1.2622343276668266e-01  1.2787504964213450e-01  1.2954827770533087e-01 
 1.3124339973579682e-01  1.3296070221319012e-01  1.3470047536571700e-01  1.3646301321918064e-01 
 1.3824861364667348e-01  1.4005757841891769e-01  1.4189021325526530e-01  1.4374682787536547e-01 
 1.4562773605150794e-01  1.4753325566165118e-01  1.4946370874314466e-01  1.5141942154715388e-01 
 1.5340072459379739e-01  1.5540795272800584e-01  1.5744144517611131e-01  1.5950154560317734e-01 
 1.6158860217107943e-01  1.6370296759734496e-01  1.6584499921476337e-01  1.6801505903177619e-01 
 1.7021351379365773e-01  1.7244073504449481e-01  1.7469709918997994e-01  1.7698298756102429e-01 
 1.7929878647820302e-01  1.8164488731704503e-01  1.8402168657417603e-01  1.8642958593432749e-01 
 1.8886899233822224e-01  1.9134031805134868e-01  1.9384398073363424e-01  1.9638040351003130e-01 
 1.9895001504202581e-01  2.0155324960008275e-01  2.0419054713703830e-01  2.0686235336245323e-01 
 2.0956911981793888e-01  2.1231130395346895e-01  2.1508936920468821e-01  2.1790378507123656e-01 
 2.2075502719609405e-01  2.2364357744596597e-01  2.2656992399271958e-01  2.2953456139588632e-01 
 2.3253799068624353e-01  2.3558071945048956e-01  2.3866326191702755e-01  2.4178613904287125e-01 
 2.4494987860168754e-01  2.4815501527299189e-01  2.5140209073251041e-01  2.5469165374372404e-01 
 2.5802426025061109e-01  2.6140047347160317e-01  2.6482086399477039e-01  2.6828600987425244e-01 
 2.7179649672794948e-01  2.7535291783649546e-01  2.7895587424352247e-01  2.8260597485723854e-01 
 2.8630383655333497e-01  2.9005008427923984e-01  2.9384535115973515e-01  2.9769027860395675e-01 
 3.0158551641379416e-01  3.0553172289370817e-01  3.0952956496198625e-01  3.1357971826345327e-01 
 3.1768286728365686e-01  3.2183970546454727e-01  3.2605093532167090e-01  3.3031726856289667e-01 
 3.3463942620869658e-01  3.3901813871400061e-01  3.4345414609164260e-01  3.4794819803742838e-01 
 3.5250105405683263e-01  3.5711348359335915e-01  3.6178626615857756e-01  3.6652019146386311e-01 
 3.7131605955385960e-01  3.7617468094168877e-01  3.8109687674592935e-01  3.8608347882938732e-01 
 3.9113532993968342e-01  3.9625328385167946e-01  4.0143820551176745e-01  4.0669097118404868e-01 
 4.1201246859842383e-01  4.1740359710062175e-01  4.2286526780419054e-01  4.2839840374447924e-01 
 4.3400394003462972e-01  4.3968282402361736e-01  4.4543601545635264e-01  4.5126448663588087e-01 
 4.5716922258770365e-01  4.6315122122625085e-01  4.6921149352352998e-01  4.7535106367998320e-01 
 4.8157096929757998e-01  4.8787226155517349e-01  4.9425600538615289e-01  5.0072327965841978e-01 
 5.0727517735671879e-01  5.1391280576735521e-01  5.2063728666532827e-01  5.2744975650391501e-01 
 5.3435136660673233e-01  5.4134328336231508e-01  5.4842668842123465e-01  5.5560277889580567e-01 
 5.6287276756239868e-01  5.7023788306640122e-01  5.7769937012986328e-01  5.8525848976185801e-01 
 5.9291651947159396e-01  6.0067475348431942e-01  6.0853450296004774e-01  6.1649709621514737e-01 
 6.2456387894682985e-01  6.3273621446057715e-01  6.4101548390054142e-01  6.4940308648296374e-01 
 6.5790043973264389e-01  6.6650897972250567e-01  6.7523016131629632e-01  6.8406545841446376e-01 
 6.9301636420324408e-01  7.0208439140702050e-01  7.1127107254397370e-01  7.2057796018508080e-01 
 7.3000662721650433e-01  7.3955866710541385e-01  7.4923569416928537e-01  7.5903934384872496e-01 
 7.6897127298386192e-01  7.7903316009435930e-01  7.8922670566308717e-01  7.9955363242350752e-01 
 8.1001568565082260e-01  8.2061463345692842e-01  8.3135226708923049e-01  8.4223040123336990e-01 
 8.5325087431990698e-01  8.6441554883502558e-01  8.7572631163528869e-01  8.8718507426653126e-01 
 8.9879377328691112e-01  9.1055437059419286e-01  9.2246885375731213e-01  9.3453923635228153e-01 
 9.4676755830248838e-01  9.5915588622344672e-01  9.7170631377206085e-01  9.8442096200045726e-01 
 9.9730197971444856e-01  1.0103515438366872e+00  1.0235718597745689e+00  1.0369651617929521e+00 
 1.0505337133917556e+00  1.0642798076884945e+00  1.0782057678058217e+00  1.0923139472641439e+00 
 1.1066067303793645e+00  1.1210865326658506e+00  1.1357558012446511e+00  1.1506170152570714e+00 
 1.1656726862836497e+00  1.1809253587686233e+00  1.1963776104499455e+00  1.2120320527949286e+00 
 1.2278913314415874e+00  1.2439581266457596e+00  1.2602351537340761e+00  1.2767251635628554e+00 
 1.2934309429830055e+00  1.3103553153110108e+00  1.3275011408060764e+00  1.3448713171535189e+00 
 1.3624687799544846e+00  1.3802965032220724e+00  1.3983574998839412e+00  1.4166548222915170e+00 
 1.4351915627358351e+00  1.4539708539701508e+00  1.4729958697393786e+00  1.4922698253164650e+00 
 1.5117959780457761e+00  1.5315776278935980e+00 
  </PP_RAB>
</PP_MESH>


<PP_LOCAL>
-8.6832675861585351e-01 -8.6832676117868612e-01 -8.6832676380887941e-01 -8.6832676620447502e-01 
-8.6832676866385283e-01 -8.6832677118816215e-01 -8.6832677377757961e-01 -8.6832677643646516e-01 
-8.6832677916595469e-01 -8.6832678196598689e-01 -8.6832678484052739e-01 -8.6832678779056671e-01 
-8.6832679081737629e-01 -8.6832679392475165e-01 -8.6832679711370342e-01 -8.6832680038554066e-01 
-8.6832680374262738e-01 -8.6832680718837674e-01 -8.6832681072480689e-01 -8.6832681435262227e-01 
-8.6832681807571044e-01 -8.6832682189642407e-01 -8.6832682581595755e-01 -8.6832682983809495e-01 
-8.6832683396521049e-01 -8.6832683819931256e-01 -8.6832684254348391e-01 -8.6832684700062590e-01 
-8.6832685157377232e-01 -8.6832685626502093e-01 -8.6832686107765866e-01 -8.6832686601567410e-01 
-8.6832687108076345e-01 -8.6832687627623517e-01 -8.6832688160656313e-01 -8.6832688707423900e-01 
-8.6832689268204089e-01 -8.6832689843409494e-01 -8.6832690433458581e-01 -8.6832691038636733e-01 
-8.6832691659301586e-01 -8.6832692295836822e-01 -8.6832692948568713e-01 -8.6832693618042700e-01 
-8.6832694304647917e-01 -8.6832695008602423e-01 -8.6832695730465159e-01 -8.6832696470725479e-01 
-8.6832697229709688e-01 -8.6832698007835973e-01 -8.6832698805615194e-01 -8.6832699623508369e-01 
-8.6832700462013401e-01 -8.6832701321596228e-01 -8.6832702202579193e-01 -8.6832703105681652e-01 
-8.6832704031402774e-01 -8.6832704980015907e-01 -8.6832705952237288e-01 -8.6832706948623273e-01 
-8.6832707969603318e-01 -8.6832709015712095e-01 -8.6832710087543663e-01 -8.6832711185700817e-01 
-8.6832712310688520e-01 -8.6832713463072919e-01 -8.6832714643404718e-01 -8.6832715852295395e-01 
-8.6832717090446598e-01 -8.6832718358292837e-01 -8.6832719656414925e-01 -8.6832720985574252e-01 
-8.6832722346272317e-01 -8.6832723739085349e-01 -8.6832725164599966e-01 -8.6832726623496204e-01 
-8.6832728116387936e-01 -8.6832729643753348e-01 -8.6832731206272906e-01 -8.6832732804570445e-01 
-8.6832734439082737e-01 -8.6832736110450037e-01 -8.6832737819325401e-01 -8.6832739566067119e-01 
-8.6832741351302811e-01 -8.6832743175572291e-01 -8.6832745039167136e-01 -8.6832746942681849e-01 
-8.6832748886599753e-01 -8.6832750871147002e-01 -8.6832752896682419e-01 -8.6832754963587067e-01 
-8.6832757072134281e-01 -8.6832759222418687e-01 -8.6832761414478077e-01 -8.6832763648587230e-01 
-8.6832765924674415e-01 -8.6832768242449243e-01 -8.6832770601855314e-01 -8.6832773002614827e-01 
-8.6832775444288690e-01 -8.6832777926245797e-01 -8.6832780447802771e-01 -8.6832783008103187e-01 
-8.6832785606057117e-01 -8.6832788240613867e-01 -8.6832790910293245e-01 -8.6832793613259418e-01 
-8.6832796347629293e-01 -8.6832799111290193e-01 -8.6832801901763235e-01 -8.6832804716200240e-01 
-8.6832807551292546e-01 -8.6832810403283078e-01 -8.6832813268335340e-01 -8.6832816141879787e-01 
-8.6832819018598661e-01 -8.6832821893050394e-01 -8.6832824758565963e-01 -8.6832827608121466e-01 
-8.6832830434297115e-01 -8.6832833227963035e-01 -8.6832835979440992e-01 -8.6832838678144975e-01 
-8.6832841312071918e-01 -8.6832843868233556e-01 -8.6832846332232694e-01 -8.6832848687804998e-01 
-8.6832850917199544e-01 -8.6832853001170485e-01 -8.6832854918007352e-01 -8.6832856643356415e-01 
-8.6832858151485659e-01 -8.6832859413740837e-01 -8.6832860397407685e-01 -8.6832861067133005e-01 
-8.6832861384184612e-01 -8.6832861305800857e-01 -8.6832860784194110e-01 -8.6832859766602977e-01 
-8.6832858196064400e-01 -8.6832856008500403e-01 -8.6832853132476406e-01 -8.6832849491148767e-01 
-8.6832844998534564e-01 -8.6832839558647079e-01 -8.6832833066688164e-01 -8.6832825406721748e-01 
-8.6832816449830807e-01 -8.6832806053224343e-01 -8.6832794059636687e-01 -8.6832780294067635e-01 
-8.6832764562739162e-01 -8.6832746651826498e-01 -8.6832726322550213e-01 -8.6832703310517878e-01 
-8.6832677323214535e-01 -8.6832648033653692e-01 -8.6832615079554920e-01 -8.6832578058671728e-01 
-8.6832536522579973e-01 -8.6832489972839644e-01 -8.6832437853073585e-01 -8.6832379543875893e-01 
-8.6832314354404116e-01 -8.6832241513170116e-01 -8.6832160161027416e-01 -8.6832069337465079e-01 
-8.6831967966829093e-01 -8.6831854846692580e-01 -8.6831728632768146e-01 -8.6831587820739553e-01 
-8.6831430723107894e-01 -8.6831255447279665e-01 -8.6831059870722005e-01 -8.6830841611964238e-01 
-8.6830597997331749e-01 -8.6830326017918991e-01 -8.6830022292712417e-01 -8.6829683016539405e-01 
-8.6829303902767652e-01 -8.6828880126015950e-01 -8.6828406246463807e-01 -8.6827876123231917e-01 
-8.6827282824014584e-01 -8.6826618531945376e-01 -8.6825874400431580e-01 -8.6825040429311728e-01 
-8.6824105318174483e-01 -8.6823056255249886e-01 -8.6821878741582748e-01 -8.6820556348920663e-01 
-8.6819070449898417e-01 -8.6817399908502491e-01 -8.6815520735918161e-01 -8.6813405701168400e-01 
-8.6811023852614488e-01 -8.6808340023703512e-01 -8.6805314207990869e-01 -8.6801900911205376e-01 
-8.6798048357026880e-01 -8.6793697537244907e-01 -8.6788781310735241e-01 -8.6783223180283220e-01 
-8.6776935852753223e-01 -8.6769819858220520e-01 -8.6761761801012660e-01 -8.6752632253107254e-01 
-8.6742283489365302e-01 -8.6730546937470399e-01 -8.6717230222393982e-01 -8.6702113628806565e-01 
-8.6684946276267394e-01 -8.6665441741265059e-01 -8.6643272883046174e-01 -8.6618066177455100e-01 
-8.6589395083449427e-01 -8.6556772584445307e-01 -8.6519642724957369e-01 -8.6477371023462768e-01 
-8.6429233622669099e-01 -8.6374404692055373e-01 -8.6311942779517148e-01 -8.6240775002599113e-01 
-8.6159679460213401e-01 -8.6067265299304496e-01 -8.5961950606813564e-01 -8.5841937762892906e-01 
-8.5705185514301541e-01 -8.5549379438182571e-01 -8.5371897516346984e-01 -8.5169773247408842e-01 
-8.4939656218958337e-01 -8.4677768379578622e-01 -8.4379857170574757e-01 -8.4041145718817734e-01 
-8.3656280678032191e-01 -8.3219278930282359e-01 -8.2723472729299918e-01 -8.2161453671390516e-01 
-8.1525020673934767e-01 -8.0805134334296347e-01 -7.9991875149924785e-01 -7.9074412399944916e-01 
-7.8040994950101339e-01 -7.6878957088430633e-01 -7.5574751736007872e-01 -7.4114027625737389e-01 
-7.2481742241903502e-01 -7.0662329262759982e-01 -6.8639943251357127e-01 -6.6398768652938345e-01 
-6.3923419669109793e-01 -6.1199456364875660e-01 -5.8213995531287732e-01 -5.4956445712161806e-01 
-5.1419378813119365e-01 -4.7599511799755040e-01 -4.3498812863767949e-01 -3.9125697901607187e-01 
-3.4496280907725807e-01 -2.9635656062783094e-01 -2.4579113442612205e-01 -1.9373205731335638e-01 
-1.4076573289172123e-01 -8.7603924690145787e-02 -3.5082998539085967e-02 1.5843898035203467e-02 
6.4122652305036859e-02 1.0862393570459727e-01 1.4817977513209588e-01 1.8163132707496005e-01 
2.0788796917674138e-01 2.2599548644383394e-01 2.3521198799988591e-01 2.3508654092626721e-01 
2.2553458425172782e-01 2.0690449503518110e-01 1.8002639505900003e-01 1.4623469948019222e-01 
1.0735675619900766e-01 6.5660907478656771e-02 2.3759602427623198e-02 -1.5532425242530398e-02 
-4.9380432409065166e-02 -7.5142483467160057e-02 -9.0597218024935755e-02 -9.4472848907583659e-02 
-9.4563347682155713e-02 -9.4656201573845355e-02 -9.4751493144389298e-02 -9.4849322867033445e-02 
-9.4949728819926651e-02 -9.5052743433814646e-02 -9.5158482462418786e-02 -9.5267000179600242e-02 
-9.5378359580739994e-02 -9.5492656394409639e-02 -9.5609952598878389e-02 -9.5730333753746746e-02 
-9.5853890755813922e-02 -9.5980682472578696e-02 -9.6110798525367108e-02 -9.6244352100595468e-02 
-9.6381404268358575e-02 -9.6522049884976757e-02 -9.6666401482909697e-02 -9.6814545432205829e-02 
-9.6966582243282473e-02 -9.7122603776941402e-02 -9.7282726451762558e-02 -9.7447061784206659e-02 
-9.7615702152776609e-02 -9.7788774354603092e-02 -9.7966393491929496e-02 -9.8148672296509532e-02 
-9.8335737827901379e-02 -9.8527709972649841e-02 -9.8724726358185008e-02 -9.8926916816349145e-02 
-9.9134399887447891e-02 -9.9347331992813967e-02 -9.9565857713860700e-02 -9.9790109000743935e-02 
-1.0002024575494961e-01 -1.0025641605580969e-01 -1.0049878012588108e-01 -1.0074750502069331e-01 
-1.0100274502670588e-01 -1.0126467250491759e-01 -1.0153347226349037e-01 -1.0180931904780212e-01 
-1.0209238933782079e-01 -1.0238287482815489e-01 -1.0268097518368864e-01 -1.0298688408177344e-01 
-1.0330080262508037e-01 -1.0362294128107220e-01 -1.0395351111222871e-01 -1.0429273792756658e-01 
-1.0464084561703439e-01 -1.0499806142946574e-01 -1.0536462368837837e-01 -1.0574077334839962e-01 
-1.0612676331087602e-01 -1.0652285045310647e-01 -1.0692928667821994e-01 -1.0734634468282470e-01 
-1.0777431211562724e-01 -1.0821345938657169e-01 -1.0866407416192372e-01 -1.0912646608403555e-01 
-1.0960092911668935e-01 -1.1008777400294707e-01 -1.1058732837041348e-01 -1.1109991938429715e-01 
-1.1162588220563399e-01 -1.1216556290826277e-01 -1.1271931862699244e-01 -1.1328750421706049e-01 
-1.1387049423500240e-01 -1.1446867753586160e-01 -1.1508243986253590e-01 -1.1571218261076466e-01 
-1.1635831776042946e-01 -1.1702126460454088e-01 -1.1770145583217111e-01 -1.1839933412624377e-01 
-1.1911535643847272e-01 -1.1984998618439704e-01 -1.2060369625813656e-01 -1.2137697999972888e-01 
-1.2217033460082991e-01 -1.2298427555762236e-01 -1.2381932946554899e-01 -1.2467603012288990e-01 
-1.2555493385932179e-01 -1.2645660652780039e-01 -1.2738162584203092e-01 -1.2833058482152360e-01 
-1.2930409331038148e-01 -1.3030277316235092e-01 -1.3132726327783437e-01 -1.3237821848000089e-01 
-1.3345630715699686e-01 -1.3456221344746574e-01 -1.3569664090194580e-01 -1.3686031148020839e-01 
-1.3805395820649619e-01 -1.3927833489656441e-01 -1.4053421657019433e-01 -1.4182239304874542e-01 
-1.4314367135120928e-01 -1.4449888205890379e-01 -1.4588887409514145e-01 -1.4731451292369774e-01 
-1.4877668741302641e-01 -1.5027630736979855e-01 -1.5181430351225925e-01 -1.5339162813499277e-01 
-1.5500925392587275e-01 -1.5666817777351791e-01 -1.5836941853217035e-01 -1.6011401788807647e-01 
-1.6190304504934064e-01 -1.6373758984657202e-01 -1.6561876422517660e-01 -1.6754771068704358e-01 
-1.6952559504881953e-01 -1.7155360741943460e-01 -1.7363296808460665e-01 -1.7576492049907588e-01 
-1.7795073538826192e-01 -1.8019171399783412e-01 -1.8248918433992370e-01 -1.8484450231032473e-01 
-1.8725905329759779e-01 -1.8973425253702347e-01 -1.9227154478718297e-01 -1.9487240485412036e-01 
-1.9753833890824837e-01 -2.0027088415658886e-01 -2.0307160760904303e-01 -2.0594211005005336e-01 
-2.0888402542097109e-01 -2.1189901822823351e-01 -2.1498878583513262e-01 -2.1815506033088883e-01 
-2.2139960742008019e-01 -2.2472422585007243e-01 -2.2813074897439553e-01 -2.3162104482701790e-01 
-2.3519701643634316e-01 -2.3886060130057582e-01 -2.4261377228480865e-01 -2.4645853823483382e-01 
-2.5039694239217664e-01 -2.5443106399263837e-01 -2.5856301915509056e-01 -2.6279495862036356e-01 
-2.6712906839575340e-01 -2.7156757134404103e-01 -2.7611272568561152e-01 -2.8076682464033631e-01 
-2.8553219749667580e-01 -2.9041120845013069e-01 -2.9540625620592786e-01 -3.0051977421440834e-01 
-3.0575423055456191e-01 -3.1111212677116884e-01 -3.1659599682863038e-01 -3.2220840809890433e-01 
-3.2795195999893878e-01 -3.3382928269265999e-01 -3.3984303694273388e-01 -3.4599591296076099e-01 
-3.5229062960357999e-01 -3.5872993297532807e-01 -3.6531659536972039e-01 -3.7205341423018895e-01 
-3.7894321074436693e-01 -3.8598882807869567e-01 -3.9319312962499853e-01 -4.0055899805319606e-01 
3.1119106671001351e+00 3.1042129515207328e+00 3.0963449277041462e+00 3.0883036574294755e+00 
3.0800861942831146e+00 3.0716895859399691e+00 3.0631108767045787e+00 3.0543471106315350e+00 
3.0453953343330680e+00 3.0362525999808621e+00 3.0269159686873301e+00 3.0173825138953543e+00 
3.0076493250860694e+00 2.9977135114783748e+00 2.9875722059399221e+00 2.9772225692355754e+00 
2.9666617942513178e+00 2.9558871105784679e+00 2.9448957891301082e+00 2.9336851470379286e+00 
2.9222525527411913e+00 2.9105954311960174e+00 2.8987112693691799e+00 2.8865976218166369e+00 
2.8742521165032868e+00 2.8616724608591007e+00 2.8488564479063796e+00 2.8358019626357192e+00 
2.8225069886730263e+00 2.8089696147617866e+00 2.7951880418585340e+00 2.7811605901648990e+00 
2.7668857061156324e+00 2.7523619700120694e+00 2.7375881033653293e+00 2.7225629765536015e+00 
2.7072856165304691e+00 2.6917552145554158e+00 2.6759711343484507e+00 2.6599329199109749e+00 
2.6436403036879383e+00 2.6270932146967985e+00 2.6102917864226116e+00 2.5932363652170167e+00 
2.5759275183471466e+00 2.5583660421010981e+00 2.5405529697176026e+00 2.5224895791847040e+00 
2.5041774015473641e+00 2.4856182282928332e+00 2.4668141185886103e+00 2.4477674069711779e+00 
2.4284807104519781e+00 2.4089569352461391e+00 2.3891992831682609e+00 2.3692112579687818e+00 
2.3489966712712018e+00 2.3285596477414070e+00 2.3079046304037028e+00 2.2870363851945963e+00 
2.2659600045541950e+00 2.2446809111708124e+00 2.2232048611774875e+00 2.2015379460204887e+00 
2.1796865939331491e+00 2.1576575713613519e+00 2.1354579828625266e+00 2.1130952702329475e+00 
2.0905772114308196e+00 2.0679119182045920e+00 2.0451078329561181e+00 2.0221737245796381e+00 
1.9991186834296846e+00 1.9759521153243076e+00 1.9526837345468711e+00 1.9293235559672410e+00 
1.9058818855795718e+00 1.8823693105173407e+00 1.8587966877108653e+00 1.8351751314547129e+00 
1.8115160000285842e+00 1.7878308805670220e+00 1.7641315735745648e+00 1.7404300760034499e+00 
1.7167385626421654e+00 1.6930693671627530e+00 1.6694349615803206e+00 1.6458479345197559e+00 
1.6223209685579152e+00 1.5988668164162227e+00 1.5754982759098339e+00 1.5522281639266740e+00 
1.5290692897455136e+00 1.5060344265166985e+00 1.4831362824843923e+00 1.4603874713089564e+00 
1.4378004809362301e+00 1.4153876422942164e+00 1.3931610967627461e+00 1.3711327632037213e+00 
1.3493143044838107e+00 1.3277170928168793e+00 1.3063521753837950e+00 1.2852302391792467e+00 
1.2643615752627848e+00 1.2437560434033990e+00 1.2234230359794251e+00 1.2033714421407948e+00 
1.1836096120753432e+00 1.1641453209295469e+00 1.1449857337015406e+00 1.1261373701092257e+00 
1.1076060697351771e+00 1.0893969582474785e+00 1.0715144140896129e+00 1.0539620360287272e+00 
1.0367426116838552e+00 1.0198580872087504e+00 1.0033095382411090e+00 9.8709714214567434e-01 
9.7122015183149135e-01 9.5567687116780764e-01 9.4046463210999132e-01 9.2557977401526392e-01 
9.1101762461330860e-01 8.9677248329102255e-01 8.8283760689097068e-01 8.6920519748339653e-01 
8.5586639290489241e-01 8.4281125987519712e-01 8.3002878978708527e-01 8.1750689724041214e-01 
8.0523242143297258e-01 7.9319113055558277e-01 7.8136772901130913e-01 7.6974586764230424e-01 
7.5830815699385801e-01 7.4703618352951062e-01 7.3591052886517294e-01 7.2491079191647567e-01 
7.1401561385820966e-01 7.0320270596084467e-01 6.9244888011829686e-01 6.8173008194624374e-01 
6.7102142634908268e-01 6.6029723541992524e-01 6.4953107844077862e-01 6.3869581382278573e-01 
6.2776363291714687e-01 6.1670610525188541e-01 6.0549422508156514e-01 5.9409845910285242e-01 
5.8248879497076334e-01 5.7063479035138831e-01 5.5850562228494316e-01 5.4607013676666261e-01 
5.3329689797432456e-01 5.2015423704100816e-01 5.0661030026196430e-01 4.9263309625384655e-01 
4.7819054194790023e-01 4.6325050717845767e-01 4.4778085769468745e-01 4.3174949633308435e-01 
4.1512440220254349e-01 3.9787366774641697e-01 3.7996553353115931e-01 3.6136842062002611e-01 
3.4205096042615524e-01 3.2198202207893167e-01 3.0113073711934252e-01 2.7946652151734563e-01 
2.5695909509242315e-01 2.3357849828494825e-01 2.0929510628638084e-01 1.8407964063327942e-01 
1.5790317835089193e-01 1.3073715868326344e-01 1.0255338753925798e-01 7.3324039795451143e-02 
4.3021659577885035e-02 1.1619158663807236e-02 -2.0910186846939714e-02 -5.4592741401032478e-02 
-8.9454516250899507e-02 -1.2552117693766329e-01 -1.6281805179319911e-01 -2.0137014130236539e-01 
-2.4120212814569220e-01 -2.8233838773717773e-01 -3.2480299908702559e-01 -3.6861975581303330e-01 
-4.1381217715882201e-01 -4.6040351883179853e-01 -5.0841678350698361e-01 -5.5787473088703776e-01 
-6.0879988715112610e-01 -6.6121455367154691e-01 -7.1514081488649639e-01 -7.7060054521245369e-01 
-8.2761541490673263e-01 -8.8620689477906101e-01 -9.4639625967290364e-01 -1.0082045906582602e+00 
-1.0716527758565819e+00 -1.1367615098486743e+00 -1.2035512916270559e+00 -1.2720424210494188e+00 
-1.3422549937622623e+00 -1.4142088945689804e+00 -1.4879237892336556e+00 -1.5634191146991925e+00 
-1.6407140677116936e+00 -1.7198275918602652e+00 -1.8007783630206071e+00 -1.8835847732043915e+00 
-1.9682649128321632e+00 -2.0548365514268054e+00 -2.1433171167328884e+00 -2.2337236722792064e+00 
-2.3260728933841093e+00 -2.4203810416104616e+00 -2.5166639376790658e+00 -2.6149369328386749e+00 
-2.7152148786948023e+00 -2.8175120954959101e+00 -2.9218423388700745e+00 -3.0282187650047323e+00 
-3.1366538942605877e+00 -3.2471595732062482e+00 -3.3597469350520508e+00 -3.4744263584717303e+00 
-3.5912074247958601e+00 -3.7100988735480769e+00 -3.8311085563127274e+00 -3.9542433889161774e+00 
-4.0795093019034256e+00 -4.2069111893056519e+00 -4.3364528556936150e+00 -4.4681369615176489e+00 
-4.6019649667532541e+00 -4.7379370728777852e+00 -4.8760521632141067e+00 -5.0163077417023043e+00 
-5.1586998701751083e+00 -5.3032231042259292e+00 -5.4498704277966725e+00 -5.5986331866262500e+00 
-5.7495010207218042e+00 -5.9024617960650270e+00 -6.0575015357736959e+00 -6.2146043509780577e+00 
-6.3737523717035343e+00 -6.5349256780799303e+00 -6.6981022322355512e+00 -6.8632578112506346e+00 
-7.0303659415842246e+00 -7.1993978354125936e+00 -7.3703223293405919e+00 -7.5431058259573813e+00 
-7.7177122387389927e+00 -7.8941029408034922e+00 -8.0722367180165762e+00 -8.2520697269686156e+00 
-8.4335554583225854e+00 -8.6166447060093301e+00 -8.8012855427366041e+00 -8.9874233022552819e+00 
-9.1750005687668796e+00 -9.3639571738297640e+00 -9.5542302010643265e+00 -9.7457539988885014e+00 
-9.9384602014680912e+00 -1.0132277757972945e+01 -1.0327132970160838e+01 -1.0522949538228687e+01 
-1.0719648614778610e+01 -1.0917148866655625e+01 -1.1115366544317681e+01 -1.1314215558307488e+01 
-1.1513607562298937e+01 -1.1713452042089218e+01 -1.1913656409825736e+01 -1.2114126102661119e+01 
-1.2314764684939885e+01 -1.2515473952958208e+01 -1.2716154041248540e+01 -1.2916703529288190e+01 
-1.3117019547482947e+01 -1.3316997881221880e+01 -1.3516533071788245e+01 -1.3715518512888798e+01 
-1.3913846541564350e+01 -1.4111408522272528e+01 -1.4308094922957626e+01 -1.4503795381980003e+01 
-1.4698398764854806e+01 -1.4891793209831153e+01 -1.5083866161450455e+01 -1.5274504355062517e+01 
-1.5463593976063985e+01 -1.5651020416182091e+01 -1.5836668417795270e+01 -1.6020421996441680e+01 
-1.6202164392511790e+01 -1.6381778008431876e+01 -1.6559144333674876e+01 -1.6734143855903469e+01 
-1.6906655961483082e+01 -1.7076558824844209e+01 -1.7243729288672270e+01 -1.7408042736804092e+01 
-1.7569372960753185e+01 -1.7727592022914912e+01 -1.7882570117913623e+01 -1.8034175435844865e+01 
-1.8182274029114460e+01 -1.8326729687791914e+01 -1.8467403826604286e+01 -1.8604155387734941e+01 
-1.8736840766368278e+01 -1.8865313762099721e+01 -1.8989425565252780e+01 -1.9109024783289787e+01 
-1.9223957516808166e+01 -1.9334067491908229e+01 -1.9439196258848547e+01 -1.9539183465134244e+01 
-1.9633867211293868e+01 -1.9723084497319846e+01 -1.9806671764764779e+01 -1.9884465538213792e+01 
-1.9956303165848173e+01 -2.0022023653715468e+01 -2.0081468584213045e+01 -2.0134483100689653e+01 
-2.0180916935030918e+01 -2.0220625445185679e+01 -2.0253470624757188e+01 -2.0279322037436636e+01 
-2.0298057627002837e+01 -2.0309578419029432e+01 -2.0313745269816337e+01 -2.0310486213183101e+01 
-2.0299722529974446e+01 -2.0281371617735797e+01 -2.0255365531729559e+01 -2.0221643096715979e+01 
-2.0180148428316436e+01 -2.0130829233249536e+01 -2.0073634978490166e+01 -2.0008515041034510e+01 
-1.9935416969347816e+01 -1.9854285001934958e+01 -1.9765058995377299e+01 -1.9667673916384206e+01 
-1.9562060043495777e+01 -1.9448144008777142e+01 -1.9325850783118913e+01 -1.9195106672880648e+01 
-1.9055843348474813e+01 -1.8908002869455576e+01 -1.8751543604481029e+01 -1.8586446871896900e+01 
-1.8412724049564158e+01 -1.8230423824862687e+01 -1.8039639182393064e+01 -1.7840513663314795e+01 
-1.7633246382928313e+01 -1.7418095269107006e+01 -1.7195377991078129e+01 -1.6965470095541150e+01 
-1.6728799962937515e+01 -1.6485840353090445e+01 -1.6237096531211591e+01 -1.5983091264568101e+01 
-1.5724347349833899e+01 -1.5461368771726107e+01 -1.5194622078089607e+01 -1.4924520056661027e+01 
-1.4651410259978954e+01 -1.4375571285878101e+01 -1.4097219904364644e+01 -1.3816532049778075e+01 
-1.3533680295847981e+01 -1.3248889643655710e+01 -1.6482512240955813e+01 -1.6195120007180737e+01 
-1.5907612072085483e+01 -1.5621331490952345e+01 -1.5338182957512318e+01 -1.5060740383118993e+01 
-1.4792330570797912e+01 -1.4537077664753433e+01 -1.4299890896664364e+01 -1.4086402614393590e+01 
-1.3902652209386080e+01 -1.3756604272854855e+01 -1.3641509977047789e+01 -1.3472768845725474e+01 
-1.3294283228631663e+01 -1.3119708104252695e+01 -1.2947449421789607e+01 -1.2777598148262296e+01 
-1.2610089620041752e+01 -1.2444877967905153e+01 -1.2281917493280131e+01 -1.2121164751871706e+01 
-1.1962578489178503e+01 -1.1806119778224982e+01 -1.1651752100093127e+01 -1.1499441379624473e+01 
-1.1349155963523707e+01 -1.1200866534665247e+01 -1.1054545960870685e+01 -1.0910169081202936e+01 
-1.0767712437583373e+01 -1.0627153963499474e+01 -1.0488472644724473e+01 -1.0351648168510275e+01 
-1.0216660578489673e+01 -1.0083489951553199e+01 -9.9521161109446048e+00 -9.8225183874372100e+00 
-9.6946754369260155e+00 -9.5685651192171193e+00 -9.4441644392616411e+00 -9.3214495486561315e+00 
-9.2003958022806795e+00 -9.0809778625163560e+00 -8.9631698416927161e+00 -8.8469454723310257e+00 
-8.7322782943389452e+00 -8.6191418485585238e+00 -8.5075098668436109e+00 -8.3973564501971527e+00 
-8.2886562279696907e+00 -8.1813844930607473e+00 -8.0755173097916195e+00 -7.9710315929786608e+00 
-7.8679051583244233e+00 -7.7661167455809466e+00 -7.6656460170487914e+00 -7.5664735346693890e+00 
-7.4685807194483518e+00 -7.3719497970820687e+00 -7.2765637335928401e+00 -7.1824061645419492e+00 
-7.0894613209985193e+00 -6.9977139549974252e+00 -6.9071492668481707e+00 -6.8177528359209205e+00 
-6.7295105565601165e+00 -6.6424085799606924e+00 -6.5564332627667099e+00 -6.4715711227944031e+00 
-6.3878088020398840e+00 -6.3051330369354872e+00 -6.2235306356277711e+00 -6.1429884618910355e+00 
-6.0634934251534274e+00 -5.9850324759912059e+00 -5.9075926063597262e+00 -5.8311608537625403e+00 
-5.7557243085320442e+00 -5.6812701234001057e+00 -5.6077855245732779e+00 -5.5352578235921595e+00 
-5.4636744293472415e+00 -5.3930228597214009e+00 -5.3232907524501893e+00 -5.2544658748981385e+00 
-5.1865361325579196e+00 -5.1194895761695456e+00 -5.0533144074431151e+00 -4.9879989834241103e+00 
-4.9235318195930544e+00 -4.8599015918139381e+00 -4.7970971372710505e+00 -4.7351074545370340e+00 
-4.6739217029126268e+00 -4.6135292011684772e+00 -4.5539194258137066e+00 -4.4950820089974606e+00 
-4.4370067361332195e+00 -4.3796835433282286e+00 -4.3231025146795581e+00 -4.2672538794903430e+00 
-4.2121280094510203e+00 -4.1577154158132146e+00 -4.1040067465872285e+00 -4.0509927837801492e+00 
-3.9986644406873038e+00 -3.9470127592510953e+00 -3.8960289074892258e+00 -3.8457041770016165e+00 
-3.7960299805544473e+00 -3.7469978497447514e+00 -3.6985994327441376e+00 -3.6508264921199336e+00 
-3.6036709027339691e+00 -3.5571246497137397e+00 -3.5111798264963840e+00 -3.4658286329408834e+00 
-3.4210633735032778e+00 -3.3768764554789099e+00 -3.3332603872998194e+00 -3.2902077768898810e+00 
-3.2477113300731588e+00 -3.2057638490309897e+00 -3.1643582308096727e+00 -3.1234874658685254e+00 
-3.0831446366732975e+00 -3.0433229163266411e+00 -3.0040155672376994e+00 -2.9652159398251543e+00 
-2.9269174712527231e+00 -2.8891136841980578e+00 -2.8517981856474397e+00 -2.8149646657200886e+00 
-2.7786068965172626e+00 -2.7427187309961583e+00 -2.7072941018667667e+00 -2.6723270205098153e+00 
-2.6378115759172065e+00 -2.6037419336491832e+00 -2.5701123348131727e+00 -2.5369170950590441e+00 
-2.5041506035898888e+00 -2.4718073221932162e+00 -2.4398817842827825e+00 -2.4083685939593797e+00 
-2.3772624250834555e+00 -2.3465580203646832e+00 -2.3162501904608770e+00 -2.2863338130941613e+00 
-2.2568038321767219e+00 -2.2276552569520032e+00 -2.1988831611440536e+00 -2.1704826821220271e+00 
-2.1424490200749382e+00 -2.1147774371969654e+00 -2.0874632568847229e+00 -2.0605018629455478e+00 
-2.0338886988139508e+00 -2.0076192667823034e+00 -1.9816891272387460e+00 -1.9560938979154006e+00 
-1.9308292531481817e+00 -1.9058909231445855e+00 -1.8812746932617346e+00 -1.8569764032936373e+00 
-1.8329919467682676e+00 -1.8093172702526472e+00 -1.7859483726680276e+00 -1.7628813045797480e+00 
-1.7401121676745355e+00 -1.7176371138672981e+00 -1.6954523448204437e+00 -1.6735541112552077e+00 
-1.6519387123179952e+00 -1.6306024949549358e+00 -1.6095418532945163e+00 -1.5887532280381678e+00 
-1.5682331058587449e+00 -1.5479780188067582e+00 -1.5279845437242878e+00 -1.5082493016664578e+00 
-1.4887689573303886e+00 -1.4695402184915194e+00 -1.4505598354472258e+00 -1.4318246004675956e+00 
-1.4133313472533255e+00 -1.3950769504006066e+00 -1.3770583248729238e+00 -1.3592724254796764e+00 
-1.3417162463615344e+00 -1.3243868204824425e+00 -1.3072812191281808e+00 -1.2903965514114075e+00 
-1.2737299637830914e+00 -1.2572786395502555e+00 -1.2410397983999479e+00 -1.2250106959293645e+00 
-1.2091886231820370e+00 -1.1935709061900135e+00 -1.1781549055219505e+00 -1.1629380158370413e+00 
-1.1479176654447154e+00 -1.1330913158700049e+00 -1.1184564614245431e+00 -1.1040106287830971e+00 
-1.0897513765655673e+00 -1.0756762949243908e+00 -1.0617830051372701e+00 -1.0480691592051641e+00 
-1.0345324394554694e+00 -1.0211705581503301e+00 -1.0079812571000031e+00 -9.9496230728121871e-01 
-9.8211150846047146e-01 -9.6942668882217464e-01 -9.5690570460161772e-01 -9.4454643972266672e-01 
-9.3234680544014070e-01 -9.2030473998680817e-01 -9.0841820822494945e-01 -8.9668520130240348e-01 
-8.8510373631307548e-01 -8.7367185596181707e-01 -8.6238762823363957e-01 -8.5124914606719959e-01 
-8.4025452703250014e-01 -8.2940191301275656e-01 -8.1868946989036850e-01 -8.0811538723695231e-01 
-7.9767787800737200e-01 -7.8737517823772507e-01 -7.7720554674722975e-01 -7.6716726484395903e-01 
-7.5725863603437937e-01 -7.4747798573663804e-01 -7.3782366099755636e-01 -7.2829403021327377e-01 
-7.1888748285350845e-01 -7.0960242918936733e-01 -7.0043730002468163e-01 -6.9139054643080855e-01 
-6.8246063948485880e-01 -6.7364607001130405e-01 -6.6494534832692420e-01 -6.5635700398904595e-01 
-6.4787958554703495e-01 -6.3951166029699746e-01 -6.3125181403964992e-01 -6.2309865084131533e-01 
-6.1505079279800789e-01 -6.0710687980256361e-01 -5.9926556931477948e-01 -5.9152553613451930e-01 
-5.8388547217775388e-01 -5.7634408625548950e-01 -5.6890010385555767e-01 -5.6155226692721516e-01 
-5.5429933366853179e-01 -5.4714007831652467e-01 -5.4007329093999934e-01 -5.3309777723506924e-01 
-5.2621235832331636e-01 -5.1941587055255645e-01 -5.1270716530017990e-01 -5.0608510877903168e-01 
-4.9954858184579881e-01 -4.9309647981187155e-01 -4.8672771225665007e-01 -4.8044120284325886e-01 
-4.7423588913664483e-01 -4.6811072242402202e-01 -4.6206466753763775e-01 -4.5609670267982516e-01 
-4.5020581925032049e-01 -4.4439102167580269e-01 -4.3865132724164158e-01 -4.3298576592581689e-01 
-4.2739338023498175e-01 -4.2187322504264391e-01 -4.1642436742943728e-01 -4.1104588652545654e-01 
-4.0573687335462766e-01 -4.0049643068108859e-01 -3.9532367285755482e-01 -3.9021772567564278e-01 
-3.8517772621812574e-01 -3.8020282271309991e-01 -3.7529217439003204e-01 -3.7044495133766764e-01 
-3.6566033436377438e-01 -3.6093751485669473e-01 -3.5627569464869263e-01 -3.5167408588105692e-01 
-3.4713191087095346e-01 -3.4264840197999463e-01 -3.3822280148450690e-01 -3.3385436144747299e-01 
-3.2954234359212936e-01 -3.2528601917719546e-01 -3.2108466887371462e-01 -3.1693758264348609e-01 
-3.1284405961906647e-01 -3.0880340798532152e-01 -3.0481494486250799e-01 -3.0087799619086542e-01 
-2.9699189661669784e-01 -2.9315598937992793e-01 -2.8936962620310275e-01 -2.8563216718183310e-01 
-2.8194298067664997e-01 -2.7830144320625266e-01 -2.7470693934214174e-01 -2.7115886160460856e-01 
-2.6765661036007088e-01 -2.6419959371973278e-01 -2.6078722743955390e-01 -2.5741893482151107e-01 
-2.5409414661613505e-01 -2.5081230092630585e-01 -2.4757284311229069e-01 -2.4437522569800882e-01 
-2.4121890827850664e-01 -2.3810335742862787e-01 -2.3502804661286350e-01 -2.3199245609636623e-01 
-2.2899607285711374e-01 -2.2603839049920646e-01 -2.2311890916728724e-01 -2.2023713546206186e-01 
-2.1739258235691530e-01 -2.1458476911560237e-01 -2.1181322121100249e-01 -2.0907747024492324e-01 
-2.0637705386894001e-01 -2.0371151570625795e-01 
</PP_LOCAL>


<PP_NONLOCAL>
  <PP_BETA>
  1  0      Beta    L
  1185  
 0.0000000000000000e+00  0.0000000000000000e+00  0.0000000000000000e+00  0.0000000000000000e+00 
 0.0000000000000000e+00  0.0000000000000000e+00  0.0000000000000000e+00  0.0000000000000000e+00 
 0.0000000000000000e+00  0.0000000000000000e+00  0.0000000000000000e+00  0.0000000000000000e+00 
 0.0000000000000000e+00  0.0000000000000000e+00  0.0000000000000000e+00  0.0000000000000000e+00 
 0.0000000000000000e+00  0.0000000000000000e+00  0.0000000000000000e+00  0.0000000000000000e+00 
 0.0000000000000000e+00  0.0000000000000000e+00  0.0000000000000000e+00  0.0000000000000000e+00 
 0.0000000000000000e+00  0.0000000000000000e+00  0.0000000000000000e+00  0.0000000000000000e+00 
 0.0000000000000000e+00  0.0000000000000000e+00  0.0000000000000000e+00  0.0000000000000000e+00 
 0.0000000000000000e+00  0.0000000000000000e+00  0.0000000000000000e+00  0.0000000000000000e+00 
 0.0000000000000000e+00  0.0000000000000000e+00  0.0000000000000000e+00  0.0000000000000000e+00 
 0.0000000000000000e+00  0.0000000000000000e+00  0.0000000000000000e+00  0.0000000000000000e+00 
 0.0000000000000000e+00  0.0000000000000000e+00  0.0000000000000000e+00  0.0000000000000000e+00 
 0.0000000000000000e+00  0.0000000000000000e+00  0.0000000000000000e+00  0.0000000000000000e+00 
 0.0000000000000000e+00  0.0000000000000000e+00  0.0000000000000000e+00  0.0000000000000000e+00 
 0.0000000000000000e+00  0.0000000000000000e+00  0.0000000000000000e+00  0.0000000000000000e+00 
 0.0000000000000000e+00  0.0000000000000000e+00  0.0000000000000000e+00  0.0000000000000000e+00 
 0.0000000000000000e+00  0.0000000000000000e+00  0.0000000000000000e+00  0.0000000000000000e+00 
 0.0000000000000000e+00  0.0000000000000000e+00  0.0000000000000000e+00  0.0000000000000000e+00 
 0.0000000000000000e+00  0.0000000000000000e+00  0.0000000000000000e+00  0.0000000000000000e+00 
 0.0000000000000000e+00  0.0000000000000000e+00  0.0000000000000000e+00  0.0000000000000000e+00 
 0.0000000000000000e+00  0.0000000000000000e+00  0.0000000000000000e+00  0.0000000000000000e+00 
 0.0000000000000000e+00  0.0000000000000000e+00  0.0000000000000000e+00  0.0000000000000000e+00 
 0.0000000000000000e+00  0.0000000000000000e+00  0.0000000000000000e+00  0.0000000000000000e+00 
 0.0000000000000000e+00  0.0000000000000000e+00  0.0000000000000000e+00  0.0000000000000000e+00 
 0.0000000000000000e+00  0.0000000000000000e+00  0.0000000000000000e+00  0.0000000000000000e+00 
 0.0000000000000000e+00  0.0000000000000000e+00  0.0000000000000000e+00  0.0000000000000000e+00 
 0.0000000000000000e+00  0.0000000000000000e+00  0.0000000000000000e+00  0.0000000000000000e+00 
 0.0000000000000000e+00  0.0000000000000000e+00  0.0000000000000000e+00  0.0000000000000000e+00 
 0.0000000000000000e+00  0.0000000000000000e+00  0.0000000000000000e+00  0.0000000000000000e+00 
 0.0000000000000000e+00  0.0000000000000000e+00  0.0000000000000000e+00  0.0000000000000000e+00 
 0.0000000000000000e+00  0.0000000000000000e+00  0.0000000000000000e+00  0.0000000000000000e+00 
 0.0000000000000000e+00  0.0000000000000000e+00  0.0000000000000000e+00  0.0000000000000000e+00 
 0.0000000000000000e+00  0.0000000000000000e+00  0.0000000000000000e+00  0.0000000000000000e+00 
 0.0000000000000000e+00  0.0000000000000000e+00  0.0000000000000000e+00  0.0000000000000000e+00 
 0.0000000000000000e+00  0.0000000000000000e+00  0.0000000000000000e+00  0.0000000000000000e+00 
 0.0000000000000000e+00  0.0000000000000000e+00  0.0000000000000000e+00  0.0000000000000000e+00 
 0.0000000000000000e+00  0.0000000000000000e+00  0.0000000000000000e+00  0.0000000000000000e+00 
 0.0000000000000000e+00  0.0000000000000000e+00  0.0000000000000000e+00  0.0000000000000000e+00 
 0.0000000000000000e+00  0.0000000000000000e+00  0.0000000000000000e+00  0.0000000000000000e+00 
 0.0000000000000000e+00  0.0000000000000000e+00  0.0000000000000000e+00  0.0000000000000000e+00 
 0.0000000000000000e+00  0.0000000000000000e+00  0.0000000000000000e+00  0.0000000000000000e+00 
 0.0000000000000000e+00  0.0000000000000000e+00  0.0000000000000000e+00  0.0000000000000000e+00 
 0.0000000000000000e+00  0.0000000000000000e+00  0.0000000000000000e+00  0.0000000000000000e+00 
 0.0000000000000000e+00  0.0000000000000000e+00  0.0000000000000000e+00  0.0000000000000000e+00 
 0.0000000000000000e+00  0.0000000000000000e+00  0.0000000000000000e+00  0.0000000000000000e+00 
 0.0000000000000000e+00  0.0000000000000000e+00  0.0000000000000000e+00  0.0000000000000000e+00 
 0.0000000000000000e+00  0.0000000000000000e+00  0.0000000000000000e+00  0.0000000000000000e+00 
 0.0000000000000000e+00  0.0000000000000000e+00  0.0000000000000000e+00  0.0000000000000000e+00 
 0.0000000000000000e+00  0.0000000000000000e+00  0.0000000000000000e+00  0.0000000000000000e+00 
 0.0000000000000000e+00  0.0000000000000000e+00  0.0000000000000000e+00  0.0000000000000000e+00 
 0.0000000000000000e+00  0.0000000000000000e+00  0.0000000000000000e+00  0.0000000000000000e+00 
 0.0000000000000000e+00  0.0000000000000000e+00  0.0000000000000000e+00  0.0000000000000000e+00 
 0.0000000000000000e+00  0.0000000000000000e+00  0.0000000000000000e+00  0.0000000000000000e+00 
 0.0000000000000000e+00  0.0000000000000000e+00  0.0000000000000000e+00  0.0000000000000000e+00 
 0.0000000000000000e+00  0.0000000000000000e+00  0.0000000000000000e+00  0.0000000000000000e+00 
 0.0000000000000000e+00  0.0000000000000000e+00  0.0000000000000000e+00  0.0000000000000000e+00 
 0.0000000000000000e+00  0.0000000000000000e+00  0.0000000000000000e+00  0.0000000000000000e+00 
 0.0000000000000000e+00  0.0000000000000000e+00  0.0000000000000000e+00  0.0000000000000000e+00 
 0.0000000000000000e+00  0.0000000000000000e+00  0.0000000000000000e+00  0.0000000000000000e+00 
 0.0000000000000000e+00  0.0000000000000000e+00  0.0000000000000000e+00  0.0000000000000000e+00 
 0.0000000000000000e+00  0.0000000000000000e+00  0.0000000000000000e+00  0.0000000000000000e+00 
 0.0000000000000000e+00  0.0000000000000000e+00  0.0000000000000000e+00  0.0000000000000000e+00 
 0.0000000000000000e+00  0.0000000000000000e+00  0.0000000000000000e+00  0.0000000000000000e+00 
 0.0000000000000000e+00  0.0000000000000000e+00  0.0000000000000000e+00  0.0000000000000000e+00 
 0.0000000000000000e+00  0.0000000000000000e+00  0.0000000000000000e+00  0.0000000000000000e+00 
 0.0000000000000000e+00  0.0000000000000000e+00  0.0000000000000000e+00  0.0000000000000000e+00 
 0.0000000000000000e+00  0.0000000000000000e+00  0.0000000000000000e+00  0.0000000000000000e+00 
 0.0000000000000000e+00  0.0000000000000000e+00  0.0000000000000000e+00  0.0000000000000000e+00 
 0.0000000000000000e+00  0.0000000000000000e+00  0.0000000000000000e+00  0.0000000000000000e+00 
 0.0000000000000000e+00  0.0000000000000000e+00  0.0000000000000000e+00  0.0000000000000000e+00 
 0.0000000000000000e+00  0.0000000000000000e+00  0.0000000000000000e+00  0.0000000000000000e+00 
 0.0000000000000000e+00  0.0000000000000000e+00  0.0000000000000000e+00  0.0000000000000000e+00 
 0.0000000000000000e+00  0.0000000000000000e+00  0.0000000000000000e+00  0.0000000000000000e+00 
 0.0000000000000000e+00  0.0000000000000000e+00  0.0000000000000000e+00  0.0000000000000000e+00 
 0.0000000000000000e+00  0.0000000000000000e+00  0.0000000000000000e+00  0.0000000000000000e+00 
 0.0000000000000000e+00  0.0000000000000000e+00  0.0000000000000000e+00  0.0000000000000000e+00 
 0.0000000000000000e+00  0.0000000000000000e+00  0.0000000000000000e+00  0.0000000000000000e+00 
 0.0000000000000000e+00  0.0000000000000000e+00  0.0000000000000000e+00  0.0000000000000000e+00 
 0.0000000000000000e+00  0.0000000000000000e+00  0.0000000000000000e+00  0.0000000000000000e+00 
 0.0000000000000000e+00  0.0000000000000000e+00  0.0000000000000000e+00  0.0000000000000000e+00 
 0.0000000000000000e+00  0.0000000000000000e+00  0.0000000000000000e+00  0.0000000000000000e+00 
 0.0000000000000000e+00  0.0000000000000000e+00  0.0000000000000000e+00  0.0000000000000000e+00 
 0.0000000000000000e+00  0.0000000000000000e+00  0.0000000000000000e+00  0.0000000000000000e+00 
 0.0000000000000000e+00  0.0000000000000000e+00  0.0000000000000000e+00  0.0000000000000000e+00 
 0.0000000000000000e+00  0.0000000000000000e+00  0.0000000000000000e+00  0.0000000000000000e+00 
 0.0000000000000000e+00  0.0000000000000000e+00  0.0000000000000000e+00  0.0000000000000000e+00 
 0.0000000000000000e+00  0.0000000000000000e+00  0.0000000000000000e+00  0.0000000000000000e+00 
 0.0000000000000000e+00  0.0000000000000000e+00  0.0000000000000000e+00  0.0000000000000000e+00 
 0.0000000000000000e+00  0.0000000000000000e+00  0.0000000000000000e+00  0.0000000000000000e+00 
 0.0000000000000000e+00  0.0000000000000000e+00  0.0000000000000000e+00  0.0000000000000000e+00 
 0.0000000000000000e+00  0.0000000000000000e+00  0.0000000000000000e+00  0.0000000000000000e+00 
 0.0000000000000000e+00  0.0000000000000000e+00  0.0000000000000000e+00  0.0000000000000000e+00 
 0.0000000000000000e+00  0.0000000000000000e+00  0.0000000000000000e+00  0.0000000000000000e+00 
 0.0000000000000000e+00  0.0000000000000000e+00  0.0000000000000000e+00  0.0000000000000000e+00 
 0.0000000000000000e+00  0.0000000000000000e+00  0.0000000000000000e+00  0.0000000000000000e+00 
 0.0000000000000000e+00  0.0000000000000000e+00  0.0000000000000000e+00  0.0000000000000000e+00 
 0.0000000000000000e+00  0.0000000000000000e+00  0.0000000000000000e+00  0.0000000000000000e+00 
 0.0000000000000000e+00  0.0000000000000000e+00  0.0000000000000000e+00  0.0000000000000000e+00 
 0.0000000000000000e+00  0.0000000000000000e+00  0.0000000000000000e+00  0.0000000000000000e+00 
 0.0000000000000000e+00  0.0000000000000000e+00  0.0000000000000000e+00  0.0000000000000000e+00 
 0.0000000000000000e+00  0.0000000000000000e+00  0.0000000000000000e+00  0.0000000000000000e+00 
 0.0000000000000000e+00  0.0000000000000000e+00  0.0000000000000000e+00  0.0000000000000000e+00 
 0.0000000000000000e+00  0.0000000000000000e+00  0.0000000000000000e+00  0.0000000000000000e+00 
 0.0000000000000000e+00  0.0000000000000000e+00  0.0000000000000000e+00  0.0000000000000000e+00 
 0.0000000000000000e+00  0.0000000000000000e+00  0.0000000000000000e+00  0.0000000000000000e+00 
 0.0000000000000000e+00  0.0000000000000000e+00  0.0000000000000000e+00  0.0000000000000000e+00 
 0.0000000000000000e+00  0.0000000000000000e+00  0.0000000000000000e+00  0.0000000000000000e+00 
 0.0000000000000000e+00  0.0000000000000000e+00  0.0000000000000000e+00  0.0000000000000000e+00 
 0.0000000000000000e+00  0.0000000000000000e+00  0.0000000000000000e+00  0.0000000000000000e+00 
 0.0000000000000000e+00  0.0000000000000000e+00  0.0000000000000000e+00  0.0000000000000000e+00 
 0.0000000000000000e+00  0.0000000000000000e+00  0.0000000000000000e+00  0.0000000000000000e+00 
 0.0000000000000000e+00  0.0000000000000000e+00  0.0000000000000000e+00  0.0000000000000000e+00 
 0.0000000000000000e+00  0.0000000000000000e+00  0.0000000000000000e+00  0.0000000000000000e+00 
 0.0000000000000000e+00  0.0000000000000000e+00  0.0000000000000000e+00  0.0000000000000000e+00 
 0.0000000000000000e+00  0.0000000000000000e+00  0.0000000000000000e+00  0.0000000000000000e+00 
 0.0000000000000000e+00  0.0000000000000000e+00  0.0000000000000000e+00  0.0000000000000000e+00 
 -2.2868560157017551e-02  -2.3168002799817299e-02  -2.3471371982504118e-02  -2.3778719416200418e-02 
 -2.4090097501892498e-02  -2.4405559339982893e-02  -2.4725158739988824e-02  -2.5048950230388962e-02 
 -2.5376989068621882e-02  -2.5709331251238535e-02  -2.6046033524212191e-02  -2.6387153393408528e-02 
 -2.6732749135218982e-02  -2.7082879807360734e-02  -2.7437605259846645e-02  -2.7796986146127980e-02 
 -2.8161083934414084e-02  -2.8529960919172044e-02  -2.8903680232809908e-02  -2.9282305857547836e-02 
 -2.9665902637480025e-02  -3.0054536290832327e-02  -3.0448273422418723e-02  -3.0847181536301473e-02 
 -3.1251329048658787e-02  -3.1660785300864698e-02  -3.2075620572785339e-02  -3.2495906096296309e-02 
 -3.2921714069026449e-02  -3.3353117668331829e-02  -3.3790191065506132e-02  -3.4233009440231776e-02 
 -3.4681648995277592e-02  -3.5136186971448422e-02  -3.5596701662792156e-02  -3.6063272432070144e-02 
 -3.6535979726497046e-02  -3.7014905093756094e-02  -3.7500131198296434e-02  -3.7991741837918536e-02 
 -3.8489821960655188e-02  -3.8994457681954336e-02  -3.9505736302171093e-02  -4.0023746324376920e-02 
 -4.0548577472492485e-02  -4.1080320709752892e-02  -4.1619068257513311e-02  -4.2164913614402687e-02 
 -4.2717951575835043e-02  -4.3278278253886519e-02  -4.3845991097547603e-02  -4.4421188913360228e-02 
 -4.5003971886448890e-02  -4.5594441601956477e-02  -4.6192701066894562e-02  -4.6798854732419695e-02 
 -4.7413008516545826e-02  -4.8035269827305029e-02  -4.8665747586367880e-02  -4.9304552253135937e-02 
 -4.9951795849318650e-02  -5.0607591984007869e-02  -5.1272055879263680e-02  -5.1945304396224364e-02 
 -5.2627456061756436e-02  -5.3318631095657980e-02  -5.4018951438431877e-02  -5.4728540779643522e-02 
 -5.5447524586880709e-02  -5.6176030135331373e-02  -5.6914186537997617e-02  -5.7662124776563350e-02 
 -5.8419977732934621e-02  -5.9187880221472138e-02  -5.9965969021935267e-02  -6.0754382913159224e-02 
 -6.1553262707485339e-02  -6.2362751285968444e-02  -6.3182993634382123e-02  -6.4014136880047437e-02 
 -6.4856330329508230e-02  -6.5709725507078515e-02  -6.6574476194289328e-02  -6.7450738470260674e-02 
 -6.8338670753026950e-02  -6.9238433841845873e-02  -7.0150190960519679e-02  -7.1074107801760295e-02 
 -7.2010352572630942e-02  -7.2959096041096780e-02  -7.3920511583719581e-02  -7.4894775234531946e-02 
 -7.5882065735128498e-02  -7.6882564586010851e-02  -7.7896456099227795e-02  -7.8923927452350981e-02 
 -7.9965168743827392e-02  -8.1020373049754679e-02  -8.2089736482122866e-02  -8.3173458248570725e-02 
 -8.4271740713705787e-02  -8.5384789462036134e-02  -8.6512813362570287e-02  -8.7656024635135221e-02 
 -8.8814638918471051e-02  -8.9988875340159855e-02  -9.1178956588447824e-02  -9.2385108986024381e-02 
 -9.3607562565821159e-02  -9.4846551148898797e-02  -9.6102312424489744e-02  -9.7375088032268631e-02 
 -9.8665123646924355e-02  -9.9972669065110722e-02  -1.0129797829485410e-01  -1.0264130964750116e-01 
 -1.0400292583229075e-01  -1.0538309405363827e-01  -1.0678208611122435e-01  -1.0820017850297996e-01 
 -1.0963765253106776e-01  -1.1109479441095954e-01  -1.1257189538371359e-01  -1.1406925183156158e-01 
 -1.1558716539691577e-01  -1.1712594310491206e-01  -1.1868589748961014e-01  -1.2026734672397187e-01 
 -1.2187061475374976e-01  -1.2349603143541425e-01  -1.2514393267825993e-01  -1.2681466059083052e-01 
 -1.2850856363181073e-01  -1.3022599676553515e-01  -1.3196732162227240e-01  -1.3373290666344517e-01 
 -1.3552312735195507e-01  -1.3733836632778440e-01  -1.3917901358905452e-01  -1.4104546667872478e-01 
 -1.4293813087712393e-01  -1.4485741940051078e-01  -1.4680375360586861e-01  -1.4877756320214267e-01 
 -1.5077928646813837e-01  -1.5280937047730614e-01  -1.5486827132964184e-01  -1.5695645439094283e-01 
 -1.5907439453966746e-01  -1.6122257642164978e-01  -1.6340149471293350e-01  -1.6561165439099498e-01 
 -1.6785357101463411e-01  -1.7012777101281998e-01  -1.7243479198278669e-01  -1.7477518299768641e-01 
 -1.7714950492411172e-01  -1.7955833074980695e-01  -1.8200224592191153e-01  -1.8448184869606346e-01 
 -1.8699775049672698e-01  -1.8955057628909622e-01  -1.9214096496295563e-01  -1.9476956972887083e-01 
 -1.9743705852710694e-01  -2.0014411444967597e-01  -2.0289143617592328e-01  -2.0567973842208184e-01 
 -2.0850975240522091e-01  -2.1138222632204132e-01  -2.1429792584296714e-01  -2.1725763462200032e-01 
 -2.2026215482281630e-01  -2.2331230766158616e-01  -2.2640893396702125e-01  -2.2955289475814719e-01 
 -2.3274507184032994e-01  -2.3598636842007109e-01  -2.3927770973911636e-01  -2.4262004372841980e-01 
 -2.4601434168251840e-01  -2.4946159895487868e-01  -2.5296283567478645e-01  -2.5651909748635610e-01 
 -2.6013145631024298e-01  -2.6380101112864918e-01  -2.6752888879421538e-01  -2.7131624486339728e-01 
 -2.7516426445492809e-01  -2.7907416313396682e-01  -2.8304718782253824e-01  -2.8708461773686311e-01 
 -2.9118776535217822e-01  -2.9535797739563635e-01  -2.9959663586788560e-01  -3.0390515909388882e-01 
 -3.0828500280356735e-01  -3.1273766124281338e-01  -3.1726466831541594e-01  -3.2186759875641691e-01 
 -3.2654806933739544e-01  -3.3130774010415248e-01  -3.3614831564724035e-01  -3.4107154640574161e-01 
 -3.4607923000467505e-01  -3.5117321262635454e-01  -3.5635539041598158e-01  -3.6162771092170459e-01 
 -3.6699217456931083e-01  -3.7245083617166047e-01  -3.7800580647289361e-01  -3.8365925372736487e-01 
 -3.8941340531318080e-01  -3.9527054938010359e-01  -4.0123303653149833e-01  -4.0730328153988121e-01 
 -4.1348376509549994e-01  -4.1977703558724944e-01  -4.2618571091507873e-01  -4.3271248033288912e-01 
 -4.3936010632074957e-01  -4.4613142648507997e-01  -4.5302935548524564e-01  -4.6005688698480068e-01 
 -4.6721709562538555e-01  -4.7451313902103404e-01  -4.8194825977038719e-01  -4.8952578748402215e-01 
 -4.9724914082380206e-01  -5.0512182955081986e-01  -5.1314745657818484e-01  -5.2132972002449307e-01 
 -5.2967241526345243e-01  -5.3817943696470694e-01  -5.4685478112044483e-01  -5.5570254705190569e-01 
 -5.6472693938939034e-01  -5.7393227001883362e-01  -5.8332295998743544e-01  -5.9290354136023171e-01 
 -6.0267865901884909e-01  -6.1265307239300393e-01  -6.2283165711459865e-01  -6.3321940658349785e-01 
 -6.4382143343328424e-01  -6.5464297088443779e-01  -6.6568937397152361e-01  -6.7696612063000527e-01 
 -6.8847881262738952e-01  -7.0023317632230531e-01  -7.1223506323413255e-01  -7.2449045040461635e-01 
 -7.3700544053177486e-01  -7.4978626185517072e-01  -7.6283926777033917e-01  -7.7617093614888255e-01 
 -7.8978786833931669e-01  -8.0369678782238396e-01  -8.1790453849302325e-01  -8.3241808253970817e-01 
 -8.4724449789025369e-01  -8.6239097519158769e-01  -8.7786481428931751e-01  -8.9367342017117291e-01 
 -9.0982429833670819e-01  -9.2632504955377204e-01  -9.4318336396051072e-01  -9.6040701446970234e-01 
 -9.7800384943040308e-01  -9.9598178449994779e-01  -1.0143487936773707e+00  -1.0331128994474423e+00 
 -1.0522821619824940e+00  -1.0718646673473076e+00  -1.0918685146504101e+00  -1.1123018020831890e+00 
 -1.1331726117864211e+00  -1.1544889934819591e+00  -1.1762589468055875e+00  -1.1984904022754159e+00 
 -1.2211912008285917e+00  -1.2443690718576870e+00  -1.2680316096768443e+00  -1.2921862483466002e+00 
 -1.3168402347854853e+00  -1.3420006000956755e+00  -1.3676741290297156e+00  -1.3938673275251154e+00 
 -1.4205863882339456e+00  -1.4478371539751809e+00  -1.4756250790387040e+00  -1.5039551882714612e+00 
 -1.5328320338785806e+00  -1.5622596498750729e+00  -1.5922415041274658e+00  -1.6227804479291472e+00 
 -1.6538786630586331e+00  -1.6855376062764864e+00  -1.7177579512241672e+00  -1.7505395276971092e+00 
 -1.7838812582745767e+00  -1.8177810923008406e+00  -1.8522359372258512e+00  -1.8872415873290240e+00 
 -1.9227926498674019e+00  -1.9588824687091966e+00  -1.9955030455358425e+00  -2.0326449587204030e+00 
 -2.0702972800175008e+00  -2.1084474892302540e+00  -2.1470813870527303e+00  -2.1861830063228509e+00 
 -2.2257345219598825e+00  -2.2657161599032696e+00  -2.3061061054152039e+00  -2.3468804111580033e+00 
 -2.3880129055089485e+00  -2.4294751016294960e+00  -2.4712361078623384e+00  -2.5132625400881352e+00 
 -2.5555184367337733e+00  -2.5979651771842720e+00  -2.6405614044111076e+00  -2.6832629526892462e+00 
 -2.7260227813327904e+00  -2.7687909154338342e+00  -2.8115143946396075e+00  -2.8541372310482447e+00 
 -2.8966003773419899e+00  -2.9388417063076524e+00  -2.9807960029158758e+00  -3.0223949701430080e+00 
 -3.0635672497206081e+00  -3.1042384589878260e+00  -3.1443312450005698e+00  -3.1837653570188347e+00 
 -3.2224577384504260e+00  -3.2603226392765081e+00  -3.2972717499239348e+00  -3.3332143574825692e+00 
 -3.3680575250959652e+00  -3.4017062952831187e+00  -3.4340639178803136e+00  -3.4650321032284603e+00 
 -3.4945113011744939e+00  -3.5224010064072200e+00  -3.5486000906079820e+00  -3.5730071618636114e+00 
 -3.5955209517587390e+00  -3.6160407305302527e+00  -3.6344667506183854e+00  -3.6507007188729350e+00 
 -3.6646462975527445e+00  -3.6762096340707870e+00  -3.6852999191631377e+00  -3.6918299727723274e+00 
 -3.6957168564090450e+00  -3.6968825100670211e+00  -3.6952544108959238e+00  -3.6907662497753724e+00 
 -3.6833586206803210e+00  -3.6729797163014792e+00  -3.6595860218199956e+00  -3.6431429970926144e+00 
 -3.6236257358671828e+00  -3.6010195891290913e+00  -3.5753207384127301e+00  -3.5465367040535023e+00 
 -3.5146867730722042e+00  -3.4798023318407432e+00  -3.4419270900244747e+00  -3.4011171846424015e+00 
 -3.3574411564802356e+00  -3.3109797954945015e+00  -3.2618258571077696e+00  -3.2100836571353160e+00 
 -3.1558685590757412e+00  -3.0993063730758590e+00  -3.0405326903498202e+00  -2.9796921794159448e+00 
 -2.9169378704098485e+00  -2.8524304502032845e+00  -2.7863375835428568e+00  -2.7188332636611050e+00 
 -2.6500971799750133e+00  -2.5803140712931287e+00  0.0000000000000000e+00  0.0000000000000000e+00 
 0.0000000000000000e+00  0.0000000000000000e+00  0.0000000000000000e+00  0.0000000000000000e+00 
 0.0000000000000000e+00  0.0000000000000000e+00  0.0000000000000000e+00  0.0000000000000000e+00 
 0.0000000000000000e+00  0.0000000000000000e+00  0.0000000000000000e+00  0.0000000000000000e+00 
 0.0000000000000000e+00  0.0000000000000000e+00  0.0000000000000000e+00  0.0000000000000000e+00 
 0.0000000000000000e+00  0.0000000000000000e+00  0.0000000000000000e+00  0.0000000000000000e+00 
 0.0000000000000000e+00  0.0000000000000000e+00  0.0000000000000000e+00  0.0000000000000000e+00 
 0.0000000000000000e+00  0.0000000000000000e+00  0.0000000000000000e+00  0.0000000000000000e+00 
 0.0000000000000000e+00  0.0000000000000000e+00  0.0000000000000000e+00  0.0000000000000000e+00 
 0.0000000000000000e+00  0.0000000000000000e+00  0.0000000000000000e+00  0.0000000000000000e+00 
 0.0000000000000000e+00  0.0000000000000000e+00  0.0000000000000000e+00  0.0000000000000000e+00 
 0.0000000000000000e+00  0.0000000000000000e+00  0.0000000000000000e+00  0.0000000000000000e+00 
 0.0000000000000000e+00  0.0000000000000000e+00  0.0000000000000000e+00  0.0000000000000000e+00 
 0.0000000000000000e+00  0.0000000000000000e+00  0.0000000000000000e+00  0.0000000000000000e+00 
 0.0000000000000000e+00  0.0000000000000000e+00  0.0000000000000000e+00  0.0000000000000000e+00 
 0.0000000000000000e+00  0.0000000000000000e+00  0.0000000000000000e+00  0.0000000000000000e+00 
 0.0000000000000000e+00  0.0000000000000000e+00  0.0000000000000000e+00  0.0000000000000000e+00 
 0.0000000000000000e+00  0.0000000000000000e+00  0.0000000000000000e+00  0.0000000000000000e+00 
 0.0000000000000000e+00  0.0000000000000000e+00  0.0000000000000000e+00  0.0000000000000000e+00 
 0.0000000000000000e+00  0.0000000000000000e+00  0.0000000000000000e+00  0.0000000000000000e+00 
 0.0000000000000000e+00  0.0000000000000000e+00  0.0000000000000000e+00  0.0000000000000000e+00 
 0.0000000000000000e+00  0.0000000000000000e+00  0.0000000000000000e+00  0.0000000000000000e+00 
 0.0000000000000000e+00  0.0000000000000000e+00  0.0000000000000000e+00  0.0000000000000000e+00 
 0.0000000000000000e+00  0.0000000000000000e+00  0.0000000000000000e+00  0.0000000000000000e+00 
 0.0000000000000000e+00  0.0000000000000000e+00  0.0000000000000000e+00  0.0000000000000000e+00 
 0.0000000000000000e+00  0.0000000000000000e+00  0.0000000000000000e+00  0.0000000000000000e+00 
 0.0000000000000000e+00  0.0000000000000000e+00  0.0000000000000000e+00  0.0000000000000000e+00 
 0.0000000000000000e+00  0.0000000000000000e+00  0.0000000000000000e+00  0.0000000000000000e+00 
 0.0000000000000000e+00  0.0000000000000000e+00  0.0000000000000000e+00  0.0000000000000000e+00 
 0.0000000000000000e+00  0.0000000000000000e+00  0.0000000000000000e+00  0.0000000000000000e+00 
 0.0000000000000000e+00  0.0000000000000000e+00  0.0000000000000000e+00  0.0000000000000000e+00 
 0.0000000000000000e+00  0.0000000000000000e+00  0.0000000000000000e+00  0.0000000000000000e+00 
 0.0000000000000000e+00  0.0000000000000000e+00  0.0000000000000000e+00  0.0000000000000000e+00 
 0.0000000000000000e+00  0.0000000000000000e+00  0.0000000000000000e+00  0.0000000000000000e+00 
 0.0000000000000000e+00  0.0000000000000000e+00  0.0000000000000000e+00  0.0000000000000000e+00 
 0.0000000000000000e+00  0.0000000000000000e+00  0.0000000000000000e+00  0.0000000000000000e+00 
 0.0000000000000000e+00  0.0000000000000000e+00  0.0000000000000000e+00  0.0000000000000000e+00 
 0.0000000000000000e+00  0.0000000000000000e+00  0.0000000000000000e+00  0.0000000000000000e+00 
 0.0000000000000000e+00  0.0000000000000000e+00  0.0000000000000000e+00  0.0000000000000000e+00 
 0.0000000000000000e+00  0.0000000000000000e+00  0.0000000000000000e+00  0.0000000000000000e+00 
 0.0000000000000000e+00  0.0000000000000000e+00  0.0000000000000000e+00  0.0000000000000000e+00 
 0.0000000000000000e+00  0.0000000000000000e+00  0.0000000000000000e+00  0.0000000000000000e+00 
 0.0000000000000000e+00  0.0000000000000000e+00  0.0000000000000000e+00  0.0000000000000000e+00 
 0.0000000000000000e+00  0.0000000000000000e+00  0.0000000000000000e+00  0.0000000000000000e+00 
 0.0000000000000000e+00  0.0000000000000000e+00  0.0000000000000000e+00  0.0000000000000000e+00 
 0.0000000000000000e+00  0.0000000000000000e+00  0.0000000000000000e+00  0.0000000000000000e+00 
 0.0000000000000000e+00  0.0000000000000000e+00  0.0000000000000000e+00  0.0000000000000000e+00 
 0.0000000000000000e+00  0.0000000000000000e+00  0.0000000000000000e+00  0.0000000000000000e+00 
 0.0000000000000000e+00  0.0000000000000000e+00  0.0000000000000000e+00  0.0000000000000000e+00 
 0.0000000000000000e+00  0.0000000000000000e+00  0.0000000000000000e+00  0.0000000000000000e+00 
 0.0000000000000000e+00  0.0000000000000000e+00  0.0000000000000000e+00  0.0000000000000000e+00 
 0.0000000000000000e+00  0.0000000000000000e+00  0.0000000000000000e+00  0.0000000000000000e+00 
 0.0000000000000000e+00  0.0000000000000000e+00  0.0000000000000000e+00  0.0000000000000000e+00 
 0.0000000000000000e+00  0.0000000000000000e+00  0.0000000000000000e+00  0.0000000000000000e+00 
 0.0000000000000000e+00  0.0000000000000000e+00  0.0000000000000000e+00  0.0000000000000000e+00 
 0.0000000000000000e+00  0.0000000000000000e+00  0.0000000000000000e+00  0.0000000000000000e+00 
 0.0000000000000000e+00  0.0000000000000000e+00  0.0000000000000000e+00  0.0000000000000000e+00 
 0.0000000000000000e+00  0.0000000000000000e+00  0.0000000000000000e+00  0.0000000000000000e+00 
 0.0000000000000000e+00  0.0000000000000000e+00  0.0000000000000000e+00  0.0000000000000000e+00 
 0.0000000000000000e+00  0.0000000000000000e+00  0.0000000000000000e+00  0.0000000000000000e+00 
 0.0000000000000000e+00  0.0000000000000000e+00  0.0000000000000000e+00  0.0000000000000000e+00 
 0.0000000000000000e+00  0.0000000000000000e+00  0.0000000000000000e+00  0.0000000000000000e+00 
 0.0000000000000000e+00  0.0000000000000000e+00  0.0000000000000000e+00  0.0000000000000000e+00 
 0.0000000000000000e+00  0.0000000000000000e+00  0.0000000000000000e+00  0.0000000000000000e+00 
 0.0000000000000000e+00  0.0000000000000000e+00  0.0000000000000000e+00  0.0000000000000000e+00 
 0.0000000000000000e+00  0.0000000000000000e+00  0.0000000000000000e+00  0.0000000000000000e+00 
 0.0000000000000000e+00  0.0000000000000000e+00  0.0000000000000000e+00  0.0000000000000000e+00 
 0.0000000000000000e+00  0.0000000000000000e+00  0.0000000000000000e+00  0.0000000000000000e+00 
 0.0000000000000000e+00  0.0000000000000000e+00  0.0000000000000000e+00  0.0000000000000000e+00 
 0.0000000000000000e+00  0.0000000000000000e+00  0.0000000000000000e+00  0.0000000000000000e+00 
 0.0000000000000000e+00  0.0000000000000000e+00  0.0000000000000000e+00  0.0000000000000000e+00 
 0.0000000000000000e+00  0.0000000000000000e+00  0.0000000000000000e+00  0.0000000000000000e+00 
 0.0000000000000000e+00  0.0000000000000000e+00  0.0000000000000000e+00  0.0000000000000000e+00 
 0.0000000000000000e+00  0.0000000000000000e+00  0.0000000000000000e+00  0.0000000000000000e+00 
 0.0000000000000000e+00  0.0000000000000000e+00  0.0000000000000000e+00  0.0000000000000000e+00 
 0.0000000000000000e+00  0.0000000000000000e+00  0.0000000000000000e+00  0.0000000000000000e+00 
 0.0000000000000000e+00  0.0000000000000000e+00  0.0000000000000000e+00  0.0000000000000000e+00 
 0.0000000000000000e+00  0.0000000000000000e+00  0.0000000000000000e+00  0.0000000000000000e+00 
 0.0000000000000000e+00  0.0000000000000000e+00  0.0000000000000000e+00  0.0000000000000000e+00 
 0.0000000000000000e+00  0.0000000000000000e+00  0.0000000000000000e+00  0.0000000000000000e+00 
 0.0000000000000000e+00  0.0000000000000000e+00  0.0000000000000000e+00  0.0000000000000000e+00 
 0.0000000000000000e+00  0.0000000000000000e+00  0.0000000000000000e+00  0.0000000000000000e+00 
 0.0000000000000000e+00  0.0000000000000000e+00  0.0000000000000000e+00  0.0000000000000000e+00 
 0.0000000000000000e+00  0.0000000000000000e+00  0.0000000000000000e+00  0.0000000000000000e+00 
 0.0000000000000000e+00  0.0000000000000000e+00 
  </PP_BETA>
  <PP_BETA>
  2  1      Beta    L
  1185  
 -2.0771890809587593e-08  -2.1319042111949642e-08  -2.1880605898406279e-08  -2.2456961807449471e-08 
 -2.3048499477608619e-08  -2.3655618810861022e-08  -2.4278730242980929e-08  -2.4918255021009518e-08 
 -2.5574625488033979e-08  -2.6248285375467947e-08  -2.6939690103030598e-08  -2.7649307086627896e-08 
 -2.8377616054343253e-08  -2.9125109370752101e-08  -2.9892292369778971e-08  -3.0679683696322442e-08 
 -3.1487815656878770e-08  -3.2317234579401134e-08  -3.3168501182638277e-08  -3.4042190955201605e-08 
 -3.4938894544617150e-08  -3.5859218156625994e-08  -3.6803783965002055e-08  -3.7773230532165361e-08 
 -3.8768213240874364e-08  -3.9789404737289601e-08  -4.0837495385707907e-08  -4.1913193735274889e-08 
 -4.3017226998991062e-08  -4.4150341545335370e-08  -4.5313303402838544e-08  -4.6506898777947367e-08 
 -4.7731934586530140e-08  -4.8989238999382258e-08  -5.0279662002101193e-08  -5.1604075969708667e-08 
 -5.2963376256409562e-08  -5.4358481800884905e-08  -5.5790335747529402e-08  -5.7259906084052847e-08 
 -5.8768186295876179e-08  -6.0316196037765247e-08  -6.1904981823156354e-08  -6.3535617731638467e-08 
 -6.5209206135071875e-08  -6.6926878442833214e-08  -6.8689795866690953e-08  -7.0499150205828400e-08 
 -7.2356164652545092e-08  -7.4262094619180890e-08  -7.6218228586822250e-08  -7.8225888976363846e-08 
 -8.0286433042515420e-08  -8.2401253791356706e-08  -8.4571780922062683e-08  -8.6799481793433370e-08 
 -8.9085862415884677e-08  -9.1432468469567522e-08  -9.3840886349305994e-08  -9.6312744237060204e-08 
 -9.8849713202638808e-08  -1.0145350833340452e-07  -1.0412588989373851e-07  -1.0686866451504461e-07 
 -1.0968368641710090e-07  -1.1257285866158151e-07  -1.1553813443859802e-07  -1.1858151838712919e-07 
 -1.2170506795023311e-07  -1.2491089476595475e-07  -1.2820116609487369e-07  -1.3157810628525259e-07 
 -1.3504399827678124e-07  -1.3860118514392839e-07  -1.4225207167994870e-07  -1.4599912602261259e-07 
 -1.4984488132276036e-07  -1.5379193745680658e-07  -1.5784296278435387e-07  -1.6200069595210424e-07 
 -1.6626794774528662e-07  -1.7064760298785177e-07  -1.7514262249272298e-07  -1.7975604506341398e-07 
 -1.8449098954837526e-07  -1.8935065694945123e-07  -1.9433833258587693e-07  -1.9945738831527595e-07 
 -2.0471128481316194e-07  -2.1010357391248488e-07  -2.1563790100480067e-07  -2.2131800750469298e-07 
 -2.2714773337910656e-07  -2.3313101974331004e-07  -2.3927191152523411e-07  -2.4557456019999265e-07 
 -2.5204322659643521e-07  -2.5868228377762374e-07  -2.6549621999718556e-07  -2.7248964173353873e-07 
 -2.7966727680404103e-07  -2.8703397756116952e-07  -2.9459472417289020e-07  -3.0235462798943338e-07 
 -3.1031893499875686e-07  -3.1849302937302459e-07  -3.2688243710850537e-07  -3.3549282976135132e-07 
 -3.4433002828177325e-07  -3.5340000694922212e-07  -3.6270889741121482e-07  -3.7226299282855564e-07 
 -3.8206875212974306e-07  -3.9213280437743699e-07  -4.0246195324995107e-07  -4.1306318164078526e-07 
 -4.2394365637931485e-07  -4.3511073307582649e-07  -4.4657196109418173e-07  -4.5833508865545393e-07 
 -4.7040806807601006e-07  -4.8279906114356345e-07  -4.9551644463483626e-07  -5.0856881597855964e-07 
 -5.2196499906764672e-07  -5.3571405022446219e-07  -5.4982526432321578e-07  -5.6430818107363667e-07 
 -5.7917259147014997e-07  -5.9442854441094605e-07  -6.1008635349138693e-07  -6.2615660397636509e-07 
 -6.4265015995631697e-07  -6.5957817169173572e-07  -6.7695208315113743e-07  -6.9478363974758762e-07 
 -7.1308489627901387e-07  -7.3186822507767162e-07  -7.5114632437427411e-07  -7.7093222688244211e-07 
 -7.9123930860926647e-07  -8.1208129789795958e-07  -8.3347228470868651e-07  -8.5542673014387032e-07 
 -8.7795947622438989e-07  -9.0108575592330227e-07  -9.2482120346384886e-07  -9.4918186488872996e-07 
 -9.7418420890777476e-07  -9.9984513803134550e-07  -1.0261819999970116e-06  -1.0532125994972047e-06 
 -1.0809552102157874e-06  -1.1094285871816779e-06  -1.1386519794478765e-06  -1.1686451431044681e-06 
 -1.1994283546343828e-06  -1.2310224246209890e-06  -1.2634487118167111e-06  -1.2967291375822603e-06 
 -1.3308862007061809e-06  -1.3659429926147617e-06  -1.4019232129825978e-06  -1.4388511857543190e-06 
 -1.4767518755883675e-06  -1.5156509047338873e-06  -1.5555745703521934e-06  -1.5965498622944701e-06 
 -1.6386044813477616e-06  -1.6817668579615690e-06  -1.7260661714677080e-06  -1.7715323698064445e-06 
 -1.8181961897722156e-06  -1.8660891777926382e-06  -1.9152437112548432e-06  -1.9656930203935690e-06 
 -2.0174712107557826e-06  -2.0706132862570396e-06  -2.1251551728451716e-06  -2.1811337427872451e-06 
 -2.2385868395963038e-06  -2.2975533036146668e-06  -2.3580729982710891e-06  -2.4201868370295616e-06 
 -2.4839368110479800e-06  -2.5493660175652835e-06  -2.6165186890364069e-06  -2.6854402230345988e-06 
 -2.7561772129413830e-06  -2.8287774794449511e-06  -2.9032901028681657e-06  -2.9797654563481533e-06 
 -3.0582552398897966e-06  -3.1388125153162877e-06  -3.2214917421402008e-06  -3.3063488143794651e-06 
 -3.3934410983430896e-06  -3.4828274714121156e-06  -3.5745683618421544e-06  -3.6687257896142268e-06 
 -3.7653634083617117e-06  -3.8645465484015943e-06  -3.9663422608991941e-06  -4.0708193631961738e-06 
 -4.1780484853325350e-06  -4.2881021177939278e-06  -4.4010546605166795e-06  -4.5169824731836312e-06 
 -4.6359639268447264e-06  -4.7580794568972699e-06  -4.8834116174617285e-06  -5.0120451371897635e-06 
 -5.1440669765422248e-06  -5.2795663865758529e-06  -5.4186349692784165e-06  -5.5613667394930227e-06 
 -5.7078581884735596e-06  -5.8582083491141307e-06  -6.0125188628965984e-06  -6.1708940486015392e-06 
 -6.3334409728289981e-06  -6.5002695223767099e-06  -6.6714924785247772e-06  -6.8472255932769292e-06 
 -7.0275876676099210e-06  -7.2127006317840212e-06  -7.4026896277688256e-06  -7.5976830938400378e-06 
 -7.7978128514045584e-06  -8.0032141941124329e-06  -8.2140259793159542e-06  -8.4303907219376895e-06 
 -8.6524546908109912e-06  -8.8803680075578680e-06  -9.1142847480713891e-06  -9.3543630466708905e-06 
 -9.6007652030005977e-06  -9.8536577917437264e-06  -1.0113211775226448e-05  -1.0379602618987697e-05 
 -1.0653010410392735e-05  -1.0933619980371166e-05  -1.1221621028360947e-05  -1.1517208250543705e-05 
 -1.1820581471457107e-05  -1.2131945779074030e-05  -1.2451511663439287e-05  -1.2779495158957908e-05 
 -1.3116117990430973e-05  -1.3461607722937761e-05  -1.3816197915665513e-05  -1.4180128279790669e-05 
 -1.4553644840518537e-05  -1.4937000103390520e-05  -1.5330453224971635e-05  -1.5734270188033404e-05 
 -1.6148723981350770e-05  -1.6574094784234343e-05  -1.7010670155922554e-05  -1.7458745229962275e-05 
 -1.7918622913708357e-05  -1.8390614093077894e-05  -1.8875037842696677e-05  -1.9372221641580510e-05 
 -1.9882501594496655e-05  -2.0406222659155413e-05  -2.0943738879384884e-05  -2.1495413624446936e-05 
 -2.2061619834655628e-05  -2.2642740273464437e-05  -2.3239167786192484e-05  -2.3851305565564258e-05 
 -2.4479567424242931e-05  -2.5124378074540545e-05  -2.5786173415494987e-05  -2.6465400827506821e-05 
 -2.7162519474735490e-05  -2.7878000615459459e-05  -2.8612327920609056e-05  -2.9365997800688402e-05 
 -3.0139519741306193e-05  -3.0933416647542737e-05  -3.1748225197385447e-05  -3.2584496204471878e-05 
 -3.3442794990384967e-05  -3.4323701766752310e-05  -3.5227812027407514e-05  -3.6155736950877955e-05 
 -3.7108103813471895e-05  -3.8085556413242919e-05  -3.9088755505118673e-05  -4.0118379247487226e-05 
 -4.1175123660543744e-05  -4.2259703096705453e-05  -4.3372850723414007e-05  -4.4515319018650536e-05 
 -4.5687880279498137e-05  -4.6891327144095554e-05  -4.8126473127334036e-05  -4.9394153170659277e-05 
 -5.0695224206349729e-05  -5.2030565736652642e-05  -5.3401080428167868e-05  -5.4807694721881929e-05 
 -5.6251359459263198e-05  -5.7733050524841470e-05  -5.9253769505705788e-05  -6.0814544368365168e-05 
 -6.2416430153429701e-05  -6.4060509688580370e-05  -6.5747894320309749e-05  -6.7479724664926125e-05 
 -6.9257171379329637e-05  -7.1081435952078886e-05  -7.2953751515282938e-05  -7.4875383677866595e-05 
 -7.6847631380770438e-05  -7.8871827774664051e-05  -8.0949341120763107e-05  -8.3081575715359391e-05 
 -8.5269972838686439e-05  -8.7516011728762350e-05  -8.9821210580864696e-05  -9.2187127573314546e-05 
 -9.4615361920257437e-05  -9.7107554952156674e-05  -9.9665391224722190e-05  -1.0229059965702766e-04 
 -1.0498495469957956e-04  -1.0775027753312783e-04  -1.1058843729902699e-04  -1.1350135236197483e-04 
 -1.1649099160598305e-04  -1.1955937576444985e-04  -1.2270857878523544e-04  -1.2594072923165605e-04 
 -1.2925801172034460e-04  -1.3266266839694399e-04  -1.3615700045062866e-04  -1.3974336966847642e-04 
 -1.4342420003073429e-04  -1.4720197934805693e-04  -1.5107926094181593e-04  -1.5505866536861846e-04 
 -1.5914288219018871e-04  -1.6333467178981017e-04  -1.6763686723655056e-04  -1.7205237619851956e-04 
 -1.7658418290645721e-04  -1.8123535016896454e-04  -1.8600902144073959e-04  -1.9090842294520696e-04 
 -1.9593686585297229e-04  -2.0109774851756354e-04  -2.0639455876996730e-04  -2.1183087627350109e-04 
 -2.1741037494060368e-04  -2.2313682541317498e-04  -2.2901409760812553e-04  -2.3504616332985120e-04 
 -2.4123709895138948e-04  -2.4759108816605618e-04  -2.5411242481141681e-04  -2.6080551576748164e-04 
 -2.6767488393108189e-04  -2.7472517126841365e-04  -2.8196114194781023e-04  -2.8938768555483626e-04 
 -2.9700982039186988e-04  -3.0483269686438103e-04  -3.1286160095618531e-04  -3.2110195779599471e-04 
 -3.2955933531767065e-04  -3.3823944801662082e-04  -3.4714816080486533e-04  -3.5629149296736317e-04 
 -3.6567562222222864e-04  -3.7530688888758534e-04  -3.8519180015782688e-04  -3.9533703449216347e-04 
 -4.0574944611837950e-04  -4.1643606965482987e-04  -4.2740412485375818e-04  -4.3866102146911064e-04 
 -4.5021436425211273e-04  -4.6207195807793219e-04  -4.7424181320686527e-04  -4.8673215068356098e-04 
 -4.9955140787789085e-04  -5.1270824417115688e-04  -5.2621154679144497e-04  -5.4007043680201114e-04 
 -5.5429427524669240e-04  -5.6889266945645695e-04  -5.8387547952127206e-04  -5.9925282493163026e-04 
 -6.1503509139413542e-04  -6.3123293782570069e-04  -6.4785730353101320e-04  -6.6491941556803141e-04 
 -6.8243079630642578e-04  -7.0040327118397713e-04  -7.1884897666609957e-04  -7.3778036841375659e-04 
 -7.5721022966520972e-04  -7.7715167983715533e-04  -7.9761818335094786e-04  -8.1862355868976913e-04 
 -8.4018198769274027e-04  -8.6230802509213876e-04  -8.8501660830000029e-04  -9.0832306745064495e-04 
 -9.3224313570568196e-04  -9.5679295982837177e-04  -9.8198911103428784e-04  -1.0078485961254513e-03 
 -1.0343888689152781e-03  -1.0616278419518664e-03  -1.0895838985473490e-03  -1.1182759051212108e-03 
 -1.1477232238657176e-03  -1.1779457257417416e-03  -1.2089638038135534e-03  -1.2407983869312863e-03 
 -1.2734709537700918e-03  -1.3070035472351417e-03  -1.3414187892419212e-03  -1.3767398958814743e-03 
 -1.4129906929805016e-03  -1.4501956320664968e-03  -1.4883798067482758e-03  -1.5275689695226208e-03 
 -1.5677895490179530e-03  -1.6090686676862431e-03  -1.6514341599546559e-03  -1.6949145908487018e-03 
 -1.7395392750989580e-03  -1.7853382967437229e-03  -1.8323425292402957e-03  -1.8805836560978394e-03 
 -1.9300941920451574e-03  -1.9809075047469813e-03  -2.0330578370827859e-03  -2.0865803300023989e-03 
 -2.1415110459730808e-03  -2.1978869930331210e-03  -2.2557461494672375e-03  -2.3151274891196963e-03 
 -2.3760710073611169e-03  -2.4386177477256237e-03  -2.5028098292351965e-03  -2.5686904744285960e-03 
 -2.6363040381125664e-03  -2.7056960368535771e-03  -2.7769131792286053e-03  -2.8500033968540694e-03 
 -2.9250158762124654e-03  -3.0020010912965426e-03  -3.0810108370915835e-03  -3.1620982639165925e-03 
 -3.2453179126459091e-03  -3.3307257508330412e-03  -3.4183792097592178e-03  -3.5083372224295139e-03 
 -4.1544496217269539e-03  -4.2637863994229447e-03  -4.3759981248964897e-03  -4.4911602557842914e-03 
 -4.6093502228959395e-03  -4.7306474814196153e-03  -4.8551335634356776e-03  -4.9828921317704635e-03 
 -5.1140090352232263e-03  -5.2485723651999727e-03  -5.3866725137889041e-03  -5.5284022333124969e-03 
 -5.6738566973924881e-03  -5.8231335635646518e-03  -5.9763330374809579e-03  -6.1335579387377824e-03 
 -6.2949137683694688e-03  -6.4605087780475051e-03  -6.6304540410263690e-03  -6.8048635248781136e-03 
 -6.9838541660584815e-03  -7.1675459463483851e-03  -7.3560619712153595e-03  -7.5495285501407930e-03 
 -7.7480752789592967e-03  -7.9518351242579069e-03  -8.1609445098834825e-03  -8.3755434056078104e-03 
 -8.5957754180008856e-03  -8.8217878835638187e-03  -9.0537319641735906e-03  -9.2917627448934857e-03 
 -9.5360393342032741e-03  -9.7867249667049211e-03  -1.0043987108360132e-02  -1.0307997564317441e-02 
 -1.0578932589387207e-02  -1.0856973001224552e-02  -1.1142304296280289e-02  -1.1435116768582139e-02 
 -1.1735605631408538e-02  -1.2043971141919175e-02  -1.2360418728806645e-02  -1.2685159123035526e-02 
 -1.3018408491735280e-02  -1.3360388575315045e-02  -1.3711326827869371e-02  -1.4071456560944219e-02 
 -1.4441017090734412e-02  -1.4820253888784161e-02  -1.5209418736263289e-02  -1.5608769881892725e-02 
 -1.6018572203593536e-02  -1.6439097373935077e-02  -1.6870624029457815e-02  -1.7313437943948254e-02 
 -1.7767832205742740e-02  -1.8234107399138971e-02  -1.8712571789993641e-02  -1.9203541515585718e-02 
 -1.9707340778825185e-02  -2.0224302046887518e-02  -2.0754766254354622e-02  -2.1299083010942788e-02 
 -2.1857610813899638e-02  -2.2430717265150075e-02  -2.3018779293273495e-02  -2.3622183380392809e-02 
 -2.4241325794056263e-02  -2.4876612824192672e-02  -2.5528461025220085e-02  -2.6197297463387326e-02 
 -2.6883559969426939e-02  -2.7587697396597669e-02  -2.8310169884192559e-02  -2.9051449126588545e-02 
 -2.9812018647910880e-02  -3.0592374082385170e-02  -3.1393023460446437e-02  -3.2214487500674453e-02 
 -3.3057299907619610e-02  -3.3922007675583662e-02  -3.4809171398414503e-02  -3.5719365585372330e-02 
 -3.6653178983120156e-02  -3.7611214903887691e-02  -3.8594091559854722e-02  -3.9602442403793001e-02 
 -4.0636916476003079e-02  -4.1698178757575720e-02  -4.2786910530001457e-02  -4.3903809741146813e-02 
 -4.5049591377606966e-02  -4.6224987843439272e-02  -4.7430749345271958e-02  -4.8667644283776179e-02 
 -4.9936459651477937e-02  -5.1238001436879413e-02  -5.2573095034845564e-02  -5.3942585663204007e-02 
 -5.5347338785492244e-02  -5.6788240539773598e-02  -5.8266198173431136e-02  -5.9782140483833179e-02 
 -6.1337018264749708e-02  -6.2931804758381338e-02  -6.4567496112848177e-02  -6.6245111844964094e-02 
 -6.7965695308104840e-02  -6.9730314164959839e-02  -7.1540060864929755e-02  -7.3396053125916835e-02 
 -7.5299434420225131e-02  -7.7251374464265096e-02  -7.9253069711729809e-02  -8.1305743849880693e-02 
 -8.3410648298552784e-02  -8.5569062711455937e-02  -8.7782295479318290e-02  -9.0051684234380230e-02 
 -9.2378596355714493e-02  -9.4764429474805165e-02  -9.7210611980784567e-02  -9.9718603524677485e-02 
 -1.0228989552196532e-01  -1.0492601165273159e-01  -1.0762850835860266e-01  -1.1039897533565221e-01 
 -1.1323903602237599e-01  -1.1615034808179842e-01  -1.1913460387670466e-01  -1.2219353093694482e-01 
 -1.2532889241767972e-01  -1.2854248754738481e-01  -1.3183615206435587e-01  -1.3521175864038754e-01 
 -1.3867121729023138e-01  -1.4221647576535179e-01  -1.4584951993043255e-01  -1.4957237412099511e-01 
 -1.5338710148041237e-01  -1.5729580427451101e-01  -1.6130062418186630e-01  -1.6540374255780277e-01 
 -1.6960738067001074e-01  -1.7391379990360797e-01  -1.7832530193334778e-01  -1.8284422886059901e-01 
 -1.8747296331259650e-01  -1.9221392850136126e-01  -1.9706958823957738e-01  -2.0204244691059578e-01 
 -2.0713504938962196e-01  -2.1234998091302515e-01  -2.1768986689259134e-01  -2.2315737267141098e-01 
 -2.2875520321798726e-01  -2.3448610275500617e-01  -2.4035285431910974e-01  -2.4635827924786588e-01 
 -2.5250523659002416e-01  -2.5879662243501106e-01  -2.6523536915750628e-01  -2.7182444457281085e-01 
 -2.7856685099861034e-01  -2.8546562421861521e-01  -2.9252383234345108e-01  -2.9974457456406839e-01 
 -3.0713097979283432e-01  -3.1468620518737900e-01  -3.2241343455218152e-01  -3.3031587661279843e-01 
 -3.3839676315756995e-01  -3.4665934704158485e-01  -3.5510690004762407e-01  -3.6374271059878605e-01 
 -3.7257008131747765e-01  -3.8159232642542434e-01  -3.9081276897941547e-01  -4.0023473793748576e-01 
 -4.0986156505033855e-01  -4.1969658157285011e-01  -4.2974311479063859e-01  -4.4000448435678619e-01 
 -4.5048399843397779e-01  -4.6118494963750745e-01  -4.7211061077483291e-01  -4.8326423037761335e-01 
 -4.9464902802247868e-01  -5.0626818943710039e-01  -5.1812486138852998e-01  -5.3022214635119991e-01 
 -5.4256309695244387e-01  -5.5515071019391404e-01  -5.6798792144788079e-01  -5.8107759822797811e-01 
 -5.9442253373467135e-01  -6.0802544017645621e-01  -6.2188894186859678e-01  -6.3601556811204296e-01 
 -6.5040774585611960e-01  -6.6506779214952039e-01  -6.7999790638517865e-01  -6.9520016234570237e-01 
 -7.1067650005718297e-01  -7.2642871746039195e-01  -7.4245846190968678e-01  -7.5876722151118381e-01 
 -7.7535631631315594e-01  -7.9222688936302399e-01  -8.0937989764668394e-01  -8.2681610292739716e-01 
 -8.4453606250299018e-01  -8.6254011990146406e-01  -8.8082839553672854e-01  -8.9940077734753043e-01 
 -9.1825691144411670e-01  -9.3739619278850328e-01  -9.5681775593556517e-01  -9.7652046586330754e-01 
 -9.9650290892184823e-01  -1.0167633839314953e+00  -1.0372998934611830e+00  -1.0581101353190332e+00 
 -1.0791914942872294e+00  -1.1005410341334114e+00  -1.1221554899306696e+00  -1.1440312607175915e+00 
 -1.1661644025289353e+00  -1.1885506218261366e+00  -1.2111852693550611e+00  -1.2340633344560659e+00 
 -1.2571794398485927e+00  -1.2805278369090591e+00  -1.3041024014566867e+00  -1.3278966300571633e+00 
 -1.3519036368485216e+00  -1.3761161508873958e+00  -1.4005265140067937e+00  -1.4251266791687043e+00 
 -1.4499082092862343e+00  -1.4748622764805099e+00  -1.4999796617273295e+00  -1.5252507548374838e+00 
 -1.5506655547028865e+00  -1.5762136697281099e+00  -1.6018843183538733e+00  -1.6276663295653233e+00 
 -1.6535481432640591e+00  -1.6795178103684685e+00  -1.7055629924928373e+00  -1.7316709610415923e+00 
 -1.7578285955414872e+00  -1.7840223810218452e+00  -1.8102384042413489e+00  -1.8364623485499521e+00 
 -1.8626794871665415e+00  -1.8888746746476661e+00  -1.9150323363205008e+00  -1.9411364554548407e+00 
 -1.9671705579550693e+00  -1.9931176943643969e+00  -2.0189604189911190e+00  -2.0446807659907873e+00 
 -2.0702602222703108e+00  -2.0956796971204512e+00  -2.1209194885335116e+00  -2.1459592462232258e+00 
 -2.1707779314360223e+00  -2.1953537737264432e+00  -2.2196642249663170e+00  -2.2436859109674296e+00 
 -2.2673945812212515e+00  -2.2907650573975475e+00  -2.3137711813957091e+00  -2.3363857639087167e+00 
 -2.3585805346384761e+00  -2.3803260954925634e+00  -2.4015918782933152e+00  -2.4223461087399154e+00 
 -2.4425557785785226e+00  -2.4621866281517470e+00  -2.4812031417122733e+00  -2.4995685580906044e+00 
 -2.5172448994980656e+00  -2.5341930214156614e+00  -2.5503726866592968e+00  -2.5657426668128522e+00 
 -2.5802608742724034e+00  -2.5938845281367326e+00  -2.6065703570987258e+00  -2.6182748423269859e+00 
 -2.6289545030642110e+00  -2.6385662272945298e+00  -2.6470676493341490e+00  -2.6544175755649806e+00 
 -2.6605764587487624e+00  -2.6655069204202291e+00  -2.6691743197548576e+00  -2.6715473542712878e+00 
 -2.6725987541112497e+00  -2.6723059098076924e+00  -2.6706516174411332e+00  -2.6676247981396077e+00 
 -2.6632212296896536e+00  -2.6574442699431398e+00  -2.6503055551051191e+00  -2.6418256569472862e+00 
 -2.6320346781718360e+00  -2.6209727656670267e+00  -2.6086905194036971e+00  -2.5952492725463698e+00 
 -2.5807212206847261e+00  -2.5651893753945276e+00  -2.5487473202775206e+00  -2.5314987491867731e+00 
 -2.5135567689135616e+00  -2.4950429531181726e+00  -2.4760861398766449e+00  -2.4568209713803872e+00 
 -2.4373861826424830e+00  -2.4179226555121964e+00  -2.3985712642188060e+00  -2.3794705508462100e+00 
 -2.3607542802826535e+00  -2.3425489381645113e+00  -2.3249712465966605e+00  -2.3081257846178826e+00 
 -2.2921028114800039e+00  -2.2769763981151159e+00  -2.2628029785644030e+00  -2.2496204340895321e+00 
 -2.2374478191986356e+00  -2.2262858305658662e+00  -2.2161181025829544e+00  -2.2069133920016055e+00 
 -2.1986286814828793e+00  -2.1912131944894249e+00  -2.1846132667784435e+00  -2.1787779667543035e+00 
 -2.1736652985536500e+00  -2.1692487596611389e+00  -2.1655239629097180e+00  -2.1625149738971081e+00 
 -2.1602799635618424e+00  -2.1589157373871704e+00  -2.1585606822827215e+00  -2.1593956758594461e+00 
 -2.1616425353310857e+00  -2.1655596506443571e+00  -2.1714345502630046e+00  -2.1795732928028810e+00 
 -2.1902867599812921e+00  -2.2038741439463911e+00  -2.2206041676298724e+00  -2.2406948356409973e+00 
 -2.2642927742488270e+00  -2.2914534555530235e+00  -2.3221237940356385e+00  -2.3561287230746801e+00 
 -2.3931633783132873e+00  -2.4327924069633555e+00  -2.4744576651871988e+00  -2.5174951447852925e+00 
 -2.5611613825782693e+00  -2.6046688621691780e+00  -2.6472290496014717e+00  -2.6881007614344092e+00 
 -2.7266406193830961e+00  -2.7623514935510625e+00  -2.7949241854395983e+00  -2.8242672725639717e+00 
 -2.8505201474832784e+00  -2.8740449355909243e+00  -2.8953942430474884e+00  -2.9152535816174985e+00 
 -2.9343597958610443e+00  -2.9533997386784199e+00  -2.9728965766761020e+00  -2.9930941294091458e+00 
 -3.0138521575623836e+00  -3.0345670601421797e+00  -3.0541325741613381e+00  -3.0709534036601451e+00 
 -3.0830209936178519e+00  -3.0880548735001550e+00  -1.1133231036220292e-01  -1.4569803063219514e-01 
 -1.6879785462747851e-01  -1.7950633961210249e-01  -1.7763866219464514e-01  -1.6410253237269901e-01 
 -1.4093613552888012e-01  -1.1120501428566291e-01  -7.8745345786479098e-02  -4.7761771619276416e-02 
 -2.2306181370623353e-02  -5.7198960906937714e-03  -1.1121725300644101e-05  9.6517515815476721e-06 
 -1.8237279738914665e-06  2.6872113742341868e-07  -3.5559465830629519e-08  4.4302464642402226e-09 
 -5.3099827290205148e-10  6.1342857472044659e-11  -6.6131566928763014e-12  5.1926344052480161e-13 
 -2.0822418129437866e-14  4.5986246861740409e-14  1.9304804488291281e-13  -7.2374664797324592e-14 
 1.2790120461330535e-13  -7.4212243163531169e-14  -1.1252868088893856e-13  5.9063250017316202e-14 
 -5.3132710178537570e-14  -1.5375107538351400e-13  -1.9551882642372298e-14  3.3014197194060190e-13 
 -3.6501867746412029e-14  -9.6147333887704577e-14  1.2430464775954594e-13  8.1369361089513454e-14 
 -1.3444393628984896e-13  2.5122370662521681e-13  -1.6556928062812084e-13  1.1336448205156285e-13 
 -6.6313993324035097e-14  -4.1456462685920584e-14  -7.9639674516081233e-15  2.8420080409819064e-14 
 -3.3176025205575725e-14  5.6937866864507826e-15  3.4128562210139288e-14  -3.6423565669211202e-15 
 -2.5250020753575939e-14  -1.8622516028056351e-14  -1.8606448594357459e-14  1.3239867303500457e-14 
 -1.7360301478968795e-14  -1.7381936947751984e-14  2.9090538001630299e-15  1.5628806416823849e-14 
 -4.6121170208705882e-14  2.5053572477386619e-14  8.7659190353551472e-15  -8.4308495148758627e-15 
 -9.6942710386084086e-16  0.0000000000000000e+00  0.0000000000000000e+00  0.0000000000000000e+00 
 0.0000000000000000e+00  0.0000000000000000e+00  0.0000000000000000e+00  0.0000000000000000e+00 
 0.0000000000000000e+00  0.0000000000000000e+00  0.0000000000000000e+00  0.0000000000000000e+00 
 0.0000000000000000e+00  0.0000000000000000e+00  0.0000000000000000e+00  0.0000000000000000e+00 
 0.0000000000000000e+00  0.0000000000000000e+00  0.0000000000000000e+00  0.0000000000000000e+00 
 0.0000000000000000e+00  0.0000000000000000e+00  0.0000000000000000e+00  0.0000000000000000e+00 
 0.0000000000000000e+00  0.0000000000000000e+00  0.0000000000000000e+00  0.0000000000000000e+00 
 0.0000000000000000e+00  0.0000000000000000e+00  0.0000000000000000e+00  0.0000000000000000e+00 
 0.0000000000000000e+00  0.0000000000000000e+00  0.0000000000000000e+00  0.0000000000000000e+00 
 0.0000000000000000e+00  0.0000000000000000e+00  0.0000000000000000e+00  0.0000000000000000e+00 
 0.0000000000000000e+00  0.0000000000000000e+00  0.0000000000000000e+00  0.0000000000000000e+00 
 0.0000000000000000e+00  0.0000000000000000e+00  0.0000000000000000e+00  0.0000000000000000e+00 
 0.0000000000000000e+00  0.0000000000000000e+00  0.0000000000000000e+00  0.0000000000000000e+00 
 0.0000000000000000e+00  0.0000000000000000e+00  0.0000000000000000e+00  0.0000000000000000e+00 
 0.0000000000000000e+00  0.0000000000000000e+00  0.0000000000000000e+00  0.0000000000000000e+00 
 0.0000000000000000e+00  0.0000000000000000e+00  0.0000000000000000e+00  0.0000000000000000e+00 
 0.0000000000000000e+00  0.0000000000000000e+00  0.0000000000000000e+00  0.0000000000000000e+00 
 0.0000000000000000e+00  0.0000000000000000e+00  0.0000000000000000e+00  0.0000000000000000e+00 
 0.0000000000000000e+00  0.0000000000000000e+00  0.0000000000000000e+00  0.0000000000000000e+00 
 0.0000000000000000e+00  0.0000000000000000e+00  0.0000000000000000e+00  0.0000000000000000e+00 
 0.0000000000000000e+00  0.0000000000000000e+00  0.0000000000000000e+00  0.0000000000000000e+00 
 0.0000000000000000e+00  0.0000000000000000e+00  0.0000000000000000e+00  0.0000000000000000e+00 
 0.0000000000000000e+00  0.0000000000000000e+00  0.0000000000000000e+00  0.0000000000000000e+00 
 0.0000000000000000e+00  0.0000000000000000e+00  0.0000000000000000e+00  0.0000000000000000e+00 
 0.0000000000000000e+00  0.0000000000000000e+00  0.0000000000000000e+00  0.0000000000000000e+00 
 0.0000000000000000e+00  0.0000000000000000e+00  0.0000000000000000e+00  0.0000000000000000e+00 
 0.0000000000000000e+00  0.0000000000000000e+00  0.0000000000000000e+00  0.0000000000000000e+00 
 0.0000000000000000e+00  0.0000000000000000e+00  0.0000000000000000e+00  0.0000000000000000e+00 
 0.0000000000000000e+00  0.0000000000000000e+00  0.0000000000000000e+00  0.0000000000000000e+00 
 0.0000000000000000e+00  0.0000000000000000e+00  0.0000000000000000e+00  0.0000000000000000e+00 
 0.0000000000000000e+00  0.0000000000000000e+00  0.0000000000000000e+00  0.0000000000000000e+00 
 0.0000000000000000e+00  0.0000000000000000e+00  0.0000000000000000e+00  0.0000000000000000e+00 
 0.0000000000000000e+00  0.0000000000000000e+00  0.0000000000000000e+00  0.0000000000000000e+00 
 0.0000000000000000e+00  0.0000000000000000e+00  0.0000000000000000e+00  0.0000000000000000e+00 
 0.0000000000000000e+00  0.0000000000000000e+00  0.0000000000000000e+00  0.0000000000000000e+00 
 0.0000000000000000e+00  0.0000000000000000e+00  0.0000000000000000e+00  0.0000000000000000e+00 
 0.0000000000000000e+00  0.0000000000000000e+00  0.0000000000000000e+00  0.0000000000000000e+00 
 0.0000000000000000e+00  0.0000000000000000e+00  0.0000000000000000e+00  0.0000000000000000e+00 
 0.0000000000000000e+00  0.0000000000000000e+00  0.0000000000000000e+00  0.0000000000000000e+00 
 0.0000000000000000e+00  0.0000000000000000e+00  0.0000000000000000e+00  0.0000000000000000e+00 
 0.0000000000000000e+00  0.0000000000000000e+00  0.0000000000000000e+00  0.0000000000000000e+00 
 0.0000000000000000e+00  0.0000000000000000e+00  0.0000000000000000e+00  0.0000000000000000e+00 
 0.0000000000000000e+00  0.0000000000000000e+00  0.0000000000000000e+00  0.0000000000000000e+00 
 0.0000000000000000e+00  0.0000000000000000e+00  0.0000000000000000e+00  0.0000000000000000e+00 
 0.0000000000000000e+00  0.0000000000000000e+00  0.0000000000000000e+00  0.0000000000000000e+00 
 0.0000000000000000e+00  0.0000000000000000e+00  0.0000000000000000e+00  0.0000000000000000e+00 
 0.0000000000000000e+00  0.0000000000000000e+00  0.0000000000000000e+00  0.0000000000000000e+00 
 0.0000000000000000e+00  0.0000000000000000e+00  0.0000000000000000e+00  0.0000000000000000e+00 
 0.0000000000000000e+00  0.0000000000000000e+00  0.0000000000000000e+00  0.0000000000000000e+00 
 0.0000000000000000e+00  0.0000000000000000e+00  0.0000000000000000e+00  0.0000000000000000e+00 
 0.0000000000000000e+00  0.0000000000000000e+00  0.0000000000000000e+00  0.0000000000000000e+00 
 0.0000000000000000e+00  0.0000000000000000e+00  0.0000000000000000e+00  0.0000000000000000e+00 
 0.0000000000000000e+00  0.0000000000000000e+00  0.0000000000000000e+00  0.0000000000000000e+00 
 0.0000000000000000e+00  0.0000000000000000e+00  0.0000000000000000e+00  0.0000000000000000e+00 
 0.0000000000000000e+00  0.0000000000000000e+00  0.0000000000000000e+00  0.0000000000000000e+00 
 0.0000000000000000e+00  0.0000000000000000e+00  0.0000000000000000e+00  0.0000000000000000e+00 
 0.0000000000000000e+00  0.0000000000000000e+00  0.0000000000000000e+00  0.0000000000000000e+00 
 0.0000000000000000e+00  0.0000000000000000e+00  0.0000000000000000e+00  0.0000000000000000e+00 
 0.0000000000000000e+00  0.0000000000000000e+00  0.0000000000000000e+00  0.0000000000000000e+00 
 0.0000000000000000e+00  0.0000000000000000e+00  0.0000000000000000e+00  0.0000000000000000e+00 
 0.0000000000000000e+00  0.0000000000000000e+00  0.0000000000000000e+00  0.0000000000000000e+00 
 0.0000000000000000e+00  0.0000000000000000e+00  0.0000000000000000e+00  0.0000000000000000e+00 
 0.0000000000000000e+00  0.0000000000000000e+00  0.0000000000000000e+00  0.0000000000000000e+00 
 0.0000000000000000e+00  0.0000000000000000e+00  0.0000000000000000e+00  0.0000000000000000e+00 
 0.0000000000000000e+00  0.0000000000000000e+00  0.0000000000000000e+00  0.0000000000000000e+00 
 0.0000000000000000e+00  0.0000000000000000e+00  0.0000000000000000e+00  0.0000000000000000e+00 
 0.0000000000000000e+00  0.0000000000000000e+00  0.0000000000000000e+00  0.0000000000000000e+00 
 0.0000000000000000e+00  0.0000000000000000e+00  0.0000000000000000e+00  0.0000000000000000e+00 
 0.0000000000000000e+00  0.0000000000000000e+00 
  </PP_BETA>
  <PP_BETA>
  3  2      Beta    L
  1185  
 -6.0887673603070838e-13  -6.3309205819138498e-13  -6.5827043541843950e-13  -6.8445016887712729e-13 
 -7.1167108298853509e-13  -7.3997458601019900e-13  -7.6940373302604772e-13  -8.0000329144147766e-13 
 -8.3181980908320171e-13  -8.6490168500747181e-13  -8.9929924312435942e-13  -9.3506480875012634e-13 
 -9.7225278820410843e-13  -1.0109197515712156e-12  -1.0511245187559264e-12  -1.0929282489586980e-12 
 -1.1363945337108972e-12  -1.1815894936097631e-12  -1.2285818789005818e-12  -1.2774431740590561e-12 
 -1.3282477065329572e-12  -1.3810727598085052e-12  -1.4359986909734275e-12  -1.4931090529555767e-12 
 -1.5524907216230339e-12  -1.6142340279390298e-12  -1.6784328953727498e-12  -1.7451849827750152e-12 
 -1.8145918329362193e-12  -1.8867590270524570e-12  -1.9617963453348761e-12  -2.0398179340065062e-12 
 -2.1209424789406697e-12  -2.2052933862050360e-12  -2.2929989697860337e-12  -2.3841926467791260e-12 
 -2.4790131403419181e-12  -2.5776046907187808e-12  -2.6801172746580547e-12  -2.7867068335555611e-12 
 -2.8975355106714926e-12  -3.0127718977815341e-12  -3.1325912916374189e-12  -3.2571759606270500e-12 
 -3.3867154220397885e-12  -3.5214067303587658e-12  -3.6614547770186760e-12  -3.8070726020850995e-12 
 -3.9584817183294589e-12  -4.1159124481925742e-12  -4.2796042741494642e-12  -4.4498062030082372e-12 
 -4.6267771446974340e-12  -4.8107863061178187e-12  -5.0021136006579180e-12  -5.2010500739961242e-12 
 -5.4078983468372336e-12  -5.6229730752567317e-12  -5.8466014293532348e-12  -6.0791235909371932e-12 
 -6.3208932710128772e-12  -6.5722782478408410e-12  -6.8336609263994352e-12  -7.1054389200963286e-12 
 -7.3880256556150416e-12  -7.6818510018163854e-12  -7.9873619236517355e-12  -8.3050231620826558e-12 
 -8.6353179410413436e-12  -8.9787487025070608e-12  -9.3358378708171115e-12  -9.7071286473746124e-12 
 -1.0093185836962363e-11  -1.0494596706919424e-11  -1.0911971880487706e-11  -1.1345946265687250e-11 
 -1.1797180021133422e-11  -1.2266359560264982e-11  -1.2754198595510879e-11  -1.3261439223984000e-11 
 -1.3788853056353525e-11  -1.4337242390612840e-11  -1.4907441432529197e-11  -1.5500317564630627e-11 
 -1.6116772665661600e-11  -1.6757744482513734e-11  -1.7424208056718888e-11  -1.8117177207674559e-11 
 -1.8837706074857846e-11  -1.9586890721374055e-11  -2.0365870801278883e-11  -2.1175831293211270e-11 
 -2.2018004302972920e-11  -2.2893670937798132e-11  -2.3804163255163331e-11  -2.4750866289102171e-11 
 -2.5735220157107981e-11  -2.6758722250828690e-11  -2.7822929513886674e-11  -2.8929460810288388e-11 
 -3.0079999387027120e-11  -3.1276295434624082e-11  -3.2520168749503785e-11  -3.3813511502252993e-11 
 -3.5158291115974884e-11  -3.6556553259116261e-11  -3.8010424957321067e-11  -3.9522117829044034e-11 
 -4.1093931449845204e-11  -4.2728256850485243e-11  -4.4427580154140216e-11  -4.6194486358271002e-11 
 -4.8031663266899038e-11  -4.9941905579269909e-11  -5.1928119141125881e-11  -5.3993325365052536e-11 
 -5.6140665826624988e-11  -5.8373407043344390e-11  -6.0694945443635837e-11  -6.3108812533463913e-11 
 -6.5618680268428331e-11  -6.8228366639509248e-11  -7.0941841480960379e-11  -7.3763232509184097e-11 
 -7.6696831601775877e-11  -7.9747101326288562e-11  -8.2918681728648206e-11  -8.6216397391548962e-11 
 -8.9645264773561578e-11  -9.3210499840124003e-11  -9.6917525998016660e-11  -1.0077198234539713e-10 
 -1.0477973224994168e-10  -1.0894687226814284e-10  -1.1327974141933130e-10  -1.1778493082852904e-10 
 -1.2246929375280308e-10  -1.2733995600637143e-10  -1.3240432680031948e-10  -1.3767011001341674e-10 
 -1.4314531591117691e-10  -1.4883827333099237e-10  -1.5475764235187295e-10  -1.6091242746806922e-10 
 -1.6731199128661039e-10  -1.7396606876960561e-10  -1.8088478204296012e-10  -1.8807865579404476e-10 
 -1.9555863328173428e-10  -2.0333609298317078e-10  -2.1142286590257722e-10  -2.1983125356844606e-10 
 -2.2857404674648482e-10  -2.3766454489678111e-10  -2.4711657640478767e-10  -2.5694451961689954e-10 
 -2.6716332471262227e-10  -2.7778853644660977e-10  -2.8883631779515220e-10  -3.0032347454310154e-10 
 -3.1226748084862164e-10  -3.2468650582465749e-10  -3.3759944117756506e-10  -3.5102592994492765e-10 
 -3.6498639637629492e-10  -3.7950207700227967e-10  -3.9459505293929168e-10  -4.1028828347903240e-10 
 -4.2660564101385900e-10  -4.4357194735114196e-10  -4.6121301147184793e-10  -4.7955566879080421e-10 
 -4.9862782197834520e-10  -5.1845848340545196e-10  -5.3907781927694599e-10  -5.6051719551987460e-10 
 -5.8280922549688381e-10  -6.0598781961717068e-10  -6.3008823692047530e-10  -6.5514713871257324e-10 
 -6.8120264433387671e-10  -7.0829438914596120e-10  -7.3646358482422433e-10  -7.6575308204840281e-10 
 -7.9620743568631106e-10  -8.2787297256993307e-10  -8.6079786196700483e-10  -8.9503218885525141e-10 
 -9.3062803011075238e-10  -9.6763953372634811e-10  -1.0061230011805606e-09  -1.0461369730823471e-09 
 -1.0877423182219511e-09  -1.1310023261633392e-09  -1.1759828035190232e-09  -1.2227521740537701e-09 
 -1.2713815827694357e-09  -1.3219450041292577e-09  -1.3745193545862691e-09  -1.4291846095869361e-09 
 -1.4860239252280740e-09  -1.5451237647520475e-09  -1.6065740300727083e-09  -1.6704681985321055e-09 
 -1.7369034650960432e-09  -1.8059808902047326e-09  -1.8778055535034759e-09  -1.9524867136872306e-09 
 -2.0301379747021860e-09  -2.1108774585571525e-09  -2.1948279850076775e-09  -2.2821172583861940e-09 
 -2.3728780618623577e-09  -2.4672484594291435e-09  -2.5653720059218890e-09  -2.6673979653897543e-09 
 -2.7734815381518416e-09  -2.8837840968832556e-09  -2.9984734320902764e-09  -3.1177240073480649e-09 
 -3.2417172246890977e-09  -3.3706417005460430e-09  -3.5046935526688537e-09  -3.6440766984524475e-09 
 -3.7890031651288003e-09  -3.9396934122953242e-09  -4.0963766672700837e-09  -4.2592912737839652e-09 
 -4.4286850545402050e-09  -4.6048156881928435e-09  -4.7879511013173858e-09  -4.9783698759700066e-09 
 -5.1763616734552222e-09  -5.3822276749465617e-09  -5.5962810396305660e-09  -5.8188473810708924e-09 
 -6.0502652625172078e-09  -6.2908867119121372e-09  -6.5410777573798900e-09  -6.8012189840108141e-09 
 -7.0717061127889338e-09  -7.3529506025431053e-09  -7.6453802758371812e-09  -7.9494399697516381e-09 
 -8.2655922125459659e-09  -8.5943179272316224e-09  -8.9361171631253379e-09  -9.2915098564957731e-09 
 -9.6610366214602825e-09  -1.0045259572335004e-08  -1.0444763178688908e-08  -1.0860155154402480e-08 
 -1.1292067382083411e-08  -1.1741156874245180e-08  -1.2208106772710648e-08  -1.2693627387760668e-08 
 -1.3198457278608522e-08  -1.3723364376843277e-08  -1.4269147154551009e-08  -1.4836635838890747e-08 
 -1.5426693674972148e-08  -1.6040218238956184e-08  -1.6678142803375696e-08  -1.7341437756752606e-08 
 -1.8031112079671013e-08  -1.8748214879551246e-08  -1.9493836986459173e-08  -2.0269112612377984e-08 
 -2.1075221076466034e-08  -2.1913388598925003e-08  -2.2784890166206582e-08  -2.3691051470394430e-08 
 -2.4633250925711641e-08  -2.5612921765219660e-08  -2.6631554220898870e-08  -2.7690697790425450e-08 
 -2.8791963594092510e-08  -2.9937026825460501e-08  -3.1127629299463036e-08  -3.2365582101844885e-08 
 -3.3652768343960488e-08  -3.4991146027123040e-08  -3.6382751020860561e-08  -3.7829700159608469e-08 
 -3.9334194462547675e-08  -4.0898522481485854e-08  -4.2525063781872902e-08  -4.4216292562244295e-08 
 -4.5974781417597810e-08  -4.7803205252425821e-08  -4.9704345349354795e-08  -5.1681093599578437e-08 
 -5.3736456901520292e-08  -5.5873561734411417e-08  -5.8095658913742003e-08  -6.0406128535816346e-08 
 -6.2808485118930653e-08  -6.5306382948993716e-08  -6.7903621637716890e-08  -7.0604151901826920e-08 
 -7.3412081572089863e-08  -7.6331681841284114e-08  -7.9367393760621500e-08  -8.2523834994497649e-08 
 -8.5805806843840300e-08  -8.9218301548737436e-08  -9.2766509881448099e-08  -9.6455829041341655e-08 
 -1.0029187086377000e-07  -1.0428047035535495e-07  -1.0842769456866846e-07  -1.1273985182979807e-07 
 -1.1722350133283193e-07  -1.2188546311584551e-07  -1.2673282843356227e-07  -1.3177297054245726e-07 
 -1.3701355591470030e-07  -1.4246255589799063e-07  -1.4812825883900667e-07  -1.5401928268890544e-07 
 -1.6014458811003199e-07  -1.6651349210377068e-07  -1.7313568218024883e-07  -1.8002123109143944e-07 
 -1.8718061215005640e-07  -1.9462471515753326e-07  -2.0236486296529392e-07  -2.1041282869449553e-07 
 -2.1878085364041451e-07  -2.2748166588869193e-07  -2.3652849967174154e-07  -2.4593511549473247e-07 
 -2.5571582106174600e-07  -2.6588549303390579e-07  -2.7645959965256006e-07  -2.8745422426188937e-07 
 -2.9888608976670225e-07  -3.1077258406257919e-07  -3.2313178647701743e-07  -3.3598249526176390e-07 
 -3.4934425617810552e-07  -3.6323739221856847e-07  -3.7768303451017729e-07  -3.9270315444625298e-07 
 -4.0832059709555176e-07  -4.2455911593952911e-07  -4.4144340899049867e-07  -4.5899915634556009e-07 
 -4.7725305923337287e-07  -4.9623288061307192e-07  -5.1596748738702272e-07  -5.3648689429154151e-07 
 -5.5782230953225498e-07  -5.8000618223341617e-07  -6.0307225177326932e-07  -6.2705559908039028e-07 
 -6.5199269996890908e-07  -6.7792148059365383e-07  -7.0488137510940162e-07  -7.3291338562182675e-07 
 -7.6206014452119412e-07  -7.9236597929344003e-07  -8.2387697990707635e-07  -8.5664106887822619e-07 
 -8.9070807412018600e-07  -9.2612980468811011e-07  -9.6296012953384318e-07  -1.0012550593904199e-06 
 -1.0410728319105764e-06  -1.0824740001884874e-06  -1.1255215247991159e-06  -1.1702808694948500e-06 
 -1.2168201007046997e-06  -1.2652099909870289e-06  -1.3155241265928138e-06  -1.3678390193027087e-06 
 -1.4222342227075067e-06  -1.4787924531085339e-06  -1.5375997152213143e-06  -1.5987454328732673e-06 
 -1.6623225848936288e-06  -1.7284278464017969e-06  -1.7971617357083052e-06  -1.8686287670512792e-06 
 -1.9429376093999745e-06  -2.0202012515661714e-06  -2.1005371738737934e-06  -2.1840675266470122e-06 
 -2.2709193157874086e-06  -2.3612245957214831e-06  -2.4551206700109647e-06  -2.5527502999299581e-06 
 -2.6542619213249383e-06  -2.7598098700863083e-06  -2.8695546165729552e-06  -2.9836630093450616e-06 
 -3.1023085285742934e-06  -3.2256715495151925e-06  -3.3539396164367610e-06  -3.4873077274290245e-06 
 -3.6259786305157642e-06  -3.7701631315216780e-06  -3.9200804141600412e-06  -4.0759583728251166e-06 
 -4.2380339585931336e-06  -4.4065535389551627e-06  -4.5817732718261545e-06  -4.7639594943958611e-06 
 -4.9533891274097115e-06  -5.1503500954910095e-06  -5.3551417641397080e-06  -5.5680753940687930e-06 
 -5.7894746135644021e-06  -6.0196759095838919e-06  -6.2590291383336295e-06  -6.5078980560978041e-06 
 -6.7666608711200347e-06  -7.0357108173710453e-06  -7.3154567510686859e-06  -7.6063237708505989e-06 
 -7.9087538625356993e-06  -8.2232065694468699e-06  -8.5501596893064079e-06  -8.8901099987549400e-06 
 -9.2435740065864617e-06  -9.6110887368347577e-06  -9.9932125428914432e-06  -1.0390525953882244e-05 
 -1.0803632554576340e-05  -1.1233159900154102e-05  -1.1679760467209984e-05  -1.2144112642422277e-05 
 -1.2626921750377220e-05  -1.3128921122093499e-05  -1.3650873205854129e-05  -1.4193570722015411e-05 
 -1.4757837863528828e-05  -1.5344531543979013e-05  -1.5954542695012776e-05  -1.6588797615106698e-05 
 -1.7248259371697570e-05  -1.7933929258779503e-05  -1.8646848312153746e-05  -1.9388098884602507e-05 
 -2.0158806283347839e-05  -2.0960140472248260e-05  -2.1793317841281465e-05  -2.2659603045963119e-05 
 -2.3560310919451712e-05  -2.4496808460200685e-05  -2.5470516898127916e-05  -2.6482913842389969e-05 
 -2.7535535513968296e-05  -2.8629979066400425e-05  -2.9767904998117287e-05  -3.0951039659984541e-05 
 -3.2181177861785225e-05  -3.3460185581524630e-05  -3.4790002781592167e-05  -3.6172646335968923e-05 
 -3.7610213072834259e-05  -3.9104882937091960e-05  -4.0658922277513308e-05  -4.2274687263374752e-05 
 -4.8431599751001945e-05  -5.0356296475193385e-05  -5.2357441906953203e-05  -5.4438069912356879e-05 
 -5.6601334577430535e-05  -5.8850514959971076e-05  -6.1189020028380159e-05  -6.3620393794818820e-05 
 -6.6148320650269172e-05  -6.8776630909383378e-05  -7.1509306573305244e-05  -7.4350487318959984e-05 
 -7.7304476723638949e-05  -8.0375748734042474e-05  -8.3568954389295563e-05  -8.6888928807817128e-05 
 -9.0340698448299907e-05  -9.3929488655452299e-05  -9.7660731501557173e-05  -1.0154007393532976e-04 
 -1.0557338624998797e-04  -1.0976677088290691e-04  -1.1412657155969664e-04  -1.1865938279603271e-04 
 -1.2337205977107016e-04  -1.2827172858680168e-04  -1.3336579692825552e-04  -1.3866196513999846e-04 
 -1.4416823773499133e-04  -1.4989293535244379e-04  -1.5584470718194395e-04  -1.6203254387179132e-04 
 -1.6846579094012532e-04  -1.7515416270814184e-04  -1.8210775677541066e-04  -1.8933706905805206e-04 
 -1.9685300941129900e-04  -2.0466691785878404e-04  -2.1279058145169525e-04  -2.2123625178182660e-04 
 -2.3001666317341724e-04  -2.3914505157959781e-04  -2.4863517421020961e-04  -2.5850132991874630e-04 
 -2.6875838037717476e-04  -2.7942177206844864e-04  -2.9050755912761803e-04  -3.0203242706353632e-04 
 -3.1401371739435505e-04  -3.2646945323117353e-04  -3.3941836584545476e-04  -3.5287992225709649e-04 
 -3.6687435388136247e-04  -3.8142268627424996e-04  -3.9654677001725613e-04  -4.1226931278399374e-04 
 -4.2861391263254928e-04  -4.4560509256907964e-04  -4.6326833642969045e-04  -4.8163012612930398e-04 
 -5.0071798032791284e-04  -5.2056049456635184e-04  -5.4118738292552597e-04  -5.6262952126486323e-04 
 -5.8491899209770751e-04  -6.0808913116325053e-04  -6.3217457575670414e-04  -6.5721131488141000e-04 
 -6.8323674128876501e-04  -7.1028970547400171e-04  -7.3841057169811333e-04  -7.6764127610853567e-04 
 -7.9802538703353213e-04  -8.2960816752770527e-04  -8.6243664024848960e-04  -8.9655965474607388e-04 
 -9.3202795725179160e-04  -9.6889426305268606e-04  -1.0072133315427959e-03  -1.0470420440440939e-03 
 -1.0884394844935721e-03  -1.1314670230955666e-03  -1.1761884030400246e-03  -1.2226698303943449e-03 
 -1.2709800672735610e-03  -1.3211905284029343e-03  -1.3733753811858462e-03  -1.4276116493947681e-03 
 -1.4839793206068359e-03  -1.5425614575076707e-03  -1.6034443131912679e-03  -1.6667174505872510e-03 
 -1.7324738661490334e-03  -1.8008101179421987e-03  -1.8718264582730350e-03  -1.9456269710027487e-03 
 -2.0223197136961233e-03  -2.1020168647551659e-03  -2.1848348756949507e-03  -2.2708946287180475e-03 
 -2.3603215997520769e-03  -2.4532460271146262e-03  -2.5498030859750264e-03  -2.6501330687845820e-03 
 -2.7543815718519054e-03  -2.8626996882404609e-03  -2.9752442071711567e-03  -3.0921778201137926e-03 
 -3.2136693337546317e-03  -3.3398938900296325e-03  -3.4710331934160550e-03  -3.6072757456764369e-03 
 -3.7488170882507684e-03  -3.8958600524953697e-03  -4.0486150179680214e-03  -4.2073001789583358e-03 
 -4.3721418194665384e-03  -4.5433745968301515e-03  -4.7212418342003756e-03  -4.9059958220707299e-03 
 -5.0978981290538050e-03  -5.2972199221087953e-03  -5.5042422964115883e-03  -5.7192566150627219e-03 
 -5.9425648588218522e-03  -6.1744799860538159e-03  -6.4153263030661814e-03  -6.6654398450122021e-03 
 -6.9251687675262975e-03  -7.1948737492503788e-03  -7.4749284054012564e-03  -7.7657197125190914e-03 
 -8.0676484445252120e-03  -8.3811296202029439e-03  -8.7065929622051931e-03  -9.0444833676727957e-03 
 -9.3952613905311025e-03  -9.7594037355163629e-03  -1.0137403763958509e-02  -1.0529772011325825e-02 
 -1.0937036716514454e-02  -1.1359744362835081e-02  -1.1798460230622454e-02  -1.2253768961362819e-02 
 -1.2726275133196841e-02  -1.3216603847623480e-02  -1.3725401327187617e-02  -1.4253335523894574e-02 
 -1.4801096738047137e-02  -1.5369398247155466e-02  -1.5958976944516142e-02  -1.6570593987003217e-02 
 -1.7205035451555460e-02  -1.7863112999782608e-02  -1.8545664550047063e-02  -1.9253554956305909e-02 
 -1.9987676692931552e-02  -2.0748950544641244e-02  -2.1538326300594452e-02  -2.2356783451622356e-02 
 -2.3205331889469657e-02  -2.4085012606829846e-02  -2.4996898396860385e-02  -2.5942094550753612e-02 
 -2.6921739551840702e-02  -2.7937005764584563e-02  -2.8989100116706776e-02  -3.0079264772571473e-02 
 -3.1208777795820427e-02  -3.2378953799133005e-02  -3.3591144578842193e-02  -3.4846739732009600e-02 
 -3.6147167253419751e-02  -3.7493894109815920e-02  -3.8888426788547745e-02  -4.0332311817668380e-02 
 -4.1827136254362636e-02  -4.3374528138441448e-02  -4.4976156907499031e-02  -4.6633733770176738e-02 
 -4.8349012033840122e-02  -5.0123787382835593e-02  -5.1959898103358347e-02  -5.3859225250838770e-02 
 -5.5823692755632891e-02  -5.7855267462691748e-02  -5.9955959100789366e-02  -6.2127820176800873e-02 
 -6.4372945790452815e-02  -6.6693473364921110e-02  -6.9091582288612965e-02  -7.1569493463471218e-02 
 -7.4129468755159161e-02  -7.6773810340478726e-02  -7.9504859947647874e-02  -8.2324997984803722e-02 
 -8.5236642552739786e-02  -8.8242248337632320e-02  -9.1344305380165539e-02  -9.4545337717365632e-02 
 -9.7847901894167186e-02  -1.0125458534201089e-01  -1.0476800462212550e-01  -1.0839080353200765e-01 
 -1.1212565107398406e-01  -1.1597523928556791e-01  -1.1994228093214875e-01  -1.2402950706335997e-01 
 -1.2823966443550097e-01  -1.3257551280354743e-01  -1.3703982208725063e-01  -1.4163536941740007e-01 
 -1.4636493606943149e-01  -1.5123130429333126e-01  -1.5623725405014588e-01  -1.6138555966729096e-01 
 -1.6667898642663717e-01  -1.7212028710120306e-01  -1.7771219845836400e-01  -1.8345743774956730e-01 
 -1.8935869920870732e-01  -1.9541865058358590e-01  -2.0163992972711806e-01  -2.0802514127726970e-01 
 -2.1457685345707650e-01  -2.2129759502832436e-01  -2.2818985243469900e-01  -2.3525606717242006e-01 
 -2.4249863342829192e-01  -2.4991989602696246e-01  -2.5752214873075835e-01  -2.6530763293668536e-01 
 -2.7327853681616809e-01  -2.8143699494341584e-01  -2.8978508845840301e-01  -2.9832484580951052e-01 
 -3.0705824411970706e-01  -3.1598721121762552e-01  -3.2511362837190605e-01  -3.3443933376269969e-01 
 -3.4396612671891208e-01  -3.5369577274288111e-01  -3.6363000933577105e-01  -3.7377055262712794e-01 
 -3.8411910480075551e-01  -3.9467736229430139e-01  -4.0544702473580430e-01  -4.1642980456106665e-01 
 -4.2762743723663715e-01  -4.3904169198980997e-01  -4.5067438292166528e-01  -4.6252738035209418e-01 
 -4.7460262221403371e-01  -4.8690212528170840e-01  -4.9942799598102722e-01  -5.1218244049235373e-01 
 -5.2516777381421442e-01  -5.3838642741367249e-01  -5.5184095504398645e-01  -5.6553403626339371e-01 
 -5.7946847714150418e-01  -5.9364720759150091e-01  -6.0807327471973693e-01  -6.2274983153716479e-01 
 -6.3768012033460109e-01  -6.5286744998328994e-01  -6.6831516638809274e-01  -6.8402661529288811e-01 
 -7.0000509661892918e-01  -7.1625380950887285e-01  -7.3277578725419990e-01  -7.4957382130477390e-01 
 -7.6665037359777177e-01  -7.8400747650381142e-01  -8.0164661977195195e-01  -8.1956862396663044e-01 
 -8.3777350003137896e-01  -8.5626029478894350e-01  -8.7502692239854385e-01  -8.9406998204164234e-01 
 -9.1338456239909693e-01  -9.3296403381780602e-01  -9.5279982944504416e-01  -9.7288121703344277e-01 
 -9.9319506358965670e-01  -1.0137255955521403e+00  -1.0344541577355151e+00  -1.0553589748658192e+00 
 -1.0764149201444220e+00  -1.0975932959108448e+00  -1.1188616321120923e+00  -1.1401835089156647e+00 
 -1.1615184104056917e+00  -1.1828216168565802e+00  -1.2040441435614821e+00  -1.2251327345758514e+00 
 -1.2460299199886684e+00  -1.2666741454214177e+00  -1.2869999823407265e+00  -1.3069384317465720e+00 
 -1.3264173037339893e+00  -1.3453617370952944e+00  -1.3636948008876855e+00  -1.3813382104347598e+00 
 -1.3982131632233132e+00  -1.4142412858095459e+00  -1.4293456885011435e+00  -1.4434521212074498e+00 
 -1.4564902186715798e+00  -1.4683948186107638e+00  -1.4791073330730662e+00  -1.4885771462870430e+00 
 -1.4967630094068820e+00  -1.5036343957531126e+00  -1.5091727759255749e+00  -1.5133727681522804e+00 
 -1.5162431148206457e+00  -1.5178074334923850e+00  -1.5181046898746484e+00  -1.5171893396814291e+00 
 -1.5151310889019183e+00  -1.5120142269725838e+00  -1.5079364936085755e+00  -1.5030074521092762e+00 
 -1.4973463532665725e+00  -1.4910794931942093e+00  -1.4843370868241568e+00  -1.4772497028481164e+00 
 -1.4699443324783097e+00  -1.4625401914027725e+00  -1.4551443851563679e+00  -1.4478475968396043e+00 
 -1.4407199843366241e+00  -1.4338074999099213e+00  -1.4271288636047856e+00  -1.4206734354386592e+00 
 -1.4144002326780412e+00  -1.4082383288665159e+00  -1.4020888466671848e+00  -1.3958287144056201e+00 
 -1.3893162969105819e+00  -1.3823989316578524e+00  -1.3749223038606095e+00  -1.3667414784315761e+00 
 -1.3577332780338514e+00  -1.3478095573902045e+00  -1.3369307835102657e+00  -1.3251191975597081e+00 
 -1.3124707161165405e+00  -1.2991646440283340e+00  -1.2854702251058971e+00  -1.2717490710849169e+00 
 -1.2584525907616118e+00  -1.2461137043314576e+00  -1.2353323797778730e+00  -1.2267548670640800e+00 
 -1.2210469341322467e+00  -1.2188619030950381e+00  -1.2208048314744286e+00  -1.2273947405023045e+00 
 -1.2390273196388983e+00  -1.2559409778239794e+00  -1.2781894072450048e+00  -1.3056239105593588e+00 
 -1.3378885568909402e+00  -1.3744307245992238e+00  -1.4145287276183645e+00  -1.4573370023930710e+00 
 -1.5019477844786746e+00  -1.5474664055607801e+00  -1.5930954146052474e+00  -1.6382208472885296e+00 
 -1.6824923530641560e+00  -1.7258877868208200e+00  -1.7687525463515139e+00  -1.8118046190896544e+00 
 -1.8560981844238307e+00  -1.9029417741579784e+00  -1.9537713727256087e+00  -2.0099841985965603e+00 
 -2.0727448168113471e+00  -2.1427810526197906e+00  -2.2201921104489779e+00  -2.3042944494878723e+00 
 -2.3935314401012704e+00  -2.4854698763772527e+00  2.5853585569602111e-01  1.7410838354327132e-01 
 9.6076805647556995e-02  2.8332684848039427e-02  -2.5760530707120099e-02  -6.3767757016505347e-02 
 -8.4505541830619132e-02  -8.8226805577301573e-02  -7.6616638978542692e-02  -5.2549425217134342e-02 
 -1.9778695906315653e-02  1.9146603364282221e-02  4.9254959193497962e-02  8.6964688693573055e-03 
 -8.6443048625102763e-04  8.5936921725859888e-05  -8.5446696103924229e-06  8.4972776845965770e-07 
 -8.4514946427658348e-08  8.4073738745403391e-09  -8.3591344529952086e-10  8.2257617493939616e-11 
 -8.0690052081670484e-12  8.3904247113107912e-13  4.7662540014286119e-14  -8.8171152227674117e-14 
 -3.1608532275811935e-13  7.8930597750280134e-13  -4.0435407982716198e-13  -2.3937324685672763e-13 
 2.1324273891880917e-13  -3.0053588674225217e-13  4.5407243004074533e-14  2.5388170028197165e-13 
 2.1831429373822165e-13  -6.0026834362119901e-13  5.1404809556680955e-13  -1.3563318809538450e-13 
 2.7671483330105880e-13  1.7206522002937218e-14  -3.2975822937981985e-13  3.3106296753241170e-13 
 -5.5604847404242566e-14  -2.8374050394758388e-14  3.7218040158171172e-14  1.0374823342193560e-13 
 -2.3081142841780878e-13  3.2214995891908234e-13  -2.5310048484556144e-13  1.1371143765739661e-13 
 -4.8886274478746925e-14  -2.3855366702647668e-13  9.2576987388126054e-14  -7.4068308915959545e-14 
 5.2128654322597981e-14  4.9730032115607585e-14  1.1758880582922840e-14  8.5744978684697549e-14 
 -1.7118544117606099e-13  2.0772938245267480e-13  -1.3175971226596854e-13  3.7403568841564196e-14 
 -7.3376625313882548e-14  -3.0319637989916197e-12  0.0000000000000000e+00  0.0000000000000000e+00 
 0.0000000000000000e+00  0.0000000000000000e+00  0.0000000000000000e+00  0.0000000000000000e+00 
 0.0000000000000000e+00  0.0000000000000000e+00  0.0000000000000000e+00  0.0000000000000000e+00 
 0.0000000000000000e+00  0.0000000000000000e+00  0.0000000000000000e+00  0.0000000000000000e+00 
 0.0000000000000000e+00  0.0000000000000000e+00  0.0000000000000000e+00  0.0000000000000000e+00 
 0.0000000000000000e+00  0.0000000000000000e+00  0.0000000000000000e+00  0.0000000000000000e+00 
 0.0000000000000000e+00  0.0000000000000000e+00  0.0000000000000000e+00  0.0000000000000000e+00 
 0.0000000000000000e+00  0.0000000000000000e+00  0.0000000000000000e+00  0.0000000000000000e+00 
 0.0000000000000000e+00  0.0000000000000000e+00  0.0000000000000000e+00  0.0000000000000000e+00 
 0.0000000000000000e+00  0.0000000000000000e+00  0.0000000000000000e+00  0.0000000000000000e+00 
 0.0000000000000000e+00  0.0000000000000000e+00  0.0000000000000000e+00  0.0000000000000000e+00 
 0.0000000000000000e+00  0.0000000000000000e+00  0.0000000000000000e+00  0.0000000000000000e+00 
 0.0000000000000000e+00  0.0000000000000000e+00  0.0000000000000000e+00  0.0000000000000000e+00 
 0.0000000000000000e+00  0.0000000000000000e+00  0.0000000000000000e+00  0.0000000000000000e+00 
 0.0000000000000000e+00  0.0000000000000000e+00  0.0000000000000000e+00  0.0000000000000000e+00 
 0.0000000000000000e+00  0.0000000000000000e+00  0.0000000000000000e+00  0.0000000000000000e+00 
 0.0000000000000000e+00  0.0000000000000000e+00  0.0000000000000000e+00  0.0000000000000000e+00 
 0.0000000000000000e+00  0.0000000000000000e+00  0.0000000000000000e+00  0.0000000000000000e+00 
 0.0000000000000000e+00  0.0000000000000000e+00  0.0000000000000000e+00  0.0000000000000000e+00 
 0.0000000000000000e+00  0.0000000000000000e+00  0.0000000000000000e+00  0.0000000000000000e+00 
 0.0000000000000000e+00  0.0000000000000000e+00  0.0000000000000000e+00  0.0000000000000000e+00 
 0.0000000000000000e+00  0.0000000000000000e+00  0.0000000000000000e+00  0.0000000000000000e+00 
 0.0000000000000000e+00  0.0000000000000000e+00  0.0000000000000000e+00  0.0000000000000000e+00 
 0.0000000000000000e+00  0.0000000000000000e+00  0.0000000000000000e+00  0.0000000000000000e+00 
 0.0000000000000000e+00  0.0000000000000000e+00  0.0000000000000000e+00  0.0000000000000000e+00 
 0.0000000000000000e+00  0.0000000000000000e+00  0.0000000000000000e+00  0.0000000000000000e+00 
 0.0000000000000000e+00  0.0000000000000000e+00  0.0000000000000000e+00  0.0000000000000000e+00 
 0.0000000000000000e+00  0.0000000000000000e+00  0.0000000000000000e+00  0.0000000000000000e+00 
 0.0000000000000000e+00  0.0000000000000000e+00  0.0000000000000000e+00  0.0000000000000000e+00 
 0.0000000000000000e+00  0.0000000000000000e+00  0.0000000000000000e+00  0.0000000000000000e+00 
 0.0000000000000000e+00  0.0000000000000000e+00  0.0000000000000000e+00  0.0000000000000000e+00 
 0.0000000000000000e+00  0.0000000000000000e+00  0.0000000000000000e+00  0.0000000000000000e+00 
 0.0000000000000000e+00  0.0000000000000000e+00  0.0000000000000000e+00  0.0000000000000000e+00 
 0.0000000000000000e+00  0.0000000000000000e+00  0.0000000000000000e+00  0.0000000000000000e+00 
 0.0000000000000000e+00  0.0000000000000000e+00  0.0000000000000000e+00  0.0000000000000000e+00 
 0.0000000000000000e+00  0.0000000000000000e+00  0.0000000000000000e+00  0.0000000000000000e+00 
 0.0000000000000000e+00  0.0000000000000000e+00  0.0000000000000000e+00  0.0000000000000000e+00 
 0.0000000000000000e+00  0.0000000000000000e+00  0.0000000000000000e+00  0.0000000000000000e+00 
 0.0000000000000000e+00  0.0000000000000000e+00  0.0000000000000000e+00  0.0000000000000000e+00 
 0.0000000000000000e+00  0.0000000000000000e+00  0.0000000000000000e+00  0.0000000000000000e+00 
 0.0000000000000000e+00  0.0000000000000000e+00  0.0000000000000000e+00  0.0000000000000000e+00 
 0.0000000000000000e+00  0.0000000000000000e+00  0.0000000000000000e+00  0.0000000000000000e+00 
 0.0000000000000000e+00  0.0000000000000000e+00  0.0000000000000000e+00  0.0000000000000000e+00 
 0.0000000000000000e+00  0.0000000000000000e+00  0.0000000000000000e+00  0.0000000000000000e+00 
 0.0000000000000000e+00  0.0000000000000000e+00  0.0000000000000000e+00  0.0000000000000000e+00 
 0.0000000000000000e+00  0.0000000000000000e+00  0.0000000000000000e+00  0.0000000000000000e+00 
 0.0000000000000000e+00  0.0000000000000000e+00  0.0000000000000000e+00  0.0000000000000000e+00 
 0.0000000000000000e+00  0.0000000000000000e+00  0.0000000000000000e+00  0.0000000000000000e+00 
 0.0000000000000000e+00  0.0000000000000000e+00  0.0000000000000000e+00  0.0000000000000000e+00 
 0.0000000000000000e+00  0.0000000000000000e+00  0.0000000000000000e+00  0.0000000000000000e+00 
 0.0000000000000000e+00  0.0000000000000000e+00  0.0000000000000000e+00  0.0000000000000000e+00 
 0.0000000000000000e+00  0.0000000000000000e+00  0.0000000000000000e+00  0.0000000000000000e+00 
 0.0000000000000000e+00  0.0000000000000000e+00  0.0000000000000000e+00  0.0000000000000000e+00 
 0.0000000000000000e+00  0.0000000000000000e+00  0.0000000000000000e+00  0.0000000000000000e+00 
 0.0000000000000000e+00  0.0000000000000000e+00  0.0000000000000000e+00  0.0000000000000000e+00 
 0.0000000000000000e+00  0.0000000000000000e+00  0.0000000000000000e+00  0.0000000000000000e+00 
 0.0000000000000000e+00  0.0000000000000000e+00  0.0000000000000000e+00  0.0000000000000000e+00 
 0.0000000000000000e+00  0.0000000000000000e+00  0.0000000000000000e+00  0.0000000000000000e+00 
 0.0000000000000000e+00  0.0000000000000000e+00  0.0000000000000000e+00  0.0000000000000000e+00 
 0.0000000000000000e+00  0.0000000000000000e+00  0.0000000000000000e+00  0.0000000000000000e+00 
 0.0000000000000000e+00  0.0000000000000000e+00  0.0000000000000000e+00  0.0000000000000000e+00 
 0.0000000000000000e+00  0.0000000000000000e+00  0.0000000000000000e+00  0.0000000000000000e+00 
 0.0000000000000000e+00  0.0000000000000000e+00  0.0000000000000000e+00  0.0000000000000000e+00 
 0.0000000000000000e+00  0.0000000000000000e+00  0.0000000000000000e+00  0.0000000000000000e+00 
 0.0000000000000000e+00  0.0000000000000000e+00  0.0000000000000000e+00  0.0000000000000000e+00 
 0.0000000000000000e+00  0.0000000000000000e+00  0.0000000000000000e+00  0.0000000000000000e+00 
 0.0000000000000000e+00  0.0000000000000000e+00  0.0000000000000000e+00  0.0000000000000000e+00 
 0.0000000000000000e+00  0.0000000000000000e+00  0.0000000000000000e+00  0.0000000000000000e+00 
 0.0000000000000000e+00  0.0000000000000000e+00 
  </PP_BETA>
  <PP_DIJ>
 3   Number of nonzero Dij
 1 1 -3.3499048113168040e-01 
 2 2 -4.4703583234631789e-01 
 3 3 -1.1303204927986759e+00 
  </PP_DIJ>
</PP_NONLOCAL>
<PP_PSWFC>
S    0   2.00          Wavefunction
 1.5591286267225996e-05  1.5795296180829368e-05  1.6001975537125257e-05  1.6211359265418523e-05 
 1.6423482752059405e-05  1.6638381846423901e-05  1.6856092866972368e-05  1.7076652607387513e-05 
 1.7300098342792508e-05  1.7526467836050649e-05  1.7755799344147363e-05  1.7988131624655729e-05 
 1.8223503942286563e-05  1.8461956075524351e-05  1.8703528323349787e-05  1.8948261512050498e-05 
 1.9196197002120736e-05  1.9447376695251440e-05  1.9701843041411698e-05  1.9959639046022882e-05 
 2.0220808277226738e-05  2.0485394873248447e-05  2.0753443549856094e-05  2.1024999607917820e-05 
 2.1300108941057692e-05  2.1578818043411882e-05  2.1861174017486303e-05  2.2147224582117029e-05 
 2.2437018080534925e-05  2.2730603488535716e-05  2.3028030422757098e-05  2.3329349149064041e-05 
 2.3634610591043825e-05  2.3943866338612273e-05  2.4257168656732624e-05  2.4574570494248344e-05 
 2.4896125492831723e-05  2.5221887996049371e-05  2.5551913058546491e-05  2.5886256455351187e-05 
 2.6224974691300627e-05  2.6568125010590516e-05  2.6915765406449459e-05  2.7267954630940061e-05 
 2.7624752204888101e-05  2.7986218427941661e-05  2.8352414388762093e-05  2.8723401975347986e-05 
 2.9099243885494486e-05  2.9480003637389380e-05  2.9865745580347837e-05  3.0256534905687597e-05 
 3.0652437657746487e-05  3.1053520745044093e-05  3.1459851951589433e-05  3.1871499948336731e-05 
 3.2288534304790915e-05  3.2711025500765019e-05  3.3139044938291595e-05  3.3572664953689696e-05 
 3.4011958829790003e-05  3.4457000808319800e-05  3.4907866102450023e-05  3.5364630909506498e-05 
 3.5827372423847472e-05  3.6296168849909721e-05  3.6771099415425257e-05  3.7252244384811096e-05 
 3.7739685072734136e-05  3.8233503857853530e-05  3.8733784196742953e-05  3.9240610637995040e-05 
 3.9754068836510181e-05  4.0274245567972655e-05  4.0801228743515758e-05  4.1335107424579218e-05 
 4.1875971837960727e-05  4.2423913391064508e-05  4.2979024687349559e-05  4.3541399541979751e-05 
 4.4111132997678996e-05  4.4688321340793611e-05  4.5273062117565234e-05  4.5865454150616049e-05 
 4.6465597555650506e-05  4.7073593758374941e-05  4.7689545511638808e-05  4.8313556912800384e-05 
 4.8945733421319438e-05  4.9586181876580178e-05  5.0235010515947463e-05  5.0892328993059344e-05 
 5.1558248396358695e-05  5.2232881267867685e-05  5.2916341622207580e-05  5.3608744965867727e-05 
 5.4310208316726458e-05  5.5020850223827335e-05  5.5740790787414675e-05  5.6470151679230509e-05 
 5.7209056163077824e-05  5.7957629115652234e-05  5.8715997047646854e-05  5.9484288125132905e-05 
 6.0262632191220157e-05  6.1051160788001032e-05  6.1850007178781453e-05  6.2659306370602957e-05 
 6.3479195137059309e-05  6.4309812041411798e-05  6.5151297460006808e-05  6.6003793605999951e-05 
 6.6867444553390731e-05  6.7742396261371280e-05  6.8628796598994444e-05  6.9526795370163826e-05 
 7.0436544338951329e-05  7.1358197255245968e-05  7.2291909880738017e-05  7.3237840015243403e-05 
 7.4196147523372769e-05  7.5166994361548577e-05  7.6150544605377133e-05  7.7146964477377435e-05 
 7.8156422375073869e-05  7.9179088899455880e-05  8.0215136883810321e-05  8.1264741422930917e-05 
 8.2328079902710142e-05  8.3405332030118181e-05  8.4496679863574277e-05  8.5602307843714968e-05 
 8.6722402824566185e-05  8.7857154105121739e-05  8.9006753461335866e-05  9.0171395178534537e-05 
 9.1351276084250256e-05  9.2546595581487114e-05  9.3757555682420695e-05  9.4984361042539179e-05 
 9.6227218995231141e-05  9.7486339586826075e-05  9.8761935612092736e-05  1.0005422265020360e-04 
 1.0136341910116776e-04  1.0268974622274239e-04  1.0403342816782629e-04  1.0539469202234297e-04 
 1.0677376784361947e-04  1.0817088869926713e-04  1.0958629070657192e-04  1.1102021307239887e-04 
 1.1247289813362005e-04  1.1394459139807077e-04  1.1543554158604176e-04  1.1694600067231469e-04 
 1.1847622392874726e-04  1.2002646996741591e-04  1.2159700078432300e-04  1.2318808180367585e-04 
 1.2479998192274511e-04  1.2643297355731029e-04  1.2808733268769991e-04  1.2976333890543431e-04 
 1.3146127546047844e-04  1.3318142930911301e-04  1.3492409116243291e-04  1.3668955553547893e-04 
 1.3847812079701325e-04  1.4029008921994637e-04  1.4212576703242323e-04  1.4398546446957880e-04 
 1.4586949582597009e-04  1.4777817950869444e-04  1.4971183809120341e-04  1.5167079836782030e-04 
 1.5365539140897179e-04  1.5566595261714099e-04  1.5770282178355463e-04  1.5976634314561009e-04 
 1.6185686544505548e-04  1.6397474198693034e-04  1.6612033069927766e-04  1.6829399419363722e-04 
 1.7049609982633111e-04  1.7272701976055082e-04  1.7498713102925685e-04  1.7727681559890119e-04 
 1.7959646043398480e-04  1.8194645756245784e-04  1.8432720414197871e-04  1.8673910252703707e-04 
 1.8918256033695750e-04  1.9165799052479218e-04  1.9416581144711501e-04  1.9670644693473011e-04 
 1.9928032636430399e-04  2.0188788473093694e-04  2.0452956272168282e-04  2.0720580679003199e-04 
 2.0991706923136823e-04  2.1266380825941294e-04  2.1544648808367157e-04  2.1826557898789150e-04 
 2.2112155740954716e-04  2.2401490602036683e-04  2.2694611380791161e-04  2.2991567615822272e-04 
 2.3292409493955076e-04  2.3597187858718005e-04  2.3905954218936411e-04  2.4218760757438465e-04 
 2.4535660339875095e-04  2.4856706523655335e-04  2.5181953566998571e-04  2.5511456438105293e-04 
 2.5845270824447928e-04  2.6183453142183174e-04  2.6526060545687633e-04  2.6873150937218102e-04 
 2.7224782976698530e-04  2.7581016091634766e-04  2.7941910487159409e-04  2.8307527156207874e-04 
 2.8677927889827755e-04  2.9053175287623170e-04  2.9433332768335688e-04  2.9818464580563971e-04 
 3.0208635813623282e-04  3.0603912408547879e-04  3.1004361169236562e-04  3.1410049773744815e-04 
 3.1821046785724332e-04  3.2237421666012512e-04  3.2659244784373519e-04  3.3086587431393165e-04 
 3.3519521830529376e-04  3.3958121150320453e-04  3.4402459516753262e-04  3.4852612025793072e-04 
 3.5308654756077657e-04  3.5770664781777540e-04  3.6238720185624416e-04  3.6712900072110357e-04 
 3.7193284580859759e-04  3.7679954900176233e-04  3.8172993280766930e-04  3.8672483049646638e-04 
 3.9178508624223776e-04  3.9691155526570820e-04  4.0210510397881735e-04  4.0736661013118395e-04 
 4.1269696295849104e-04  4.1809706333281168e-04  4.2356782391490447e-04  4.2911016930850018e-04 
 4.3472503621661457e-04  4.4041337359990108e-04  4.4617614283708239e-04  4.5201431788747967e-04 
 4.5792888545567121e-04  4.6392084515830797e-04  4.6999120969311303e-04  4.7614100501009327e-04 
 4.8237127048499502e-04  4.8868305909502993e-04  4.9507743759690480e-04  5.0155548670717802e-04 
 5.0811830128498416e-04  5.1476699051714720e-04  5.2150267810572128e-04  5.2832650245798665e-04 
 5.3523961687893418e-04  5.4224318976627234e-04  5.4933840480798739e-04  5.5652646118249151e-04 
 5.6380857376139523e-04  5.7118597331493363e-04  5.7865990672008435e-04  5.8623163717141360e-04 
 5.9390244439468413e-04  6.0167362486326080e-04  6.0954649201735208e-04  6.1752237648612723e-04 
 6.2560262631273882e-04  6.3378860718229959e-04  6.4208170265284115e-04  6.5048331438930527e-04 
 6.5899486240059710e-04  6.6761778527974869e-04  6.7635354044722883e-04  6.8520360439744063e-04 
 6.9416947294845461e-04  7.0325266149500821e-04  7.1245470526483303e-04  7.2177715957833009e-04 
 7.3122160011165763e-04  7.4078962316326768e-04  7.5048284592393411e-04  7.6030290675032513e-04 
 7.7025146544215976e-04  7.8033020352300192e-04  7.9054082452473706e-04  8.0088505427577928e-04 
 8.1136464119305576e-04  8.2198135657782657e-04  8.3273699491538396e-04  8.4363337417867848e-04 
 8.5467233613593702e-04  8.6585574666230827e-04  8.7718549605560702e-04  8.8866349935619142e-04 
 9.0029169667104865e-04  9.1207205350212785e-04  9.2400656107898449e-04  9.3609723669579121e-04 
 9.4834612405277476e-04  9.6075529360213207e-04  9.7332684289849389e-04  9.8606289695398527e-04 
 9.9896560859795078e-04  1.0120371588414085e-03  1.0252797572462865e-03  1.0386956422995090e-03 
 1.0522870817920060e-03  1.0660563732026891e-03  1.0800058440874891e-03  1.0941378524734929e-03 
 1.1084547872582708e-03  1.1229590686144448e-03  1.1376531483995875e-03  1.1525395105714969e-03 
 1.1676206716089432e-03  1.1828991809379444e-03  1.1983776213636518e-03  1.2140586095079132e-03 
 1.2299447962525990e-03  1.2460388671887610e-03  1.2623435430716952e-03  1.2788615802820122e-03 
 1.2955957712927578e-03  1.3125489451427008e-03  1.3297239679158431e-03  1.3471237432272551e-03 
 1.3647512127153039e-03  1.3826093565403748e-03  1.4007011938901592e-03  1.4190297834916067e-03 
 1.4375982241296317e-03  1.4564096551726491e-03  1.4754672571050491e-03  1.4947742520667032e-03 
 1.5143339043995699e-03  1.5341495212015366e-03  1.5542244528875602e-03  1.5745620937582200e-03 
 1.5951658825757759e-03  1.6160393031478489e-03  1.6371858849188034e-03  1.6586092035689444e-03 
 1.6803128816216485e-03  1.7023005890585163e-03  1.7245760439426560e-03  1.7471430130502302e-03 
 1.7700053125103471e-03  1.7931668084534274e-03  1.8166314176681667e-03  1.8404031082671921e-03 
 1.8644859003615402e-03  1.8888838667440819e-03  1.9136011335820029e-03  1.9386418811184840e-03 
 1.9640103443836726e-03  1.9897108139151154e-03  2.0157476364877354e-03  2.0421252158535261e-03 
 2.0688480134910736e-03  2.0959205493650272e-03  2.1233474026957000e-03  2.1511332127388803e-03 
 2.1792826795760567e-03  2.2078005649151383e-03  2.2366916929018677e-03  2.2659609509420304e-03 
 2.2956132905346547e-03  2.3256537281163081e-03  2.3560873459166783e-03  2.3869192928255840e-03 
 2.4181547852715575e-03  2.4497991081122023e-03  2.4818576155364405e-03  2.5143357319788555e-03 
 2.5472389530462572e-03  2.5805728464567135e-03  2.6143430529911257e-03  2.6485552874576006e-03 
 2.6832153396687741e-03  2.7183290754322579e-03  2.7539024375544128e-03  2.7899414468576258e-03 
 2.8264522032112860e-03  2.8634408865766485e-03  2.9009137580658143e-03  2.9388771610149647e-03 
 2.9773375220721308e-03  3.0163013522996360e-03  3.0557752482914678e-03  3.0957658933057912e-03 
 3.1362800584127937e-03  3.1773246036581023e-03  3.2189064792420077e-03  3.2610327267147015e-03 
 3.3037104801877850e-03  3.3469469675622677e-03  3.3907495117732997e-03  3.4351255320518950e-03 
 3.4800825452038814e-03  3.5256281669063510e-03  3.5717701130218381e-03  3.6185162009305179e-03 
 3.6658743508806886e-03  3.7138525873577949e-03  3.7624590404722750e-03  3.8117019473665349e-03 
 3.8615896536413107e-03  3.9121306148017171e-03  3.9633333977232990e-03  4.0152066821383722e-03 
 4.0677592621429677e-03  4.1210000477246910e-03  4.1749380663118410e-03  4.2295824643440658e-03 
 4.2849425088649596e-03  4.3410275891368633e-03  4.3978472182782903e-03  4.4554110349242660e-03 
 4.5137288049099987e-03  4.5728104229781803e-03  4.6326659145103999e-03  4.6933054372829165e-03 
 4.7547392832472859e-03  4.8169778803362059e-03  4.8800317942949796e-03  4.9439117305389952e-03 
 5.0086285360377144e-03  5.0741932012255036e-03  5.1406168619398092e-03  5.2079108013871550e-03 
 5.2760864521373312e-03  5.3451553981463326e-03  5.4151293768084450e-03  5.4860202810380794e-03 
 5.5578401613817375e-03  5.6306012281606803e-03  5.7043158536448420e-03  5.7789965742584401e-03 
 5.8546560928179701e-03  5.9313072808029740e-03  6.0089631806602897e-03  6.0876370081423044e-03 
 6.1673421546798125e-03  6.2480921897901170e-03  6.3299008635209538e-03  6.4127821089309664e-03 
 6.4967500446072562e-03  6.5818189772208196e-03  6.6680034041204841e-03  6.7553180159660251e-03 
 6.8437776994012762e-03  6.9333975397678650e-03  7.0241928238604593e-03  7.1161790427241352e-03 
 7.2093718944948515e-03  7.3037872872836716e-03  7.3994413421057349e-03  7.4963503958546925e-03 
 7.5945310043235709e-03  7.6939999452729337e-03  7.7947742215473386e-03  7.8968710642408988e-03 
 8.0003079359130883e-03  8.1051025338556917e-03  8.2112727934119025e-03  8.3188368913488103e-03 
 8.4278132492840944e-03  8.5382205371682708e-03  8.6500776768234974e-03  8.7634038455401859e-03 
 8.8782184797326063e-03  8.9945412786547399e-03  9.1123922081776491e-03  9.2317915046296276e-03 
 9.3527596787006916e-03  9.4753175194124475e-03  9.5994860981551463e-03  9.7252867727931139e-03 
 9.8527411918402225e-03  9.9818712987069357e-03  1.0112699336020494e-02  1.0245247850019923e-02 
 1.0379539695027565e-02  1.0515598037998885e-02  1.0653446363152391e-02  1.0793108476681397e-02 
 1.0934608511549766e-02  1.1077970932373383e-02  1.1223220540389512e-02  1.1370382478516166e-02 
 1.1519482236503542e-02  1.1670545656179795e-02  1.1823598936793554e-02  1.1978668640455303e-02 
 1.2135781697680403e-02  1.2294965413035933e-02  1.2456247470894201e-02  1.2619655941295514e-02 
 1.2785219285922975e-02  1.2952966364192176e-02  1.3122926439458681e-02  1.3295129185346498e-02 
 1.3469604692200517e-02  1.3646383473666196e-02  1.3825496473399959e-02  1.4006975071913614e-02 
 1.4190851093556427e-02  1.4377156813638594e-02  1.4565924965699903e-02  1.4757188748927371e-02 
 1.4950981835726252e-02  1.5147338379448283e-02  1.5346293022281778e-02  1.5547880903307812e-02 
 1.5752137666727464e-02  1.5959099470264585e-02  1.6168802993749315e-02  1.6381285447887313e-02 
 1.6596584583220057e-02  1.6814738699281850e-02  1.7035786653958877e-02  1.7259767873056588e-02 
 1.7486722360081055e-02  1.7716690706241024e-02  1.7949714100676733e-02  1.8185834340922562e-02 
 1.8425093843610282e-02  1.8667535655420023e-02  1.8913203464286731e-02  1.9162141610869501e-02 
 1.9414395100291741e-02  1.9670009614160756e-02  1.9929031522874899e-02  2.0191507898227344e-02 
 2.0457486526315596e-02  2.0727015920766118e-02  2.1000145336283964e-02  2.1276924782537475e-02 
 2.1557405038388773e-02  2.1841637666480340e-02  2.2129675028189709e-02  2.2421570298963339e-02 
 2.2717377484041869e-02  2.3017151434589385e-02  2.3320947864239442e-02  2.3628823366071222e-02 
 2.3940835430030036e-02  2.4257042460805709e-02  2.4577503796184730e-02  2.4902279725890677e-02 
 2.5231431510929273e-02  2.5565021403454499e-02  2.5903112667172674e-02  2.6245769598302372e-02 
 2.6593057547108275e-02  2.6945042940028058e-02  2.7301793302411847e-02  2.7663377281894486e-02 
 2.8029864672421679e-02  2.8401326438951900e-02  2.8777834742856265e-02  2.9159462968040093e-02 
 2.9546285747809861e-02  2.9938378992510867e-02  3.0335819917961446e-02  3.0738687074710197e-02 
 3.1147060378144239e-02  3.1561021139477133e-02  3.1980652097645890e-02  3.2406037452148158e-02 
 3.2837262896851058e-02  3.3274415654804559e-02  3.3717584514093776e-02  3.4166859864764719e-02 
 3.4622333736860716e-02  3.5084099839606302e-02  3.5552253601778369e-02  3.6026892213304108e-02 
 3.6508114668128033e-02  3.6996021808390650e-02  3.7490716369963747e-02  3.7992303029387817e-02 
 3.8500888452259942e-02  3.9016581343120561e-02  3.9539492496890483e-02  4.0069734851910434e-02 
 4.0607423544637450e-02  4.1152675966054167e-02  4.1705611819849019e-02  4.2266353182426872e-02 
 4.2835024564812016e-02  4.3411752976507408e-02  4.3996667991375506e-02  4.4589901815608741e-02 
 4.5191589357860051e-02  4.5801868301605028e-02  4.6420879179810623e-02  4.7048765451987190e-02 
 4.7685673583702848e-02  4.8331753128642019e-02  4.8987156813291639e-02  4.9652040624342718e-02 
 5.0326563898895352e-02  5.1010889417558776e-02  5.1705183500543019e-02  5.2409616106836199e-02 
 5.3124360936570136e-02  5.3849595536675038e-02  5.4585501409930556e-02  5.5332264127520091e-02 
 5.6090073445200818e-02  5.6859123423203359e-02  5.7639612549978181e-02  5.8431743869909604e-02 
 5.9235725115119549e-02  6.0051768841489002e-02  6.0880092569024727e-02  6.1720918926704608e-02 
 6.2574475801936424e-02  6.3440996494768767e-02  6.4320719876994628e-02  6.5213890556291787e-02 
 6.6120759045548261e-02  6.7041581937520175e-02  6.7976622084976207e-02  6.8926148786482871e-02 
 6.9890437977988148e-02  7.0869772430363229e-02  7.1864441953064309e-02  7.2874743604078390e-02 
 7.3900981906318997e-02  7.4943469070638938e-02  7.6002525225629336e-02  7.7078478654374200e-02 
 7.8171666038331797e-02  7.9282432708513248e-02  8.0411132904130142e-02  8.1558130038881543e-02 
 8.2723796975050598e-02  8.3908516305578482e-02  8.5112680644285649e-02  8.6336692924400202e-02 
 8.7580966705558871e-02  8.8845926489435581e-02  9.0132008044152223e-02  9.1439658737618390e-02 
 9.2769337879941863e-02  9.4121517075043307e-02  9.5496680581602336e-02  9.6895325683449302e-02 
 9.8317963069509920e-02  9.9765117223396135e-02  1.0123732682272200e-01  1.0273514514821148e-01 
 1.0425914050264508e-01  1.0580989663967624e-01  1.0738801320252657e-01  1.0899410617254680e-01 
 1.1062880832760814e-01  1.1229276971025666e-01  1.1398665810553923e-01  1.1571115952837527e-01 
 1.1746697872031245e-01  1.1925483965546853e-01  1.2107548605542004e-01  1.2292968191275254e-01 
 1.2481821202294018e-01  1.2674188252417040e-01  1.2870152144467198e-01  1.3069797925704560e-01 
 1.3273212943902993e-01  1.3480486904006642e-01  1.3691711925295086e-01  1.3906982598977899e-01 
 1.4126396046130735e-01  1.4350051975875558e-01  1.4578052743698428e-01  1.4810503409786732e-01 
 1.5047511797257168e-01  1.5289188550133712e-01  1.5535647190921720e-01  1.5787004177610950e-01 
 1.6043378959925853e-01  1.6304894034625944e-01  1.6571674999643046e-01  1.6843850606824759e-01 
 1.7121552813035476e-01  1.7404916829346692e-01  1.7694081168028356e-01  1.7989187687031183e-01 
 1.8290381631627387e-01  1.8597811672853340e-01  1.8911629942372823e-01  1.9231992063352413e-01 
 1.9559057176914468e-01  1.9892987963701850e-01  2.0233950660060573e-01  2.0582115068312953e-01 
 2.0937654560561780e-01  2.1300746075430976e-01  2.1671570107111904e-01  2.2050310686047792e-01 
 2.2437155350548760e-01  2.2832295108590445e-01  2.3235924389006340e-01  2.3648240981241697e-01 
 2.4069445962791286e-01  2.4499743613397373e-01  2.4939341315037422e-01  2.5388449436681043e-01 
 2.5847281202747374e-01  2.6316052544141244e-01  2.6794981930696316e-01  2.7284290183798343e-01 
 2.7784200267909176e-01  2.8294937059657599e-01  2.8816727093107108e-01  2.9349798279756878e-01 
 2.9894379601775378e-01  3.0450700776912137e-01  3.1018991893477554e-01  3.1599483013726937e-01 
 3.2192403743932407e-01  3.2797982769373824e-01  3.3416447352431439e-01  3.4048022791915222e-01 
 3.4692931841721336e-01  3.5351394086866084e-01  3.6023625274910331e-01  3.6709836600755663e-01 
 3.7410233942769444e-01  3.8125017048172571e-01  3.8854378665616895e-01  3.9598503622872594e-01 
 4.0357567847555248e-01  4.1131737328840356e-01  4.1921167018144967e-01  4.2725999666802855e-01 
 4.3546364598823284e-01  4.4382376416905456e-01  4.5234133639984825e-01  4.6101717270714382e-01 
 4.6985189291438434e-01  4.7884591087400175e-01  4.8799941796141122e-01  4.9731236582304222e-01 
 5.0678444837345904e-01  5.1641508304001116e-01  5.2620339125734406e-01  5.3614817821847272e-01 
 5.4624791189414834e-01  5.5650070133783958e-01  5.6690427429995505e-01  5.7745595418193207e-01 
 5.8815263636860804e-01  5.9899076398586726e-01  6.0996630313997968e-01  6.2107471770535505e-01 
 6.3231094373860253e-01  6.4366936360888294e-01  6.5514377994750073e-01  6.6672738953352340e-01 
 6.7841275724685968e-01  6.9019179023565225e-01  7.0205571246089149e-01  7.1399503979776513e-01 
 7.2599955589027643e-01  7.3805828897280423e-01  7.5015948988951897e-01  7.6229061155944422e-01 
 7.7443829015136034e-01  7.8658832824824754e-01  7.9872568029534263e-01  8.1083444063870524e-01 
 8.2289783447215603e-01  8.3489821201921899e-01  8.4681704628291898e-01  8.5863493469971752e-01 
 8.7033160503426332e-01  8.8188592584881387e-01  8.9327592187516147e-01  9.0447879460762326e-01 
 9.1547094842341648e-01  9.2622802252173486e-01  9.3672492895566351e-01  9.4693589701209291e-01 
 9.5683452417498938e-01  9.6639383388724864e-01  9.7558634030690716e-01  9.8438412023535771e-01 
 9.9275889237911685e-01  1.0006821040929597e+00  1.0081250257409033e+00  1.0150588528021618e+00 
 1.0214548158405503e+00  1.0272842984460946e+00  1.0325189632438594e+00  1.0371308860434472e+00 
 1.0410926981683926e+00  1.0443777369519278e+00  1.0469602043077089e+00  1.0488153331739556e+00 
 1.0499195614798422e+00  1.0502507130872214e+00  1.0497881849136141e+00  1.0485131391407307e+00 
 1.0464086990569088e+00  1.0434601466765561e+00  1.0396551198352257e+00  1.0349838059922198e+00 
 1.0294391295077221e+00  1.0230169287298549e+00  1.0157161188672528e+00  1.0075388363788358e+00 
 9.9849056053187579e-01  9.8858020790930157e-01  9.7782019602968018e-01  9.6622647290977248e-01 
 9.5381851036370313e-01  9.4061926008366525e-01  9.2665507304197958e-01  9.1195558441344149e-01 
 8.9655356791924434e-01  8.8048476507836848e-01  8.6378769612210771e-01  8.4650346006134769e-01 
 8.2867553136643357e-01  8.1034955971684164e-01  7.9157317714285669e-01  7.7239581354008624e-01 
 7.5286851703835544e-01  7.3304377025372969e-01  7.1297528743055405e-01  6.9271777146207714e-01 
 6.7232660450864823e-01  6.5185744228541687e-01  6.3136568099114476e-01  6.1090576816077435e-01 
 5.9053033511280073e-01  5.7028913944221682e-01  5.5022782099090628e-01  5.3038649309520780e-01 
 5.1079821116190649e-01  4.9148738059582214e-01  4.7246818311493644e-01  4.5374785727366501e-01 
 4.3534372061421572e-01  4.1727539562985660e-01  3.9956101531364879e-01  3.8221721838613171e-01 
 3.6525914862740577e-01  3.4870045829930912e-01  3.3255331566319229e-01  3.1682841661751598e-01 
 3.0153500049472970e-01  2.8668087006604193e-01  2.7227241580331107e-01  2.5831464443727498e-01 
 2.4481121182937393e-01  2.3176446014001392e-01  2.1917545922992296e-01  2.0704405217496596e-01 
 1.9536890471110771e-01  1.8414755835860927e-01  1.7337648690691065e-01  1.6305115587797805e-01 
 1.5316608452992603e-01  1.4371490991757932e-01  1.3469045249467365e-01  1.2608478272501988e-01 
 1.1788928816753864e-01  1.1009474051211797e-01  1.0269136206842823e-01  9.5668891246177459e-02 
 8.9016646610425132e-02  8.2723589146861509e-02  7.6778382426757247e-02  7.1169450417054955e-02 
 6.5885032735555640e-02  6.0913237202450440e-02  5.6242089586091178e-02  5.1859580481874702e-02 
 4.7753709297865092e-02  4.3912525349157829e-02  4.0324166085210188e-02  3.6976892490938586e-02 
 3.3859121714037980e-02  3.0959456978569985e-02  2.8266714849312709e-02  2.5769949913569123e-02 
 2.3458476947933737e-02  2.1321890637646699e-02  1.9350082916217575e-02  1.7533257993422594e-02 
 1.5861945140869398e-02  1.4327009306240444e-02  1.2919659630109158e-02  1.1631455942809898e-02 
 1.0454313323095207e-02  9.3805048050427369e-03  8.4026623246581580e-03  7.5137760026296515e-03 
 6.7071918644984047e-03  5.9766081039114467e-03  5.3160699984381521e-03  4.7199635905130479e-03 
 4.1830082483040277e-03  3.7002482226214601e-03  3.2670433163396839e-03  2.8790587821886609e-03 
 2.5322545632093839e-03  2.2228739876937326e-03  1.9474320271091069e-03  1.7027032214152280e-03 
 1.4857093714006437e-03  1.2937070922914627e-03  1.1241753170101920e-03  9.7480283118441436e-04 
 8.4347591541865342e-04  7.2826616354051662e-04  6.2741853860267920e-04  5.3933972144916160e-04 
 4.6258679971598735e-04  3.9585633830484457e-04  3.3797386570966122e-04  2.8788380414898927e-04 
 2.4463986531374649e-04  2.0739592772490788e-04  1.7539740624653534e-04  1.4797311924610377e-04 
 1.2452765425915283e-04  1.0453422881447462e-04  8.7528039318096108e-05  7.3100087581520407e-05 
 6.0891471708292317e-05  5.0588125613684653e-05  4.1915989430981029e-05  3.4636591435957302e-05 
 2.8543020876614860e-05  2.3456270202888310e-05  1.9221924623529381e-05  1.5707176645592180e-05 
 1.2798143245813223e-05  1.0397463552135600e-05  8.4221553471958073e-06  6.8017093138540047e-06 
 5.4764006968637904e-06  4.3957989269391597e-06  3.5174567178105260e-06  2.8057611792571586e-06 
 2.2309305674871923e-06  1.7681413986878681e-06  1.3967717643825897e-06  1.0997477929323761e-06 
 8.6298128683221783e-07  6.7488761923677723e-07  5.2597398630047371e-07  4.0848907724231147e-07 
 3.1612613612369188e-07  2.4377224434726795e-07  1.8729744848122030e-07  1.4337809309442024e-07 
 1.0934939286455421e-07  8.3082893238671980e-08  6.2885026102338255e-08  4.7413468589214501e-08 
 3.5608462157102985e-08  2.6636648540282966e-08  1.9845332568695247e-08  1.4725392664533535e-08 
 1.0881331676157854e-08  8.0071971521072998e-09  5.8673046720317174e-09  4.2808737794907663e-09 
 3.1098365749469490e-09  2.2492070985291871e-09  1.6195080175895409e-09  1.1608423638074847e-09 
 8.2827443916936343e-10  5.8824760278302040e-10  4.1581931365720144e-10  2.9253718003449297e-10 
 2.0481529716252741e-10  1.4269910210180049e-10  9.8930427180070985e-11  6.8243330910034588e-11 
 4.6836427194157626e-11  3.1979499051063059e-11  2.1721743109066460e-11  1.4676523212525451e-11 
 9.8634121093145423e-12  6.5928962446374678e-12  4.3826779447656222e-12  2.8972495866297185e-12 
 1.9045117722799746e-12  1.2448033902470200e-12  8.0891844262186212e-13  5.2259190694373139e-13 
 3.3561491093214683e-13  2.1424300461098299e-13  1.3593291586115443e-13  8.5715716425796750e-14 
 5.3712963248306379e-14  3.3446063356037515e-14  2.0692933970085410e-14  1.2719608731014464e-14 
 7.7671736312545086e-15  4.7114255369264647e-15  2.8385966374987499e-15  1.6985508204105737e-15 
 1.0093409183285025e-15  5.9558278054840496e-16  3.4894037704144599e-16  2.0296658628801365e-16 
 1.1719820106235922e-16  6.7173615092633389e-17  3.8213394743064744e-17  2.1573908146153306e-17 
 1.2086343888187438e-17  6.7184643679697043e-18  3.7051815116979127e-18  2.0270675658686086e-18 
 1.1000198994637072e-18  5.9205264191886337e-19  3.1601048756767488e-19  1.6725526140060423e-19 
 8.7772680560885796e-20  4.5670746064117533e-20  2.3569246159519113e-20  1.2081725263555168e-20 
 0.0000000000000000e+00  0.0000000000000000e+00  0.0000000000000000e+00  0.0000000000000000e+00 
 0.0000000000000000e+00  0.0000000000000000e+00  0.0000000000000000e+00  0.0000000000000000e+00 
 0.0000000000000000e+00  0.0000000000000000e+00  0.0000000000000000e+00  0.0000000000000000e+00 
 0.0000000000000000e+00  0.0000000000000000e+00  0.0000000000000000e+00  0.0000000000000000e+00 
 0.0000000000000000e+00  0.0000000000000000e+00  0.0000000000000000e+00  0.0000000000000000e+00 
 0.0000000000000000e+00  0.0000000000000000e+00  0.0000000000000000e+00  0.0000000000000000e+00 
 0.0000000000000000e+00  0.0000000000000000e+00  0.0000000000000000e+00  0.0000000000000000e+00 
 0.0000000000000000e+00  0.0000000000000000e+00  0.0000000000000000e+00  0.0000000000000000e+00 
 0.0000000000000000e+00  0.0000000000000000e+00  0.0000000000000000e+00  0.0000000000000000e+00 
 0.0000000000000000e+00  0.0000000000000000e+00  0.0000000000000000e+00  0.0000000000000000e+00 
 0.0000000000000000e+00  0.0000000000000000e+00  0.0000000000000000e+00  0.0000000000000000e+00 
 0.0000000000000000e+00  0.0000000000000000e+00  0.0000000000000000e+00  0.0000000000000000e+00 
 0.0000000000000000e+00  0.0000000000000000e+00  0.0000000000000000e+00  0.0000000000000000e+00 
 0.0000000000000000e+00  0.0000000000000000e+00  0.0000000000000000e+00  0.0000000000000000e+00 
 0.0000000000000000e+00  0.0000000000000000e+00  0.0000000000000000e+00  0.0000000000000000e+00 
 0.0000000000000000e+00  0.0000000000000000e+00  0.0000000000000000e+00  0.0000000000000000e+00 
 0.0000000000000000e+00  0.0000000000000000e+00  0.0000000000000000e+00  0.0000000000000000e+00 
 0.0000000000000000e+00  0.0000000000000000e+00  0.0000000000000000e+00  0.0000000000000000e+00 
 0.0000000000000000e+00  0.0000000000000000e+00  0.0000000000000000e+00  0.0000000000000000e+00 
 0.0000000000000000e+00  0.0000000000000000e+00  0.0000000000000000e+00  0.0000000000000000e+00 
 0.0000000000000000e+00  0.0000000000000000e+00  0.0000000000000000e+00  0.0000000000000000e+00 
 0.0000000000000000e+00  0.0000000000000000e+00  0.0000000000000000e+00  0.0000000000000000e+00 
 0.0000000000000000e+00  0.0000000000000000e+00  0.0000000000000000e+00  0.0000000000000000e+00 
 0.0000000000000000e+00  0.0000000000000000e+00  0.0000000000000000e+00  0.0000000000000000e+00 
 0.0000000000000000e+00  0.0000000000000000e+00  0.0000000000000000e+00  0.0000000000000000e+00 
 0.0000000000000000e+00  0.0000000000000000e+00  0.0000000000000000e+00  0.0000000000000000e+00 
 0.0000000000000000e+00  0.0000000000000000e+00  0.0000000000000000e+00  0.0000000000000000e+00 
 0.0000000000000000e+00  0.0000000000000000e+00  0.0000000000000000e+00  0.0000000000000000e+00 
 0.0000000000000000e+00  0.0000000000000000e+00  0.0000000000000000e+00  0.0000000000000000e+00 
 0.0000000000000000e+00  0.0000000000000000e+00  0.0000000000000000e+00  0.0000000000000000e+00 
 0.0000000000000000e+00  0.0000000000000000e+00  0.0000000000000000e+00  0.0000000000000000e+00 
 0.0000000000000000e+00  0.0000000000000000e+00  0.0000000000000000e+00  0.0000000000000000e+00 
 0.0000000000000000e+00  0.0000000000000000e+00  0.0000000000000000e+00  0.0000000000000000e+00 
 0.0000000000000000e+00  0.0000000000000000e+00  0.0000000000000000e+00  0.0000000000000000e+00 
 0.0000000000000000e+00  0.0000000000000000e+00 
P    1   6.00          Wavefunction
 9.0676151501296017e-10  9.3064647335118471e-10  9.5516058414594332e-10  9.8032041986965742e-10 
 1.0061429895293893e-09  1.0326457501655782e-09  1.0598466186536668e-09  1.0877639838165879e-09 
 1.1164167188563099e-09  1.1458241941128431e-09  1.1760062901593214e-09  1.2069834112420334e-09 
 1.2387764990744629e-09  1.2714070469946888e-09  1.3048971144957019e-09  1.3392693421384555e-09 
 1.3745469668577538e-09  1.4107538376712997e-09  1.4479144318025406e-09  1.4860538712282041e-09 
 1.5251979396617096e-09  1.5653730999839410e-09  1.6066065121331607e-09  1.6489260514661646e-09 
 1.6923603276030803e-09  1.7369387037685652e-09  1.7826913166424587e-09  1.8296490967333288e-09 
 1.8778437892886734e-09  1.9273079757559130e-09  1.9780750958086952e-09  2.0301794699533818e-09 
 2.0836563227310211e-09  2.1385418065304756e-09  2.1948730260288208e-09  2.2526880632755058e-09 
 2.3120260034372861e-09  2.3729269612212686e-09  2.4354321079939896e-09  2.4995836996148251e-09 
 2.5654251050025584e-09  2.6330008354544199e-09  2.7023565747374197e-09  2.7735392099723162e-09 
 2.8465968633310912e-09  2.9215789245693659e-09  2.9985360844157691e-09  3.0775203688407847e-09 
 3.1585851742282947e-09  3.2417853034735750e-09  3.3271770030321207e-09  3.4148180009444093e-09 
 3.5047675458622463e-09  3.5970864471031024e-09  3.6918371157595421e-09  3.7890836068914793e-09 
 3.8888916628298578e-09  3.9913287576209462e-09  4.0964641426413829e-09  4.2043688934147251e-09 
 4.3151159576612218e-09  4.4287802046132348e-09  4.5454384756297151e-09  4.6651696361438473e-09 
 4.7880546289791218e-09  4.9141765290697433e-09  5.0436205996224518e-09  5.1764743497576941e-09 
 5.3128275936691333e-09  5.4527725113414415e-09  5.5964037108674904e-09  5.7438182924070205e-09 
 5.8951159138300352e-09  6.0503988580893352e-09  6.2097721023676589e-09  6.3733433890462804e-09 
 6.5412232985429351e-09  6.7135253240684079e-09  6.8903659483522529e-09  7.0718647223895444e-09 
 7.2581443462619312e-09  7.4493307520874984e-09  7.6455531891557525e-09  7.8469443113049727e-09 
 8.0536402666013288e-09  8.2657807893801133e-09  8.4835092947114497e-09  8.7069729753543930e-09 
 8.9363229012647841e-09  9.1717141217243197e-09  9.4133057701597319e-09  9.6612611717230725e-09 
 9.9157479537056988e-09  1.0176938158860727e-08  1.0445008361710458e-08  1.0720139787917468e-08 
 1.1002518436800084e-08  1.1292335207074914e-08  1.1589786025911756e-08  1.1895071981387711e-08 
 1.2208399458430439e-08  1.2529980278342179e-08  1.2860031841999028e-08  1.3198777276822182e-08 
 1.3546445587620575e-08  1.3903271811406820e-08  1.4269497176291159e-08  1.4645369264560876e-08 
 1.5031142180055276e-08  1.5427076719949614e-08  1.5833440551063821e-08  1.6250508390815493e-08 
 1.6678562192939335e-08  1.7117891338098495e-08  1.7568792829517027e-08  1.8031571493765258e-08 
 1.8506540186834187e-08  1.8994020005637955e-08  1.9494340505087697e-08  2.0007839920882985e-08 
 2.0534865398172207e-08  2.1075773226235731e-08  2.1630929079351096e-08  2.2200708264002624e-08 
 2.2785495972602916e-08  2.3385687543897578e-08  2.4001688730229081e-08  2.4633915971840989e-08 
 2.5282796678407140e-08  2.5948769517976971e-08  2.6632284713531741e-08  2.7333804347352266e-08 
 2.8053802673404197e-08  2.8792766437951652e-08  2.9551195208616168e-08  3.0329601712103381e-08 
 3.1128512180825702e-08  3.1948466708655410e-08  3.2790019616048638e-08  3.3653739824787008e-08 
 3.4540211242590264e-08  3.5450033157860151e-08  3.6383820644821982e-08  3.7342204979338312e-08 
 3.8325834065675132e-08  3.9335372874509883e-08  4.0371503892476718e-08  4.1434927583553469e-08 
 4.2526362862601813e-08  4.3646547581380715e-08  4.4796239027362638e-08  4.5976214435688029e-08 
 4.7187271514606120e-08  4.8430228984755777e-08  4.9705927132651575e-08  5.1015228378749463e-08 
 5.2359017860475262e-08  5.3738204030611685e-08  5.5153719271446212e-08  5.6606520525097156e-08 
 5.8097589940442523e-08  5.9627935537089813e-08  6.1198591886835545e-08  6.2810620813074778e-08 
 6.4465112108634012e-08  6.6163184272511887e-08  6.7905985266027477e-08  6.9694693288884783e-08 
 7.1530517575680783e-08  7.3414699213393427e-08  7.5348511980403084e-08  7.7333263207615315e-08 
 7.9370294662265544e-08  8.1460983455004403e-08  8.3606742970876277e-08  8.5809023824821244e-08 
 8.8069314842345341e-08  9.0389144066022363e-08  9.2770079788508938e-08  9.5213731612768541e-08 
 9.7721751540224303e-08  1.0029583508757418e-07  1.0293772243302377e-07  1.0564919959271200e-07 
 1.0843209962812617e-07  1.1128830388531911e-07  1.1421974326677105e-07  1.1722839953675140e-07 
 1.2031630666106604e-07  1.2348555218209476e-07  1.2673827863004805e-07  1.3007668497139803e-07 
 1.3350302809546164e-07  1.3701962434014366e-07  1.4062885105786659e-07  1.4433314822275069e-07 
 1.4813502008012764e-07  1.5203703683950364e-07  1.5604183641211814e-07  1.6015212619426936e-07 
 1.6437068489761622e-07  1.6870036442769022e-07  1.7314409181189094e-07  1.7770487117826525e-07 
 1.8238578578641034e-07  1.8719000011187121e-07  1.9212076198544441e-07  1.9718140478883295e-07 
 2.0237534970813607e-07  2.0770610804669776e-07  2.1317728359887839e-07  2.1879257508635402e-07 
 2.2455577865858898e-07  2.3047079045917358e-07  2.3654160925976196e-07  2.4277233916338896e-07 
 2.4916719237899614e-07  2.5573049206904093e-07  2.6246667527211341e-07  2.6938029590253807e-07 
 2.7647602782898901e-07  2.8375866803419555e-07  2.9123313985788037e-07  2.9890449632511831e-07 
 3.0677792356236522e-07  3.1485874430347173e-07  3.2315242148804564e-07  3.3166456195459927e-07 
 3.4040092023097631e-07  3.4936740242462546e-07  3.5857007021534220e-07  3.6801514495318655e-07 
 3.7770901186434241e-07  3.8765822436776146e-07  3.9786950850551420e-07  4.0834976748983728e-07 
 4.1910608636995624e-07  4.3014573682183273e-07  4.4147618206408305e-07  4.5310508190338278e-07 
 4.6504029791276975e-07  4.7728989874635435e-07  4.8986216559401440e-07  5.0276559777978182e-07 
 5.1600891850768632e-07  5.2960108075895569e-07  5.4355127334454741e-07  5.5786892711711610e-07 
 5.7256372134660285e-07  5.8764559026376573e-07  6.0312472977607267e-07  6.1901160436049275e-07 
 6.3531695413785532e-07  6.5205180213354845e-07  6.6922746172947109e-07  6.8685554431227408e-07 
 7.0494796712306759e-07  7.2351696131389077e-07  7.4257508021639248e-07  7.6213520782832696e-07 
 7.8221056752357331e-07  8.0281473099160181e-07  8.2396162741239811e-07  8.4566555287306967e-07 
 8.6794118003248845e-07  8.9080356804051288e-07  9.1426817271848366e-07  9.3835085700788431e-07 
 9.6306790169422785e-07  9.8843601641341108e-07  1.0144723509480004e-06  1.0411945068210496e-06 
 1.0686205491953234e-06  1.0967690190859433e-06  1.1256589458947329e-06  1.1553098602747188e-06 
 1.1857418073334918e-06  1.2169753601843622e-06  1.2490316338544450e-06  1.2819322995591141e-06 
 1.3156995993524348e-06  1.3503563611635138e-06  1.3859260142289016e-06  1.4224326049315105e-06 
 1.4599008130567261e-06  1.4983559684767193e-06  1.5378240682742362e-06  1.5783317943174274e-06 
 1.6199065312976275e-06  1.6625763852422412e-06  1.7063702025152834e-06  1.7513175893183862e-06 
 1.7974489317055002e-06  1.8447954161247637e-06  1.8933890505014785e-06  1.9432626858764069e-06 
 1.9944500386140378e-06  2.0469857131958355e-06  2.1009052256138603e-06  2.1562450273806009e-06 
 2.2130425301712194e-06  2.2713361311149069e-06  2.3311652387524030e-06  2.3925702996772614e-06 
 2.4555928258788432e-06  2.5202754228055417e-06  2.5866618181672144e-06  2.6547968914962544e-06 
 2.7247267044873415e-06  2.7964985321363134e-06  2.8701608946992916e-06  2.9457635904935632e-06 
 3.0233577295625082e-06  3.1029957682272175e-06  3.1847315445482347e-06  3.2686203147213605e-06 
 3.3547187904321232e-06  3.4430851771941908e-06  3.5337792136976009e-06  3.6268622121934379e-06 
 3.7223970999422389e-06  3.8204484617541763e-06  3.9210825836497163e-06  4.0243674976703369e-06 
 4.1303730278695267e-06  4.2391708375152078e-06  4.3508344775354590e-06  4.4654394362403049e-06 
 4.5830631903531669e-06  4.7037852573864486e-06  4.8276872493967521e-06  4.9548529281559270e-06 
 5.0853682617753702e-06  5.2193214828217303e-06  5.3568031479634413e-06  5.4979061991882620e-06 
 5.6427260266333032e-06  5.7913605330699649e-06  5.9439102000873440e-06  6.1004781560189763e-06 
 6.2611702456586188e-06  6.4260951018124157e-06  6.5953642187356066e-06  6.7690920275036137e-06 
 6.9473959733682911e-06  7.1303965951516824e-06  7.3182176067310269e-06  7.5109859806698736e-06 
 7.7088320340521549e-06  7.9118895165769015e-06  8.1202957009733798e-06  8.3341914757976385e-06 
 8.5537214406732360e-06  8.7790340040405045e-06  9.0102814834804149e-06  9.2476202086809059e-06 
 9.4912106271150783e-06  9.7412174125030436e-06  9.9978095761303002e-06  1.0261160581098187e-05 
 1.0531448459583513e-05  1.0808855933186611e-05  1.1093570536449194e-05  1.1385784743625432e-05 
 1.1685696098792004e-05  1.1993507349384904e-05  1.2309426583253601e-05  1.2633667369324641e-05 
 1.2966448901970267e-05  1.3307996149179278e-05  1.3658540004630472e-05  1.4018317443771290e-05 
 1.4387571684007275e-05  1.4766552349110493e-05  1.5155515637957935e-05  1.5554724497714420e-05 
 1.5964448801576227e-05  1.6384965531196243e-05  1.6816558963913654e-05  1.7259520864914617e-05 
 1.7714150684453888e-05  1.8180755760270686e-05  1.8659651525335478e-05  1.9151161721067968e-05 
 1.9655618616170798e-05  2.0173363231226301e-05  2.0704745569208260e-05  2.1250124852064585e-05 
 2.1809869763530550e-05  2.2384358698336700e-05  2.2973980017979896e-05  2.3579132313230189e-05 
 2.4200224673550718e-05  2.4837676963613428e-05  2.5491920107096159e-05  2.6163396377954033e-05 
 2.6852559699361205e-05  2.7559875950525085e-05  2.8285823281580585e-05  2.9030892436776674e-05 
 2.9795587086173857e-05  3.0580424166076451e-05  3.1385934228430082e-05  3.2212661799419596e-05 
 3.3061165747510369e-05  3.3932019661181306e-05  3.4825812236604506e-05  3.5743147675533789e-05 
 3.6684646093670606e-05  3.7650943939783197e-05  3.8642694425861724e-05  3.9660567968600953e-05 
 4.0705252642507051e-05  4.1777454644935946e-05  4.2877898773376290e-05  4.4007328915299918e-05 
 4.5166508550910341e-05  4.6356221269128740e-05  4.7577271297166016e-05  4.8830484044038052e-05 
 5.0116706658392080e-05  5.1436808601019455e-05  5.2791682232442668e-05  5.4182243415972062e-05 
 5.5609432136640689e-05  5.7074213136433811e-05  5.8577576566242807e-05  6.0120538654983153e-05 
 6.1704142396327833e-05  6.3329458253520799e-05  6.4997584882744655e-05  6.6709649875531808e-05 
 6.8466810520720017e-05  7.0270254586465858e-05  7.2121201122844937e-05  7.4020901285579249e-05 
 7.5970639181448376e-05  7.7971732735953865e-05  8.0025534583824182e-05  8.2133432982958441e-05 
 8.4296852752427408e-05  8.6517256235163389e-05  8.8796144285989103e-05  9.1135057285651456e-05 
 9.3535576181544335e-05  9.5999323555822610e-05  9.8527964721625732e-05  1.0112320884815412e-04 
 1.0378681011535230e-04  1.0652056889898050e-04  1.0932633298687211e-04  1.1220599882719814e-04 
 1.1516151280957801e-04  1.1819487257990322e-04  1.2130812838975702e-04  1.2450338448134036e-04 
 1.2778280050884015e-04  1.3114859299719251e-04  1.3460303683922797e-04  1.3814846683220497e-04 
 1.4178727925476820e-04  1.4552193348539252e-04  1.4935495366340362e-04  1.5328893039369353e-04 
 1.5732652249627737e-04  1.6147045880187386e-04  1.6572353999471206e-04  1.7008864050380975e-04 
 1.7456871044399430e-04  1.7916677760797248e-04  1.8388594951078977e-04  1.8872941548805545e-04 
 1.9370044884934421e-04  1.9880240908822048e-04  2.0403874415037945e-04  2.0941299276141997e-04 
 2.1492878681582159e-04  2.2058985382872952e-04  2.2640001945219490e-04  2.3236321005756292e-04 
 2.3848345538574325e-04  2.4476489126714300e-04  2.5121176241308974e-04  2.5782842528062152e-04 
 2.6461935101256310e-04  2.7158912845486771e-04  2.7874246725324413e-04  2.8608420103115356e-04 
 2.9361929065130430e-04  3.0135282756283451e-04  3.0929003723642747e-04  3.1743628268966219e-04 
 3.2579706810496802e-04  3.3437804254260131e-04  3.4318500375113653e-04  3.5222390207802711e-04 
 3.6150084448285062e-04  3.7102209865593015e-04  3.8079409724508942e-04  3.9082344219336758e-04 
 4.0111690919059897e-04  4.1168145224184169e-04  4.2252420835569833e-04  4.3365250235567401e-04 
 4.4507385181778616e-04  4.5679597213772380e-04  4.6882678173094103e-04  4.8117440736916407e-04 
 4.9384718965686568e-04  5.0685368865136795e-04  5.2020268963032853e-04  5.3390320901044368e-04 
 5.4796450042132717e-04  5.6239606093860816e-04  5.7720763748040174e-04  5.9240923337141389e-04 
 6.0801111507904752e-04  6.2402381912600132e-04  6.4045815918394304e-04  6.5732523335300158e-04 
 6.7463643163188567e-04  6.9240344358361436e-04  7.1063826620194350e-04  7.2935321198370638e-04 
 7.4856091721242819e-04  7.6827435045870947e-04  7.8850682130300804e-04  8.0927198928659684e-04 
 8.3058387309663923e-04  8.5245685999143714e-04  8.7490571547210402e-04  8.9794559320705047e-04 
 9.2159204521583655e-04  9.4586103231911872e-04  9.7076893486158658e-04  9.9633256371495769e-04 
 1.0225691715682801e-03  1.0494964645129956e-03  1.0771326139303564e-03  1.1054962686890477e-03 
 1.1346065676610029e-03  1.1644831525636603e-03  1.1951461811370581e-03  1.2266163406644418e-03 
 1.2589148618452099e-03  1.2920635330293049e-03  1.3260847148223575e-03  1.3610013550711185e-03 
 1.3968370042389793e-03  1.4336158311815978e-03  1.4713626393329348e-03  1.5101028833122158e-03 
 1.5498626859626523e-03  1.5906688558329739e-03  1.6325489051131333e-03  1.6755310680358247e-03 
 1.7196443197557347e-03  1.7649183957187339e-03  1.8113838115335580e-03  1.8590718833587977e-03 
 1.9080147488183439e-03  1.9582453884587877e-03  2.0097976477625530e-03  2.0627062597309326e-03 
 2.1170068680515398e-03  2.1727360508649691e-03  2.2299313451459536e-03  2.2886312717145577e-03 
 2.3488753608933970e-03  2.4107041788272261e-03  2.4741593544816728e-03  2.5392836073382550e-03 
 2.6061207758032536e-03  2.6747158463484967e-03  2.7451149834023993e-03  2.8173655600102136e-03 
 2.8915161892827815e-03  2.9676167566535846e-03  3.0457184529643793e-03  3.1258738084001358e-03 
 3.2081367272945374e-03  3.2925625238277674e-03  3.3792079586388870e-03  3.4681312763755099e-03 
 3.5593922442041692e-03  3.6530521913051635e-03  3.7491740493763768e-03  3.8478223941709952e-03 
 3.9490634880947444e-03  4.0529653238887617e-03  4.1595976694248750e-03  4.2690321136407295e-03 
 4.3813421136426533e-03  4.4966030430050232e-03  4.6148922412953186e-03  4.7362890648549472e-03 
 4.8608749388663530e-03  4.9887334107378122e-03  5.1199502048379442e-03  5.2546132786125861e-03 
 5.3928128801176804e-03  5.5346416070021680e-03  5.6801944669760112e-03  5.8295689397990045e-03 
 5.9828650408268848e-03  6.1401853861520568e-03  6.3016352593770310e-03  6.4673226800594985e-03 
 6.6373584738687241e-03  6.8118563444940989e-03  6.9909329473469535e-03  7.1747079650982554e-03 
 7.3633041850952648e-03  7.5568475787013006e-03  7.7554673826035958e-03  7.9592961821352646e-03 
 8.1684699966581634e-03  8.3831283670545310e-03  8.6034144453761546e-03  8.8294750867008252e-03 
 9.0614609432468768e-03  9.2995265607972687e-03  9.5438304774864806e-03  9.7945353250032847e-03 
 1.0051807932264678e-02  1.0315819431616453e-02  1.0586745367617481e-02  1.0864765808465300e-02 
 1.1150065460122200e-02  1.1442833783201592e-02  1.1743265112675760e-02  1.2051558780467170e-02 
 1.2367919240986340e-02  1.2692556199680667e-02  1.3025684744659380e-02  1.3367525481461048e-02 
 1.3718304671030924e-02  1.4078254370976795e-02  1.4447612580172506e-02  1.4826623386779762e-02 
 1.5215537119760114e-02  1.5614610503948731e-02  1.6024106818764261e-02  1.6444296060628482e-02 
 1.6875455109171510e-02  1.7317867897298153e-02  1.7771825585192778e-02  1.8237626738339986e-02 
 1.8715577509639644e-02  1.9205991825695122e-02  1.9709191577354433e-02  2.0225506814584033e-02 
 2.0755275945755831e-02  2.1298845941427880e-02  2.1856572542699546e-02  2.2428820474221983e-02 
 2.3015963661944458e-02  2.3618385455676218e-02  2.4236478856545125e-02  2.4870646749430288e-02 
 2.5521302140447937e-02  2.6188868399566859e-02  2.6873779508429070e-02  2.7576480313448698e-02 
 2.8297426784261014e-02  2.9037086277589760e-02  2.9795937806598907e-02  3.0574472315790861e-02 
 3.1373192961509554e-02  3.2192615398101733e-02  3.3033268069785536e-02  3.3895692508268342e-02 
 3.4780443636149704e-02  3.5688090076138664e-02  3.6619214466104423e-02  3.7574413779970860e-02 
 3.8554299654456850e-02  3.9559498721647726e-02  4.0590652947375697e-02  4.1648419975369146e-02 
 4.2733473477116091e-02  4.3846503507368600e-02  4.4988216865197196e-02  4.6159337460480163e-02 
 4.7360606685692530e-02  4.8592783792829920e-02  4.9856646275277625e-02  5.1152990254401197e-02 
 5.2482630870603633e-02  5.3846402678554464e-02  5.5245160046258415e-02  5.6679777557585270e-02 
 5.8151150417835681e-02  5.9660194861865676e-02  6.1207848564237825e-02  6.2795071050802898e-02 
 6.4422844111053590e-02  6.6092172210519759e-02  6.7804082902398186e-02  6.9559627237527816e-02 
 7.1359880171734183e-02  7.3205940969471667e-02  7.5098933602591428e-02  7.7040007142956016e-02 
 7.9030336147505847e-02  8.1071121034261506e-02  8.3163588447616676e-02  8.5308991611138418e-02 
 8.7508610665949060e-02  8.9763752992608983e-02  9.2075753514262546e-02  9.4445974978637298e-02 
 9.6875808216320983e-02  9.9366672372543721e-02  1.0192001510951920e-01  1.0453731277619215e-01 
 1.0722007054204377e-01  1.0996982249139843e-01  1.1278813167446256e-01  1.1567659011111664e-01 
 1.1863681874326008e-01  1.2167046733129480e-01  1.2477921429011520e-01  1.2796476645975741e-01 
 1.3122885880565185e-01  1.3457325404321305e-01  1.3799974218131394e-01  1.4151013997899067e-01 
 1.4510629030956421e-01  1.4879006142619153e-01  1.5256334612273467e-01  1.5642806078368618e-01 
 1.6038614431681722e-01  1.6443955696211685e-01  1.6859027897054482e-01  1.7284030914610404e-01 
 1.7719166324472471e-01  1.8164637222350458e-01  1.8620648033389403e-01  1.9087404305251579e-01 
 1.9565112484340674e-01  2.0053979674562256e-01  2.0554213378027739e-01  2.1066021217126446e-01 
 2.1589610637405668e-01  2.2125188590714231e-01  2.2672961198078079e-01  2.3233133391784738e-01 
 2.3805908536159426e-01  2.4391488026508518e-01  2.4990070865695838e-01  2.5601853217789389e-01 
 2.6227027938175324e-01  2.6865784079478333e-01  2.7518306372545992e-01  2.8184774681650954e-01 
 2.8865363432933538e-01  2.9560241014943350e-01  3.0269569149943948e-01  3.0993502234412040e-01 
 3.1732186646891997e-01  3.2485760021058857e-01  3.3254350481493539e-01  3.4038075839288751e-01 
 3.4837042744181629e-01  3.5651345789458172e-01  3.6481066565399628e-01  3.7326272656549647e-01 
 3.8187016577592431e-01  3.9063334642155345e-01  3.9955245758405855e-01  4.0862750144927801e-01 
 4.1785827960058086e-01  4.2724437837677148e-01  4.3678515322405570e-01  4.4647971197302960e-01 
 4.5632689697538131e-01  4.6632526604134222e-01  4.7647307212841006e-01  4.8676824174484057e-01 
 4.9720835204824043e-01  5.0779060664067754e-01  5.1851181008722458e-01  5.2936834121494303e-01 
 5.4035612528399901e-01  5.5147060516158686e-01  5.6270671167234687e-01  5.7405883334518171e-01 
 5.8552078582492240e-01  5.9708578126685952e-01  6.0874639808111464e-01  6.2049455144022347e-01 
 6.3232146500487563e-01  6.4421764435689599e-01  6.5617285265248770e-01  6.6817608901954029e-01 
 6.8021557021749601e-01  6.9227871605409796e-01  7.0435213900788340e-01  7.1642163843676754e-01 
 7.2847219966052179e-01  7.4048799808868815e-01  7.5245240842724848e-01  7.6434801884059111e-01 
 7.7615664977577892e-01  7.8785937698137110e-01  7.9943655808342962e-01  8.1086786192911520e-01 
 8.2213229978798552e-01  8.3320825742871951e-01  8.4407352708136674e-01  8.5470533836907991e-01 
 8.6508038746366311e-01  8.7517486399823530e-01  8.8496447566465652e-01  8.9442447093292188e-01 
 9.0352966094491005e-01  9.1225444233493014e-01  9.2057282348067559e-01  9.2845845744279898e-01 
 9.3588468554770154e-01  9.4282459613163827e-01  9.4925110331048479e-01  9.5513705067850796e-01 
 9.6045534448290815e-01  9.6517911999070571e-01  9.6928194340376217e-01  9.7273804976272626e-01 
 9.7552261483386371e-01  9.7761205607461887e-01  9.7898435457302657e-01  9.7961938657511294e-01 
 9.7949925014875117e-01  9.7860857004153790e-01  9.7693476227768405e-01  9.7446823992064524e-01 
 9.7120254308840026e-01  9.6713438004376362e-01  9.6226357213888780e-01  9.5659290349928960e-01 
 9.5012788623693256e-01  9.4287646300628003e-01  9.3484867983728170e-01  9.2605637204373514e-01 
 9.1651291300730398e-01  9.0623307804494813e-01  8.9523307171895472e-01  8.8353075550395099e-01 
 8.7114609295849699e-01  8.5810180165184302e-01  8.4442416644946960e-01  8.3014393011661725e-01 
 8.1529713871756149e-01  7.9992578636558065e-01  7.8407808271852919e-01  7.6780816352889403e-01 
 7.5117508500894692e-01  7.3424099024695055e-01  7.1706841074558414e-01  6.9971676452324127e-01 
 6.8223822551984925e-01  6.6467325394034971e-01  6.4704617648288432e-01  6.2936806109967269e-01 
 6.1166205295106990e-01  5.9395559704442413e-01  5.7627548089023140e-01  5.5864778348272903e-01 
 5.4109782539511619e-01  5.2365012014739387e-01  5.0632832705998854e-01  4.8915520586474670e-01 
 4.7215257340303629e-01  4.5534126279424647e-01  4.3874108550224050e-01  4.2237079675759726e-01 
 4.0624806480568282e-01  3.9038944444152324e-01  3.7481035526044587e-01  3.5952506499845638e-01 
 3.4454667826011198e-01  3.2988713083767796e-01  3.1555718971845459e-01  3.0156645876311344e-01 
 2.8792338992295824e-01  2.7463529975431783e-01  2.6170839088939107e-01  2.4914777803942950e-01 
 2.3695751804146348e-01  2.2514064341590204e-01  2.1369919887987393e-01  2.0263428025944769e-01 
 1.9194607526111226e-01  1.8163390559641024e-01  1.7169627000015433e-01  1.6213088773852014e-01 
 1.5293474226477100e-01  1.4410412474378273e-01  1.3563467722858602e-01  1.2752143532999741e-01 
 1.1975887027179909e-01  1.1234093026725150e-01  1.0526108118700973e-01  9.8512346513451851e-02 
 9.2087346592245933e-02  8.5978337199398860e-02  8.0177247442129784e-02  7.4675717006018189e-02 
 6.9465132750461220e-02  6.4536664641022687e-02  5.9881300992197371e-02  5.5489882978732120e-02 
 5.1353138359052711e-02  4.7461714341417195e-02  4.3806209512819168e-02  4.0377204742827855e-02 
 3.7165292969707650e-02  3.4161107774354431e-02  3.1355350648717292e-02  2.8738816869225508e-02 
 2.6302419892003770e-02  2.4037214194977848e-02  2.1934416501958740e-02  1.9985425335052924e-02 
 1.8181838853900345e-02  1.6515470952933691e-02  1.4978365600765776e-02  1.3562809418665861e-02 
 1.2261342507647531e-02  1.1066767545765094e-02  9.9721571886502054e-03  8.9708598169947629e-03 
 8.0565036845122000e-03  7.2229995288219696e-03  6.4645417156573371e-03  5.7756079937658902e-03 
 5.1509579438397315e-03  4.5856302097727593e-03  4.0749386044989329e-03  3.6144671856295513e-03 
 3.2000643980981099e-03  2.8278363820651623e-03  2.4941395444670767e-03  2.1955724918537251e-03 
 1.9289674206007378e-03  1.6913810582587794e-03  1.4800852467789438e-03  1.2925572546987835e-03 
 1.1264699011618055e-03  9.7968156995159659e-04  8.5022618662975867e-04  7.3630322645495830e-04 
 6.3626781510864262e-04  5.4862097843977906e-04  4.7200009154196881e-04  4.0516957156330329e-04 
 3.4701185278955478e-04  2.9651867679649462e-04  2.5278272489311294e-04  2.1498961472364770e-04 
 1.8241027780532262e-04  1.5439372998640857e-04  1.3036024234468037e-04  1.0979491593181877e-04 
 9.2241660020577092e-05  7.7297570138095618e-05  6.4607699174327389e-05  5.3860212237407949e-05 
 4.4781913681378559e-05  3.7134132845003621e-05  3.0708953498769806e-05  2.5325770782568355e-05 
 2.0828158508456202e-05  1.7081029078618614e-05  1.3968067904055743e-05  1.1389424079439665e-05 
 9.2596391483939520e-06  7.5057960554423494e-06  6.0658708007282778e-06  4.8872698667092634e-06 
 3.9255371487965638e-06  3.1432148720386594e-06  2.5088437926293176e-06  1.9960888470968842e-06 
 1.5829773061010364e-06  1.2512373982524829e-06  9.8572627855806742e-07  7.7393711409713961e-07 
 6.0557593627171433e-07  4.7219975608683519e-07  3.6690824968651988e-07  2.8408209059452364e-07 
 2.1916172898464674e-07  1.6846109429122442e-07  1.2901132414767884e-07  9.8430199570968190e-08 
 7.4813493893826976e-08  5.6644922290437900e-08  4.2721811524699998e-08  3.2093997907128524e-08 
 2.4013807852198194e-08  1.7895282599561382e-08  1.3281079468911911e-08  9.8157194022709548e-09 
 7.2240574596975057e-09  5.2940322776325421e-09  3.8629050833396750e-09  2.8063313664430786e-09 
 2.0297212675646206e-09  1.4614405103736082e-09  1.0474844492162259e-09  7.4732551320858252e-10 
 5.3069079338945224e-10  3.7507335099954837e-10  2.6381945262160844e-10  1.8466562337654508e-10 
 1.2862525659755621e-10  8.9145486077059566e-11  6.1471941414327180e-11  4.2172576966296335e-11 
 2.8782595984400578e-11  1.9541003937002088e-11  1.3196262298831445e-11  8.8636344754261588e-12 
 5.9210515931875111e-12  3.9335152185069008e-12  2.5985212393592763e-12  1.7068808425593615e-12 
 1.1147545773871048e-12  7.2380512902065236e-13  4.6719388854769026e-13  2.9975890285467981e-13 
 1.9116675203833441e-13  1.2116673616820888e-13  7.6322084598716019e-14  4.7772430025889291e-14 
 2.9711788974074762e-14  1.8359812072676650e-14  1.1270904529637526e-14  6.8732661666585119e-15 
 4.1633591572547562e-15  2.5047450591666624e-15  1.4965322084784633e-15  8.8793329812362197e-16 
 5.2315541235499962e-16  3.0610421731373640e-16  1.7794048249199794e-16  1.0291492482169758e-16 
 0.0000000000000000e+00  0.0000000000000000e+00  0.0000000000000000e+00  0.0000000000000000e+00 
 0.0000000000000000e+00  0.0000000000000000e+00  0.0000000000000000e+00  0.0000000000000000e+00 
 0.0000000000000000e+00  0.0000000000000000e+00  0.0000000000000000e+00  0.0000000000000000e+00 
 0.0000000000000000e+00  0.0000000000000000e+00  0.0000000000000000e+00  0.0000000000000000e+00 
 0.0000000000000000e+00  0.0000000000000000e+00  0.0000000000000000e+00  0.0000000000000000e+00 
 0.0000000000000000e+00  0.0000000000000000e+00  0.0000000000000000e+00  0.0000000000000000e+00 
 0.0000000000000000e+00  0.0000000000000000e+00  0.0000000000000000e+00  0.0000000000000000e+00 
 0.0000000000000000e+00  0.0000000000000000e+00  0.0000000000000000e+00  0.0000000000000000e+00 
 0.0000000000000000e+00  0.0000000000000000e+00  0.0000000000000000e+00  0.0000000000000000e+00 
 0.0000000000000000e+00  0.0000000000000000e+00  0.0000000000000000e+00  0.0000000000000000e+00 
 0.0000000000000000e+00  0.0000000000000000e+00  0.0000000000000000e+00  0.0000000000000000e+00 
 0.0000000000000000e+00  0.0000000000000000e+00  0.0000000000000000e+00  0.0000000000000000e+00 
 0.0000000000000000e+00  0.0000000000000000e+00  0.0000000000000000e+00  0.0000000000000000e+00 
 0.0000000000000000e+00  0.0000000000000000e+00  0.0000000000000000e+00  0.0000000000000000e+00 
 0.0000000000000000e+00  0.0000000000000000e+00  0.0000000000000000e+00  0.0000000000000000e+00 
 0.0000000000000000e+00  0.0000000000000000e+00  0.0000000000000000e+00  0.0000000000000000e+00 
 0.0000000000000000e+00  0.0000000000000000e+00  0.0000000000000000e+00  0.0000000000000000e+00 
 0.0000000000000000e+00  0.0000000000000000e+00  0.0000000000000000e+00  0.0000000000000000e+00 
 0.0000000000000000e+00  0.0000000000000000e+00  0.0000000000000000e+00  0.0000000000000000e+00 
 0.0000000000000000e+00  0.0000000000000000e+00  0.0000000000000000e+00  0.0000000000000000e+00 
 0.0000000000000000e+00  0.0000000000000000e+00  0.0000000000000000e+00  0.0000000000000000e+00 
 0.0000000000000000e+00  0.0000000000000000e+00  0.0000000000000000e+00  0.0000000000000000e+00 
 0.0000000000000000e+00  0.0000000000000000e+00  0.0000000000000000e+00  0.0000000000000000e+00 
 0.0000000000000000e+00  0.0000000000000000e+00  0.0000000000000000e+00  0.0000000000000000e+00 
 0.0000000000000000e+00  0.0000000000000000e+00  0.0000000000000000e+00  0.0000000000000000e+00 
 0.0000000000000000e+00  0.0000000000000000e+00  0.0000000000000000e+00  0.0000000000000000e+00 
 0.0000000000000000e+00  0.0000000000000000e+00  0.0000000000000000e+00  0.0000000000000000e+00 
 0.0000000000000000e+00  0.0000000000000000e+00  0.0000000000000000e+00  0.0000000000000000e+00 
 0.0000000000000000e+00  0.0000000000000000e+00  0.0000000000000000e+00  0.0000000000000000e+00 
 0.0000000000000000e+00  0.0000000000000000e+00  0.0000000000000000e+00  0.0000000000000000e+00 
 0.0000000000000000e+00  0.0000000000000000e+00  0.0000000000000000e+00  0.0000000000000000e+00 
 0.0000000000000000e+00  0.0000000000000000e+00  0.0000000000000000e+00  0.0000000000000000e+00 
 0.0000000000000000e+00  0.0000000000000000e+00  0.0000000000000000e+00  0.0000000000000000e+00 
 0.0000000000000000e+00  0.0000000000000000e+00  0.0000000000000000e+00  0.0000000000000000e+00 
 0.0000000000000000e+00  0.0000000000000000e+00 
D    2   0.50          Wavefunction
 1.7599794299123274e-14  1.8299746630166473e-14  1.9027536403922047e-14  1.9784270728948560e-14 
 2.0571100744047284e-14  2.1389223369366229e-14  2.2239883127146475e-14  2.3124374034880417e-14 
 2.4044041573761760e-14  2.5000284735421953e-14  2.5994558150066015e-14  2.7028374299245643e-14 
 2.8103305816635069e-14  2.9220987880310211e-14  3.0383120700169714e-14  3.1591472104281916e-14 
 3.2847880228092255e-14  3.4154256310581533e-14  3.5512587601628922e-14  3.6924940385002116e-14 
 3.8393463121573294e-14  3.9920389717542302e-14  4.1508042922638566e-14  4.3158837863471260e-14 
 4.4875285717402587e-14  4.6659997532532312e-14  4.8515688199605700e-14  5.0445180581885310e-14 
 5.2451409809270604e-14  5.4537427743195921e-14  5.6706407619100439e-14  5.8961648873530673e-14 
 6.1306582163219880e-14  6.3744774583777782e-14  6.6279935095931243e-14  6.8915920167567928e-14 
 7.1656739640167940e-14  7.4506562828545219e-14  7.7469724863179361e-14  8.0550733284784790e-14 
 8.3754274901148954e-14  8.7085222916670609e-14  9.0548644345442791e-14  9.4149807719158631e-14 
 9.7894191101562985e-14  1.0178749042164367e-13  1.0583562813823767e-13  1.1004476224923220e-13 
 1.1442129565906694e-13  1.1897188591878562e-13  1.2370345535345493e-13  1.2862320159235455e-13 
 1.3373860851795973e-13  1.3905745765036812e-13  1.4458783998449269e-13  1.5033816829802347e-13 
 1.5631718994888562e-13  1.6253400018165543e-13  1.6899805596318128e-13  1.7571919036845286e-13 
 1.8270762753860372e-13  1.8997399823380060e-13  1.9752935600467862e-13  2.0538519400692218e-13 
 2.1355346248457083e-13  2.2204658694864297e-13  2.3087748707873342e-13  2.4005959637633601e-13 
 2.4960688259978938e-13  2.5953386901192839e-13  2.6985565647276734e-13  2.8058794641081733e-13 
 2.9174706470798625e-13  3.0334998653439135e-13  3.1541436217086437e-13  3.2795854385843121e-13 
 3.4100161371560707e-13  3.5456341276597649e-13  3.6866457112021388e-13  3.8332653935845760e-13 
 3.9857162116077848e-13  4.1442300723537091e-13  4.3090481059609616e-13  4.4804210324301574e-13 
 4.6586095430174151e-13  4.8438846967959747e-13  5.0365283329892567e-13  5.2368334997026831e-13 
 5.4451048997062759e-13  5.6616593539463215e-13  5.8868262834910443e-13  6.1209482106435778e-13 
 6.3643812799843267e-13  6.6174958001355799e-13  6.8806768070722108e-13  7.1543246498356235e-13 
 7.4388555995417762e-13  7.7347024826097441e-13  8.0423153391741481e-13  8.3621621076828242e-13 
 8.6947293367214710e-13  9.0405229251476881e-13  9.4000688916606794e-13  9.7739141749770101e-13 
 1.0162627465829772e-12  1.0566800072056754e-12  1.0987046818093557e-12  1.1424006980240057e-12 
 1.1878345259122742e-12  1.2350752790832490e-12  1.2841948198275633e-12  1.3352678684337852e-12 
 1.3883721168523740e-12  1.4435883468800914e-12  1.5010005530446895e-12  1.5606960703767512e-12 
 1.6227657072631057e-12  1.6873038835838621e-12  1.7544087743432494e-12  1.8241824590126851e-12 
 1.8967310768133301e-12  1.9721649881742730e-12  2.0505989426119967e-12  2.1321522532864965e-12 
 2.2169489784995657e-12  2.3051181104113648e-12  2.3967937712623328e-12  2.4921154173989463e-12 
 2.5912280514136591e-12  2.6942824427217843e-12  2.8014353569107834e-12  2.9128497942109110e-12 
 3.0286952374499530e-12  3.1491479098692193e-12  3.2743910431930329e-12  3.4046151563594390e-12 
 3.5400183453361884e-12  3.6808065844628266e-12  3.8271940397773202e-12  3.9794033948038066e-12 
 4.1376661892970825e-12  4.3022231714591577e-12  4.4733246641635479e-12  4.6512309457446003e-12 
 4.8362126459308408e-12  5.0285511575249330e-12  5.2285390644562124e-12  5.4364805868571642e-12 
 5.6526920438407576e-12  5.8775023346826451e-12  6.1112534391402634e-12  6.3543009376697637e-12 
 6.6070145523323084e-12  6.8697787092124247e-12  7.1429931232039823e-12  7.4270734060534363e-12 
 7.7224516985851417e-12  8.0295773280707185e-12  8.3489174917421211e-12  8.6809579674884963e-12 
 9.0262038528177030e-12  9.3851803332066559e-12  9.7584334810094623e-12  1.0146531086138315e-11 
 1.0550063519781103e-11  1.0969644632469356e-11  1.1405912687862920e-11  1.1859531333671499e-11 
 1.2331190611190340e-11  1.2821608004985586e-11  1.3331529534325981e-11  1.3861730888021583e-11 
 1.4413018604395241e-11  1.4986231298182290e-11  1.5582240936224459e-11  1.6201954163898914e-11 
 1.6846313684299760e-11  1.7516299692270392e-11  1.8212931365467904e-11  1.8937268414727765e-11 
 1.9690412696087330e-11  2.0473509886920189e-11  2.1287751228731132e-11  2.2134375339262765e-11 
 2.3014670096670767e-11  2.3929974598633181e-11  2.4881681199374784e-11  2.5871237627704577e-11 
 2.6900149189288607e-11  2.7969981056508330e-11  2.9082360649387507e-11  3.0238980111209758e-11 
 3.1441598882592216e-11  3.2692046377931834e-11  3.3992224768294460e-11  3.5344111874981247e-11 
 3.6749764178173077e-11  3.8211319945230093e-11  3.9731002483405615e-11  4.1311123521921142e-11 
 4.2954086728548628e-11  4.4662391366048212e-11  4.6438636094024662e-11  4.8285522921984728e-11 
 5.0205861319609666e-11  5.2202572490495074e-11  5.4278693815858701e-11  5.6437383474977308e-11 
 5.8681925249379527e-11  6.1015733518103748e-11  6.3442358451619606e-11  6.5965491412313961e-11 
 6.8588970569756221e-11  7.1316786739285524e-11  7.4153089452800648e-11  7.7102193270987551e-11 
 8.0168584346587723e-11  8.3356927248689538e-11  8.6672072058424597e-11  9.0119061746863290e-11 
 9.3703139846331931e-11  9.7429758426820978e-11  1.0130458638961921e-10  1.0533351809078814e-10 
 1.0952268230759507e-10  1.1387845156154648e-10  1.1840745181220041e-10  1.2311657253650676e-10 
 1.2801297720900477e-10  1.3310411419882591e-10  1.3839772810007054e-10  1.4390187151280058e-10 
 1.4962491729256614e-10  1.5557557128709935e-10  1.6176288557955357e-10  1.6819627225842861e-10 
 1.7488551773513327e-10  1.8184079763095913e-10  1.8907269225611978e-10  1.9659220270439197e-10 
 2.0441076758784953e-10  2.1254028043714262e-10  2.2099310779379022e-10  2.2978210802201410e-10 
 2.3892065086872022e-10  2.4842263780139165e-10  2.5830252315482259e-10  2.6857533611886907e-10 
 2.7925670360065523e-10  2.9036287399602070e-10  3.0191074190636390e-10  3.1391787383848041e-10 
 3.2640253492649658e-10  3.3938371671653887e-10  3.5288116605640730e-10  3.6691541513420158e-10 
 3.8150781271159268e-10  3.9668055659924800e-10  4.1245672742381449e-10  4.2886032373782481e-10 
 4.4591629852593091e-10  4.6365059716300457e-10  4.8209019688183783e-10  5.0126314781048358e-10 
 5.2119861564166318e-10  5.4192692599914542e-10  5.6347961056858774e-10  5.8588945506300871e-10 
 6.0919054909586058e-10  6.3341833803756158e-10  6.5860967693437733e-10  6.8480288657166155e-10 
 7.1203781176674759e-10  7.4035588198015155e-10  7.6980017433730221e-10  8.0041547915664960e-10 
 8.3224836808383650e-10  8.6534726493558179e-10  8.9976251936102351e-10  9.3554648343259665e-10 
 9.7275359128293112e-10  1.0114404419089172e-09  1.0516658852689004e-09  1.0934911118039681e-09 
 1.1369797455195064e-09  1.1821979407686140e-09  1.2292144828846016e-09  1.2781008928156419e-09 
 1.3289315359207585e-09  1.3817837350926214e-09  1.4367378883792430e-09  1.4938775912834748e-09 
 1.5532897639263895e-09  1.6150647832678976e-09  1.6792966205858162e-09  1.7460829844224503e-09 
 1.8155254692161404e-09  1.8877297098439129e-09  1.9628055423102354e-09  2.0408671708263669e-09 
 2.1220333415344208e-09  2.2064275231404279e-09  2.2941780947311228e-09  2.3854185410601957e-09 
 2.4802876556010066e-09  2.5789297516746915e-09  2.6814948819747844e-09  2.7881390668222567e-09 
 2.8990245314982113e-09  3.0143199530152334e-09  3.1342007167027548e-09  3.2588491829967044e-09 
 3.3884549648393697e-09  3.5232152161112560e-09  3.6633349315338156e-09  3.8090272584991741e-09 
 3.9605138213011709e-09  4.1180250582609409e-09  4.2818005722597926e-09  4.4520894952126148e-09 
 4.6291508670361418e-09  4.8132540296886658e-09  5.0046790368803756e-09  5.2037170800776625e-09 
 5.4106709314493314e-09  5.6258554044284641e-09  5.8495978325905119e-09  6.0822385675760092e-09 
 6.3241314968152759e-09  6.5756445818425597e-09  6.8371604180186069e-09  7.1090768165127409e-09 
 7.3918074094299557e-09  7.6857822790032297e-09  7.9914486118082954e-09  8.3092713789957359e-09 
 8.6397340435753001e-09  8.9833392958280227e-09  9.3406098179648248e-09  9.7120890791948143e-09 
 1.0098342162412250e-08  1.0499956623759958e-08  1.0917543386376260e-08  1.1351737669685154e-08 
 1.1803199955642871e-08  1.2272616993410696e-08  1.2760702843982123e-08  1.3268199966352942e-08 
 1.3795880346886898e-08  1.4344546673593915e-08  1.4915033557107505e-08  1.5508208800218183e-08 
 1.6124974717893817e-08  1.6766269509794570e-08  1.7433068687370092e-08  1.8126386557709426e-08 
 1.8847277766400121e-08  1.9596838901744054e-08  2.0376210162768658e-08  2.1186577093571250e-08 
 2.2029172386634151e-08  2.2905277757852866e-08  2.3816225896129424e-08  2.4763402490495952e-08 
 2.5748248337851101e-08  2.6772261534515215e-08  2.7836999754937672e-08  2.8944082621020947e-08 
 3.0095194165665716e-08  3.1292085394283061e-08  3.2536576948169733e-08  3.3830561873796630e-08 
 3.5176008502222344e-08  3.6574963443010698e-08  3.8029554697204466e-08  3.9541994894091698e-08 
 4.1114584656683946e-08  4.2749716101026809e-08  4.4449876474663160e-08  4.6217651939782607e-08 
 4.8055731506809658e-08  4.9966911124413557e-08  5.1954097932157830e-08  5.4020314682257475e-08 
 5.6168704337168138e-08  5.8402534849997040e-08  6.0725204135006221e-08  6.3140245235765808e-08 
 6.5651331698815992e-08  6.8262283161008960e-08  7.0977071159026366e-08  7.3799825169906630e-08 
 7.6734838891765048e-08  7.9786576774260888e-08  8.2959680808735041e-08  8.6258977588347485e-08 
 8.9689485648946685e-08  9.3256423101833157e-08  9.6965215570021616e-08  1.0082150444006911e-07 
 1.0483115544201333e-07  1.0900026757046646e-07  1.1333518236042980e-07  1.1784249353192640e-07 
 1.2252905701811917e-07  1.2740200139215746e-07  1.3246873870860325e-07  1.3773697577591961e-07 
 1.4321472587715644e-07  1.4891032095665267e-07  1.5483242429127581e-07  1.6099004366546914e-07 
 1.6739254507012349e-07  1.7404966694610404e-07  1.8097153499407926e-07  1.8816867757316355e-07 
 1.9565204171177923e-07  2.0343300975507238e-07  2.1152341667418625e-07  2.1993556806369612e-07 
 2.2868225885456664e-07  2.3777679277106080e-07  2.4723300256117786e-07  2.5706527103136257e-07 
 2.6728855291744976e-07  2.7791839762508374e-07  2.8897097287416474e-07  3.0046308928325450e-07 
 3.1241222593129335e-07  3.2483655693547615e-07  3.3775497908566116e-07  3.5118714057730336e-07 
 3.6515347088656800e-07  3.7967521183300948e-07  3.9477444987700957e-07  4.1047414970103794e-07 
 4.2679818912575245e-07  4.4377139541397029e-07  4.6141958301767232e-07  4.7976959282535956e-07 
 4.9884933296938094e-07  5.1868782125521524e-07  5.3931522927714287e-07  5.6076292828730572e-07 
 5.8306353688782113e-07  6.0625097061836236e-07  6.3036049351450780e-07  6.5542877171516525e-07 
 6.8149392920043082e-07  7.0859560574454294e-07  7.3677501717189378e-07  7.6607501800758928e-07 
 7.9654016661765000e-07  8.2821679293775293e-07  8.6115306889329663e-07  8.9539908161768288e-07 
 9.3100690957995862e-07  9.6803070173730615e-07  1.0065267598325417e-06  1.0465536239614744e-06 
 1.0881721615399750e-06  1.1314456598057255e-06  1.1764399219950015e-06  1.2232233673403723e-06 
 1.2718671350410038e-06  1.3224451923633058e-06  1.3750344470358190e-06  1.4297148641088234e-06 
 1.4865695874558979e-06  1.5456850661016312e-06  1.6071511855670306e-06  1.6710614044317773e-06 
 1.7375128963203145e-06  1.8066066975269901e-06  1.8784478605040484e-06  1.9531456134450105e-06 
 2.0308135262053100e-06  2.1115696828115882e-06  2.1955368608209751e-06  2.2828427178020998e-06 
 2.3736199852202679e-06  2.4680066700204683e-06  2.5661462642134472e-06  2.6681879627822721e-06 
 2.7742868902392118e-06  2.8846043361759545e-06  2.9993080001636667e-06  3.1185722463735585e-06 
 3.2425783683032200e-06  3.3715148640093004e-06  3.5055777222628604e-06  3.6449707200602206e-06 
 3.7899057319393655e-06  3.9406030515694494e-06  4.0972917260997174e-06  4.2602099037732694e-06 
 4.4296051953309783e-06  4.6057350497517496e-06  4.7888671448968015e-06  4.9792797936480630e-06 
 5.1772623661540774e-06  5.3831157288211218e-06  5.5971527007121670e-06  5.8196985280426558e-06 
 6.0510913774892631e-06  6.2916828490558070e-06  6.5418385092700921e-06  6.8019384455158596e-06 
 7.0723778423355573e-06  7.3535675805728000e-06  7.6459348602576562e-06  7.9499238481729565e-06 
 8.2659963510774664e-06  8.5946325155996241e-06  8.9363315558556893e-06  9.2916125098875072e-06 
 9.6610150260581916e-06  1.0045100180588817e-05  1.0444451327465418e-05  1.0859674981994640e-05 
 1.1291401739335443e-05  1.1740287229387491e-05  1.2207013109470314e-05  1.2692288096283974e-05 
 1.3196849038700195e-05  1.3721462032993897e-05  1.4266923582187913e-05  1.4834061801249198e-05 
 1.5423737669943607e-05  1.6036846335225575e-05  1.6674318465114282e-05  1.7337121656082561e-05 
 1.8026261896065344e-05  1.8742785085275823e-05  1.9487778617103485e-05  2.0262373021456910e-05 
 2.1067743673006067e-05  2.1905112566875493e-05  2.2775750164437829e-05  2.3680977311961780e-05 
 2.4622167234974931e-05  2.5600747611313814e-05  2.6618202725948701e-05  2.7676075710790604e-05 
 2.8775970872813701e-05  2.9919556113954975e-05  3.1108565446384744e-05  3.2344801606889835e-05 
 3.3630138774241401e-05  3.4966525393586036e-05  3.6355987112042598e-05  3.7800629829854290e-05 
 3.9302642871614081e-05  4.0864302282253828e-05  4.2487974252669494e-05  4.4176118680044496e-05 
 4.5931292868123637e-05  4.7756155372899281e-05  4.9653469999374300e-05  5.1626109955289045e-05 
 5.3677062167925357e-05  5.5809431770330746e-05  5.8026446763557725e-05  6.0331462861753126e-05 
 6.2727968527210239e-05  6.5219590202752448e-05  6.7810097749110526e-05  7.0503410095239084e-05 
 7.3303601109830409e-05  7.6214905702586658e-05  7.9241726164148190e-05  8.2388638753908109e-05 
 8.5660400545290339e-05  8.9061956538441492e-05  9.2598447050652692e-05  9.6275215395226187e-05 
 1.0009781585989942e-04  1.0407202199636380e-04  1.0820383523284952e-04  1.1249949382219118e-04 
 1.1696548213826822e-04  1.2160854033418471e-04  1.2643567437605954e-04  1.3145416646682831e-04 
 1.3667158587496271e-04  1.4209580018362001e-04  1.4773498697625870e-04  1.5359764597539522e-04 
 1.5969261165177135e-04  1.6602906632185428e-04  1.7261655375224306e-04  1.7946499329025731e-04 
 1.8658469454067874e-04  1.9398637260935805e-04  2.0168116393516167e-04  2.0968064273252189e-04 
 2.1799683806766830e-04  2.2664225159244183e-04  2.3562987596050918e-04  2.4497321395164709e-04 
 2.5468629833073420e-04  2.6478371246903759e-04  2.7528061175638696e-04  2.8619274583384244e-04 
 2.9753648167756149e-04  3.0932882756563759e-04  3.2158745796084277e-04  3.3433073934338933e-04 
 3.4757775702901056e-04  3.6134834300896514e-04  3.7566310484982005e-04  3.9054345569225393e-04 
 4.0601164538945478e-04  4.2209079282718587e-04  4.3880491946899893e-04  4.5617898417165222e-04 
 4.7423891931733990e-04  4.9301166831097808e-04  5.1252522449246314e-04  5.3280867151552478e-04 
 5.5389222524666892e-04  5.7580727723940777e-04  5.9858643984104305e-04  6.2226359299105921e-04 
 6.4687393277235465e-04  6.7245402177851525e-04  6.9904184136257257e-04  7.2667684583480800e-04 
 7.5540001867956379e-04  7.8525393086327575e-04  8.1628280130842726e-04  8.4853255961063511e-04 
 8.8205091107856958e-04  9.1688740417922461e-04  9.5309350047360344e-04  9.9072264713084553e-04 
 1.0298303521116563e-03  1.0704742621149323e-03  1.1127142433844475e-03  1.1566124654757944e-03 
 1.2022334880869400e-03  1.2496443510590343e-03  1.2989146676577593e-03  1.3501167212488778e-03 
 1.4033255654854013e-03  1.4586191281275103e-03  1.5160783186202373e-03  1.5757871395579014e-03 
 1.6378328021683830e-03  1.7023058459544836e-03  1.7693002626340004e-03  1.8389136245245104e-03 
 1.9112472175234570e-03  1.9864061788388010e-03  2.0644996396302741e-03  2.1456408727262167e-03 
 2.2299474455862831e-03  2.3175413786836905e-03  2.4085493094917433e-03  2.5031026622536795e-03 
 2.6013378237345567e-03  2.7033963251462969e-03  2.8094250304545819e-03  2.9195763312704027e-03 
 3.0340083485454203e-03  3.1528851412921371e-03  3.2763769225521711e-03  3.4046602828510454e-03 
 3.5379184213765571e-03  3.6763413851275801e-03  3.8201263162873449e-03  3.9694777080794066e-03 
 4.1246076693723750e-03  4.2857361983083793e-03  4.4530914652302425e-03  4.6269101051973670e-03 
 4.8074375203781602e-03  4.9949281926209991e-03  5.1896460065041982e-03  5.3918645831763576e-03 
 5.6018676253026074e-03  5.8199492734353564e-03  6.0464144741345302e-03  6.2815793601655482e-03 
 6.5257716431061591e-03  6.7793310186966193e-03  7.0426095852675619e-03  7.3159722755807097e-03 
 7.5997973024181410e-03  7.8944766182517147e-03  8.2004163893199984e-03  8.5180374844364502e-03 
 8.8477759788420911e-03  9.1900836734068320e-03  9.5454286294712476e-03  9.9142957196024922e-03 
 1.0297187194522227e-02  1.0694623266436878e-02  1.1107142708979528e-02  1.1535303473933715e-02 
 1.1979683324881545e-02  1.2440880487868048e-02  1.2919514319133291e-02  1.3416225989901987e-02 
 1.3931679188166698e-02  1.4466560837326758e-02  1.5021581831463805e-02  1.5597477786949391e-02 
 1.6195009810011141e-02  1.6814965279708632e-02  1.7458158645743967e-02  1.8125432240314352e-02 
 1.8817657103143294e-02  1.9535733818630937e-02  2.0280593363890664e-02  2.1053197966305622e-02 
 2.1854541968977664e-02  2.2685652702282028e-02  2.3547591359472705e-02  2.4441453874085133e-02 
 2.5368371796581270e-02  2.6329513167435502e-02  2.7326083383574812e-02  2.8359326054773735e-02 
 2.9430523846307649e-02  3.0540999303816291e-02  3.1692115656057153e-02  3.2885277590807810e-02 
 3.4121931998915285e-02  3.5403568681092831e-02  3.6731721011750894e-02  3.8107966553815646e-02 
 3.9533927618166521e-02  4.1011271761030844e-02  4.2541712212386541e-02  4.4127008228211397e-02 
 4.5768965359172520e-02  4.7469435628233962e-02  4.9230317609532837e-02  5.1053556400841769e-02 
 5.2941143481985732e-02  5.4895116451686633e-02  5.6917558635501346e-02  5.9010598557853046e-02 
 6.1176409271538341e-02  6.3417207538611839e-02  6.5735252857196960e-02  6.8132846329481647e-02 
 7.0612329367047824e-02  7.3176082230626660e-02  7.5826522402428070e-02  7.8566102790366688e-02 
 8.1397309764661224e-02  8.4322661028599172e-02  8.7344703326436859e-02  9.0466009992675026e-02 
 9.3689178348037680e-02  9.7016826948471954e-02  1.0045159269426528e-01  1.0399612780683762e-01 
 1.0765309668088108e-01  1.1142517261916417e-01  1.1531503445638631e-01  1.1932536307689277e-01 
 1.2345883782869546e-01  1.2771813283302350e-01  1.3210591318443576e-01  1.3662483103126991e-01 
 1.4127752151984518e-01  1.4606659857831708e-01  1.5099465050736297e-01  1.5606423533505920e-01 
 1.6127787588241138e-01  1.6663805447418858e-01  1.7214720721722879e-01  1.7780771775547263e-01 
 1.8362191039809861e-01  1.8959204250469433e-01  1.9572029600004368e-01  2.0200876788151867e-01 
 2.0845945957499612e-01  2.1507426499160101e-01  2.2185495713834061e-01  2.2880317314182880e-01 
 2.3592039755686553e-01  2.4320794385156913e-01  2.5066693398900869e-01  2.5829827606257588e-01 
 2.6610263998915878e-01  2.7408043132078636e-01  2.8223176330150435e-01  2.9055642737111775e-01 
 2.9905386239972015e-01  3.0772312302450899e-01  3.1656284755044906e-01  3.2557122596512411e-01 
 3.3474596870109341e-01  3.4408427685084042e-01  3.5358281459386892e-01  3.6323768462604272e-01 
 3.7304440738093869e-01  3.8299790479496665e-01  3.9309248928607610e-01  4.0332185848474927e-01 
 4.1367909607250070e-01  4.2415667884626007e-01  4.3474648983942998e-01  4.4543983699855205e-01 
 4.5622747654977969e-01  4.6709963980831398e-01  4.7804606180886955e-01  4.8905600979379688e-01 
 5.0011830932028911e-01  5.1122136557567177e-01  5.2235317745830168e-01  5.3350134212888634e-01 
 5.4465304809657056e-01  5.5579505550142150e-01  5.6691366310255975e-01  5.7799466257387255e-01 
 5.8902328201916943e-01  5.9998412209055607e-01  6.1086108964280039e-01  6.2163733536596877e-01 
 6.3229520316289356e-01  6.4281620000724715e-01  6.5318099544795660e-01  6.6336945963247385e-01 
 6.7336074754063791e-01  6.8313343493137357e-01  6.9266570825507445e-01  7.0193560652161757e-01 
 7.1092130800713349e-01  7.1960144904430834e-01  7.2795545643490156e-01  7.3596386985791440e-01 
 7.4360862674789963e-01  7.5087328027576616e-01  7.5774312205614469e-01  7.6420518569013052e-01 
 7.7024811564801088e-01  7.7586189834496999e-01  7.8103746810132391e-01  7.8576621893862986e-01 
 7.9003947211894499e-01  7.9384796663371626e-01  7.9718145264288975e-01  8.0002847306256553e-01 
 8.0237641314607189e-01  8.0421187966910712e-01  8.0552143907160800e-01  8.0629269823521088e-01 
 8.0651565531823954e-01  8.0618418655576496e-01  8.0529747591815926e-01  8.0386114769987171e-01 
 8.0188783810249264e-01  7.9939695072510730e-01  7.9641339013106649e-01  7.9296516028789665e-01 
 7.8907984711787083e-01  7.8478016523388161e-01  7.8007891863669876e-01  7.7497387732520617e-01 
 7.6945118751437036e-01  7.6351433371523791e-01  7.5717335892049997e-01  7.5043882926609295e-01 
 7.4332181860737334e-01  7.3583388963378349e-01  7.2798707137645580e-01  7.1979383305730704e-01 
 7.1126705433933857e-01  7.0241999216194617e-01  6.9326624447612795e-01  6.8381971132518882e-01 
 6.7409455383866668e-01  6.6410515181219387e-01  6.5386606062598307e-01  6.4339196830297818e-01 
 6.3269765351986629e-01  6.2179794535796173e-01  6.1070768551703780e-01  5.9944169361657529e-01 
 5.8801473608117494e-01  5.7644149895716457e-01  5.6473656484422219e-01  5.5291439395812614e-01 
 5.4098930917719390e-01  5.2897548477383316e-01  5.1688693840084843e-01  5.0473752579527276e-01 
 4.9254093758441320e-01  4.8031069753161471e-01  4.6806016154344887e-01  4.5580251677436612e-01 
 4.4355078020677119e-01  4.3131779615019611e-01  4.1911623218810673e-01  4.0695857319967083e-01 
 3.9485711319107808e-01  3.8282394478133958e-01  3.7087094629587281e-01  3.5900976652315181e-01 
 3.4725180728160382e-01  3.3560820402298763e-01  3.2408980476284888e-01  3.1270714767741131e-01 
 3.0147043773935250e-01  2.9038952278300723e-01  2.7947386939391322e-01  2.6873253900993183e-01 
 2.5817416460346559e-01  2.4780692828859049e-01  2.3763854016538127e-01  2.2767621867826893e-01 
 2.1792667272775848e-01  2.0839608573677681e-01  1.9909010183559461e-01  1.9001381429363917e-01 
 1.8117175629328552e-01  1.7256789411029450e-01  1.6420562273816097e-01  1.5608776396921603e-01 
 1.4821656692374358e-01  1.4059371099933951e-01  1.3322031119591832e-01  1.2609692575679432e-01 
 1.1922356605277327e-01  1.1259970862386899e-01  1.0622430928186269e-01  1.0009581916626269e-01 
 9.4212202636203016e-02  8.8570956871414266e-02  8.3169133046643418e-02  7.8003358935878148e-02 
 7.3069862795561089e-02  6.8364498369797563e-02  6.3882770855496915e-02  5.9619863661563889e-02 
 5.5570665793771741e-02  5.1729799695868682e-02  4.8091649377832911e-02  4.4650388663998612e-02 
 4.1400009397000032e-02  3.8334349438065365e-02  3.5447120310058804e-02  3.2731934336714244e-02 
 3.0182331139620825e-02  2.7791803363578369e-02  2.5553821510813559e-02  2.3461857775100178e-02 
 2.1509408777925104e-02  1.9690017120352513e-02  1.7997291676033467e-02  1.6424926562760150e-02 
 1.4966718741954035e-02  1.3616584207391850e-02  1.2368572736203965e-02  1.1216881186627958e-02 
 1.0155865338071951e-02  9.1800502796541769e-03  8.2841393634598519e-03  7.4630217482264212e-03 
 6.7117785679739342e-03  6.0256877681880566e-03  5.4002276594981779e-03  4.8310792453389872e-03 
 4.3141273858179835e-03  3.8454608649190264e-03  3.4213714322473754e-03  3.0383518937682772e-03 
 2.6930933284197251e-03  2.3824815091098720e-03  2.1035926074672996e-03  1.8536882618309224e-03 
 1.6302100873856014e-03  1.4307737061142244e-03  1.2531623723970582e-03  1.0953202676982918e-03 
 9.5534553489493056e-04  8.3148311948391727e-04  7.2211748121057690e-04  6.2576523565691512e-04 
 5.4106778107374778e-04  4.6678396129692853e-04  4.0178281101461500e-04  3.4503642500674595e-04 
 2.9561298831417128e-04  2.5266999966428193e-04  2.1544771592982810e-04  1.8326284097093176e-04 
 1.5550247794566928e-04  1.3161836010575884e-04  1.1112137124969134e-04  9.3576363409967768e-05 
 7.8597276022802413e-05  6.5842557781733627e-05  5.5010889620279044e-05  4.5837204807829891e-05 
 3.8088999977870316e-05  3.1562929034918217e-05  2.6081670299329791e-05  2.1491055937162323e-05 
 1.7657451672775577e-05  1.4465373979608655e-05  1.1815331372553154e-05  9.6218760650842392e-06 
 7.8118520863212404e-06  6.3228259573674563e-06  5.1016861822837008e-06  4.1033980966534337e-06 
 3.2899010160839930e-06  2.6291351190398152e-06  2.0941860649264796e-06  1.6625359722649765e-06 
 1.3154100473126234e-06  1.0372088461841845e-06  8.1501686044696128e-07  6.3817885224931518e-07 
 4.9793619463483524e-07  3.8711508543003063e-07  2.9986167498171783e-07  2.3141706653763163e-07 
 1.7792713107552384e-07  1.3628243343506649e-07  1.0398405683315457e-07  7.9031602593717873e-08 
 5.9830091830000266e-08  4.5112906216157201e-08  3.3878276799412797e-08  2.5337164435463043e-08 
 1.8870674655110501e-08  1.3995415646600008e-08  1.0335442818092551e-08  7.5996394595967860e-09 
 5.5635627782115008e-09  4.0549404569097116e-09  2.9421372587769499e-09  2.1250263533498707e-09 
 1.5277981530607791e-09  1.0933225545077177e-09  7.7875047150795558e-10  5.5209915867858039e-10 
 3.8961463124354188e-10  2.7374490847059266e-10  1.9159111453861436e-10  1.3373079216171557e-10 
 0.0000000000000000e+00  0.0000000000000000e+00  0.0000000000000000e+00  0.0000000000000000e+00 
 0.0000000000000000e+00  0.0000000000000000e+00  0.0000000000000000e+00  0.0000000000000000e+00 
 0.0000000000000000e+00  0.0000000000000000e+00  0.0000000000000000e+00  0.0000000000000000e+00 
 0.0000000000000000e+00  0.0000000000000000e+00  0.0000000000000000e+00  0.0000000000000000e+00 
 0.0000000000000000e+00  0.0000000000000000e+00  0.0000000000000000e+00  0.0000000000000000e+00 
 0.0000000000000000e+00  0.0000000000000000e+00  0.0000000000000000e+00  0.0000000000000000e+00 
 0.0000000000000000e+00  0.0000000000000000e+00  0.0000000000000000e+00  0.0000000000000000e+00 
 0.0000000000000000e+00  0.0000000000000000e+00  0.0000000000000000e+00  0.0000000000000000e+00 
 0.0000000000000000e+00  0.0000000000000000e+00  0.0000000000000000e+00  0.0000000000000000e+00 
 0.0000000000000000e+00  0.0000000000000000e+00  0.0000000000000000e+00  0.0000000000000000e+00 
 0.0000000000000000e+00  0.0000000000000000e+00  0.0000000000000000e+00  0.0000000000000000e+00 
 0.0000000000000000e+00  0.0000000000000000e+00  0.0000000000000000e+00  0.0000000000000000e+00 
 0.0000000000000000e+00  0.0000000000000000e+00  0.0000000000000000e+00  0.0000000000000000e+00 
 0.0000000000000000e+00  0.0000000000000000e+00  0.0000000000000000e+00  0.0000000000000000e+00 
 0.0000000000000000e+00  0.0000000000000000e+00  0.0000000000000000e+00  0.0000000000000000e+00 
 0.0000000000000000e+00  0.0000000000000000e+00  0.0000000000000000e+00  0.0000000000000000e+00 
 0.0000000000000000e+00  0.0000000000000000e+00  0.0000000000000000e+00  0.0000000000000000e+00 
 0.0000000000000000e+00  0.0000000000000000e+00  0.0000000000000000e+00  0.0000000000000000e+00 
 0.0000000000000000e+00  0.0000000000000000e+00  0.0000000000000000e+00  0.0000000000000000e+00 
 0.0000000000000000e+00  0.0000000000000000e+00  0.0000000000000000e+00  0.0000000000000000e+00 
 0.0000000000000000e+00  0.0000000000000000e+00  0.0000000000000000e+00  0.0000000000000000e+00 
 0.0000000000000000e+00  0.0000000000000000e+00  0.0000000000000000e+00  0.0000000000000000e+00 
 0.0000000000000000e+00  0.0000000000000000e+00  0.0000000000000000e+00  0.0000000000000000e+00 
 0.0000000000000000e+00  0.0000000000000000e+00  0.0000000000000000e+00  0.0000000000000000e+00 
 0.0000000000000000e+00  0.0000000000000000e+00  0.0000000000000000e+00  0.0000000000000000e+00 
 0.0000000000000000e+00  0.0000000000000000e+00  0.0000000000000000e+00  0.0000000000000000e+00 
 0.0000000000000000e+00  0.0000000000000000e+00  0.0000000000000000e+00  0.0000000000000000e+00 
 0.0000000000000000e+00  0.0000000000000000e+00  0.0000000000000000e+00  0.0000000000000000e+00 
 0.0000000000000000e+00  0.0000000000000000e+00  0.0000000000000000e+00  0.0000000000000000e+00 
 0.0000000000000000e+00  0.0000000000000000e+00  0.0000000000000000e+00  0.0000000000000000e+00 
 0.0000000000000000e+00  0.0000000000000000e+00  0.0000000000000000e+00  0.0000000000000000e+00 
 0.0000000000000000e+00  0.0000000000000000e+00  0.0000000000000000e+00  0.0000000000000000e+00 
 0.0000000000000000e+00  0.0000000000000000e+00  0.0000000000000000e+00  0.0000000000000000e+00 
 0.0000000000000000e+00  0.0000000000000000e+00  0.0000000000000000e+00  0.0000000000000000e+00 
 0.0000000000000000e+00  0.0000000000000000e+00 
</PP_PSWFC>


<PP_RHOATOM>
 4.8617641986647852e-10  4.9898276807686277e-10  5.1212644765550077e-10  5.2561634423111064e-10 
 5.3946157748832782e-10  5.5367150733296034e-10  5.6825574021964262e-10  5.8322413564617239e-10 
 5.9858681281890182e-10  6.1435415749371427e-10  6.3053682899719263e-10  6.4714576743273284e-10 
 6.6419220107647117e-10  6.8168765396803630e-10  6.9964395370123433e-10  7.1807323941996270e-10 
 7.3698797002473447e-10  7.5640093259537595e-10  7.7632525103558234e-10  7.9677439494517909e-10 
 8.1776218872609524e-10  8.3930282092818509e-10  8.6141085384123392e-10  8.8410123333963168e-10 
 9.0738929898635250e-10  9.3129079440309274e-10  9.5582187791356658e-10  9.8099913346715264e-10 
 1.0068395818502860e-09  1.0333606921931602e-09  1.0605803937795393e-09  1.0885170881676423e-09 
 1.1171896616303040e-09  1.1466174979228260e-09  1.1768204913871488e-09  1.2078190604011837e-09 
 1.2396341611824366e-09  1.2722873019552127e-09  1.3058005574910148e-09  1.3401965840319340e-09 
 1.3754986346071528e-09  1.4117305747528910e-09  1.4489168986464292e-09  1.4870827456651296e-09 
 1.5262539173816221e-09  1.5664568950066633e-09  1.6077188572914794e-09  1.6500676989016387e-09 
 1.6935320492749384e-09  1.7381412919760138e-09  1.7839255845607737e-09  1.8309158789640760e-09 
 1.8791439424244432e-09  1.9286423789599535e-09  1.9794446514098187e-09  2.0315851040565840e-09 
 2.0850989858441900e-09  2.1400224742076302e-09  2.1963926995303303e-09  2.2542477702457156e-09 
 2.3136267986000148e-09  2.3745699270936673e-09  2.4371183556192243e-09  2.5013143693140912e-09 
 2.5672013671469355e-09  2.6348238912570990e-09  2.7042276570668281e-09  2.7754595841866994e-09 
 2.8485678281351257e-09  2.9236018128933700e-09  3.0006122643181150e-09  3.0796512444341504e-09 
 3.1607721866303297e-09  3.2440299317826883e-09  3.3294807653290102e-09  3.4171824553200435e-09 
 3.5071942914729730e-09  3.5995771252536185e-09  3.6943934110144632e-09  3.7917072482162523e-09 
 3.8915844247618056e-09  3.9940924614712313e-09  4.0993006577287421e-09  4.2072801383317357e-09 
 4.3181039015740778e-09  4.4318468685958254e-09  4.5485859340329180e-09  4.6684000180010740e-09 
 4.7913701194489355e-09  4.9175793709166164e-09  5.0471130947366573e-09  5.1800588607153825e-09 
 5.3165065453335934e-09  5.4565483925067475e-09  5.6002790759455548e-09  5.7477957631592795e-09 
 5.8991981811449199e-09  6.0545886838066870e-09  6.2140723211515064e-09  6.3777569103070248e-09 
 6.5457531084104890e-09  6.7181744874174335e-09  6.8951376108810621e-09  7.0767621127539857e-09 
 7.2631707782656972e-09  7.4544896269305116e-09  7.6508479977419323e-09  7.8523786366112138e-09 
 8.0592177861091191e-09  8.2715052775716039e-09  8.4893846256316166e-09  8.7130031252410203e-09 
 8.9425119512481892e-09  9.1780662605985245e-09  9.4198252972271929e-09  9.6679524997146929e-09 
 9.9226156117782930e-09  1.0183986795673964e-08  1.0452242748585366e-08  1.0727564822078726e-08 
 1.1010139144704373e-08  1.1300156747827455e-08  1.1597813694773622e-08  1.1903311213376158e-08 
 1.2216855832014857e-08  1.2538659519238171e-08  1.2868939827063229e-08  1.3207920038050547e-08 
 1.3555829316252901e-08  1.3912902862140356e-08  1.4279382071606256e-08  1.4655514699161455e-08 
 1.5041555025427718e-08  1.5437764029042616e-08  1.5844409563092886e-08  1.6261766536195329e-08 
 1.6690117098347454e-08  1.7129750831673820e-08  1.7580964946196761e-08  1.8044064480764099e-08 
 1.8519362509269512e-08  1.9007180352305061e-08  1.9507847794388740e-08  2.0021703306914676e-08 
 2.0549094276975318e-08  2.1090377242211841e-08  2.1645918131850519e-08  2.2216092514088404e-08 
 2.2801285849995543e-08  2.3401893754105190e-08  2.4018322261868792e-08  2.4650988104155472e-08 
 2.5300318988982928e-08  2.5966753890669104e-08  2.6650743346600729e-08  2.7352749761819242e-08 
 2.8073247721629867e-08  2.8812724312445460e-08  2.9571679451081833e-08  3.0350626222727305e-08 
 3.1150091227814795e-08  3.1970614938031270e-08  3.2812752061704978e-08  3.3677071918817776e-08 
 3.4564158825895705e-08  3.5474612491038314e-08  3.6409048419354088e-08  3.7368098329075264e-08 
 3.8352410578634130e-08  3.9362650604989472e-08  4.0399501373498908e-08  4.1463663839642368e-08 
 4.2555857422907568e-08  4.3676820493158904e-08  4.4827310869818353e-08  4.6008106334195557e-08 
 4.7220005155314086e-08  4.8463826629588307e-08  4.9740411634717577e-08  5.1050623198169969e-08 
 5.2395347080642124e-08  5.3775492374888181e-08  5.5191992120323167e-08  5.6645803933816485e-08 
 5.8137910657102166e-08  5.9669321021243205e-08  6.1241070328599432e-08  6.2854221152759913e-08 
 6.4509864056913980e-08  6.6209118331144525e-08  6.7953132749145441e-08  6.9743086344870827e-08 
 7.1580189209644685e-08  7.3465683310267910e-08  7.5400843328676313e-08  7.7386977523718260e-08 
 7.9425428615632747e-08  8.1517574693828304e-08  8.3664830148574629e-08  8.5868646627238127e-08 
 8.8130514015707333e-08  9.0451961445671440e-08  9.2834558328435525e-08  9.5279915415967610e-08 
 9.7789685889897724e-08  1.0036556647920578e-07  1.0300929860735172e-07  1.0572266956962544e-07 
 1.0850751374151246e-07  1.1136571381889147e-07  1.1429920209090419e-07  1.1730996174635592e-07 
 1.2040002821453266e-07  1.2357149054134002e-07  1.2682649280169462e-07  1.3016723554912374e-07 
 1.3359597730355360e-07  1.3711503607829130e-07  1.4072679094723474e-07  1.4443368365336820e-07 
 1.4823822025963501e-07  1.5214297284329803e-07  1.5615058123494144e-07  1.6026375480328234e-07 
 1.6448527428700443e-07  1.6881799367485121e-07  1.7326484213524876e-07  1.7782882599676714e-07 
 1.8251303078075179e-07  1.8732062328751432e-07  1.9225485373747391e-07  1.9731905796871719e-07 
 2.0251665969244842e-07  2.0785117280786417e-07  2.1332620377801364e-07  2.1894545406825461e-07 
 2.2471272264895218e-07  2.3063190856411424e-07  2.3670701356770326e-07  2.4294214482940198e-07 
 2.4934151771167007e-07  2.5590945861996725e-07  2.6265040792806857e-07  2.6956892298045636e-07 
 2.7666968117381646e-07  2.8395748311972232e-07  2.9143725589064934e-07  2.9911405635151638e-07 
 3.0699307457900441e-07  3.1507963737096734e-07  3.2337921184831459e-07  3.3189740915179135e-07 
 3.4063998823617081e-07  3.4961285976441591e-07  3.5882209010445048e-07  3.6827390543123922e-07 
 3.7797469593696463e-07  3.8793102015213061e-07  3.9814960938053671e-07  4.0863737225110904e-07 
 4.1940139938967762e-07  4.3044896821385873e-07  4.4178754785428840e-07  4.5342480420553286e-07 
 4.6536860511010429e-07  4.7762702567908090e-07  4.9020835375294294e-07  5.0312109550630513e-07 
 5.1637398120036109e-07  5.2997597108691340e-07  5.4393626146800087e-07  5.5826429091521864e-07 
 5.7296974665293895e-07  5.8806257110976456e-07  6.0355296864263955e-07  6.1945141243817426e-07 
 6.3576865159586556e-07  6.5251571839799437e-07  6.6970393577113244e-07  6.8734492494431339e-07 
 7.0545061330904924e-07  7.2403324248651610e-07  7.4310537660737424e-07  7.6267991080983993e-07 
 7.8277007996174284e-07  8.0338946761250691e-07  8.2455201518108824e-07  8.4627203138612603e-07 
 8.6856420192466773e-07  8.9144359940604856e-07  9.1492569354764274e-07  9.3902636163939642e-07 
 9.6376189928424938e-07  9.8914903142169352e-07  1.0152049236419898e-06  1.0419471937986467e-06 
 1.0693939239270932e-06  1.0975636724775940e-06  1.1264754868707034e-06  1.1561489163837786e-06 
 1.1866040253772825e-06  1.2178614068698565e-06  1.2499421964713561e-06  1.2828680866833143e-06 
 1.3166613415765072e-06  1.3513448118556144e-06  1.3869419503211730e-06  1.4234768277393017e-06 
 1.4609741491300073e-06  1.4994592704850713e-06  1.5389582159269231e-06  1.5794976953200796e-06 
 1.6211051223471770e-06  1.6638086330618088e-06  1.7076371049307972e-06  1.7526201763788176e-06 
 1.7987882668486618e-06  1.8461725973907414e-06  1.8948052117958527e-06  1.9447189982855199e-06 
 1.9959477117746809e-06  2.0485259967218574e-06  2.1024894105822984e-06  2.1578744478800565e-06 
 2.2147185649154056e-06  2.2730602051243053e-06  2.3329388251072740e-06  2.3943949213452625e-06 
 2.4574700576207941e-06  2.5222068931629481e-06  2.5886492115354290e-06  2.6568419502872789e-06 
 2.7268312313865060e-06  2.7986643924573012e-06  2.8723900188421352e-06  2.9480579765105476e-06 
 3.0257194458370865e-06  3.1054269562713956e-06  3.1872344219240253e-06  3.2711971780923658e-06 
 3.3573720187514111e-06  3.4458172350351032e-06  3.5365926547343712e-06  3.6297596828389146e-06 
 3.7253813431503078e-06  3.8235223209949126e-06  3.9242490070656892e-06  4.0276295424229058e-06 
 4.1337338646844805e-06  4.2426337554374472e-06  4.3544028889030503e-06  4.4691168818887280e-06 
 4.5868533450610064e-06  4.7076919355746271e-06  4.8317144110936968e-06  4.9590046852419662e-06 
 5.0896488845201276e-06  5.2237354067292542e-06  5.3613549809402487e-06  5.5026007290504781e-06 
 5.6475682289698793e-06  5.7963555794797756e-06  5.9490634668088925e-06  6.1057952329724562e-06 
 6.2666569459210692e-06  6.4317574715477173e-06  6.6012085476024066e-06  6.7751248595651559e-06 
 6.9536241185295907e-06  7.1368271411507855e-06  7.3248579317123157e-06  7.5178437663692081e-06 
 7.7159152796245963e-06  7.9192065531000412e-06  8.1278552066604223e-06  8.3420024919566032e-06 
 8.5617933884503573e-06  8.7873767019877158e-06  9.0189051659893668e-06  9.2565355453275475e-06 
 9.5004287429619033e-06  9.7507499094076407e-06  1.0007668555112342e-05  1.0271358665818918e-05 
 1.0541998820995257e-05  1.0819772315412346e-05  1.1104867283955684e-05  1.1397476829756687e-05 
 1.1697799155733125e-05  1.2006037699630567e-05  1.2322401272658524e-05  1.2647104201818370e-05 
 1.2980366476022004e-05  1.3322413896104051e-05  1.3673478228831553e-05  1.4033797365019712e-05 
 1.4403615481864177e-05  1.4783183209603618e-05  1.5172757802629700e-05  1.5572603315164590e-05 
 1.5982990781629507e-05  1.6404198401831318e-05  1.6836511731097831e-05  1.7280223875495406e-05 
 1.7735635692267423e-05  1.8203055995634584e-05  1.8682801768103181e-05  1.9175198377431075e-05 
 1.9680579799404849e-05  2.0199288846586715e-05  2.0731677403193836e-05  2.1278106666277091e-05 
 2.1838947393371483e-05  2.2414580156794820e-05  2.3005395604776410e-05  2.3611794729602912e-05 
 2.4234189142973391e-05  2.4873001358761482e-05  2.5528665083387652e-05  2.6201625514010931e-05 
 2.6892339644755310e-05  2.7601276581191627e-05  2.8328917863302772e-05  2.9075757797166474e-05 
 2.9842303795596179e-05  3.0629076727987897e-05  3.1436611279628175e-05  3.2265456320725296e-05 
 3.3116175285433703e-05  3.3989346561149308e-05  3.4885563888362052e-05  3.5805436771358935e-05 
 3.6749590900081676e-05  3.7718668583449333e-05  3.8713329194468031e-05  3.9734249627457129e-05 
 4.0782124767732662e-05  4.1857667974097370e-05  4.2961611574499536e-05  4.4094707375229601e-05 
 4.5257727184038947e-05  4.6451463347573864e-05  4.7676729303530567e-05  4.8934360147948447e-05 
 5.0225213218073820e-05  5.1550168691235425e-05  5.2910130200190073e-05  5.4306025465409923e-05 
 5.5738806944794697e-05  5.7209452501310999e-05  5.8718966089072479e-05  6.0268378458394580e-05 
 6.1858747880369223e-05  6.3491160891525735e-05  6.5166733059160621e-05  6.6886609767935170e-05 
 6.8651967028363382e-05  7.0464012307825327e-05  7.2323985384768172e-05  7.4233159226773360e-05 
 7.6192840893191401e-05  7.8204372463069121e-05  8.0269131989114855e-05  8.2388534478475338e-05 
 8.4564032901116414e-05  8.6797119226633004e-05  8.9089325490334867e-05  9.1442224889483212e-05 
 9.3857432910585492e-05  9.6336608488679874e-05  9.8881455199577919e-05  1.0149372248605827e-04 
 1.0417520691904671e-04  1.0692775349484271e-04  1.0975325696949700e-04  1.1265366323147426e-04 
 1.1563097071377849e-04  1.1868723184675615e-04  1.2182455455283661e-04  1.2504510378450533e-04 
 1.2835110310686012e-04  1.3174483632613846e-04  1.3522864916565449e-04  1.3880495099064151e-04 
 1.4247621658353276e-04  1.4624498797128439e-04  1.5011387630638721e-04  1.5408556380328128e-04 
 1.5816280573194381e-04  1.6234843247048503e-04  1.6664535161865334e-04  1.7105655017421627e-04 
 1.7558509677426644e-04  1.8023414400355285e-04  1.8500693077204560e-04  1.8990678476399404e-04 
 1.9493712496084216e-04  2.0010146424044256e-04  2.0540341205510312e-04  2.1084667719109657e-04 
 2.1643507061236037e-04  2.2217250839121918e-04  2.2806301472906863e-04  2.3411072507006515e-04 
 2.4031988931099815e-04  2.4669487511062323e-04  2.5324017130187677e-04  2.5996039141052053e-04 
 2.6686027728389740e-04  2.7394470283362927e-04  2.8121867789624306e-04  2.8868735221584908e-04 
 2.9635601955318904e-04  3.0423012192550930e-04  3.1231525398192140e-04  3.2061716751908409e-04 
 3.2914177614223720e-04  3.3789516007682620e-04  3.4688357113616091e-04  3.5611343785079026e-04 
 3.6559137076548701e-04  3.7532416790999050e-04  3.8531882044991699e-04  3.9558251852449305e-04 
 4.0612265727806311e-04  4.1694684309260594e-04  4.2806290002880192e-04  4.3947887648349525e-04 
 4.5120305207176379e-04  4.6324394474211284e-04  4.7561031813371144e-04  4.8831118918494100e-04 
 5.0135583600295804e-04  5.1475380600435382e-04  5.2851492433746508e-04  5.4264930259732239e-04 
 5.5716734784471810e-04  5.7207977194138340e-04  5.8739760121375914e-04  6.0313218645844844e-04 
 6.1929521330295403e-04  6.3589871293598095e-04  6.5295507322214350e-04  6.7047705021665023e-04 
 6.8847778009618942e-04  7.0697079152297977e-04  7.2597001845975027e-04  7.4548981345416091e-04 
 7.6554496141204888e-04  7.8615069387978924e-04  8.0732270385693093e-04  8.2907716116128929e-04 
 8.5143072836967276e-04  8.7440057735848654e-04  8.9800440646959278e-04  9.2226045832796526e-04 
 9.4718753833894064e-04  9.7280503389409183e-04  9.9913293431622293e-04  1.0261918515752958e-03 
 1.0540030418086566e-03  1.0825884276804980e-03  1.1119706216171218e-03  1.1421729499562913e-03 
 1.1732194780508451e-03  1.2051350363685052e-03  1.2379452476320146e-03  1.2716765550456481e-03 
 1.3063562516564698e-03  1.3420125109009891e-03  1.3786744183902806e-03  1.4163720049892245e-03 
 1.4551362812481757e-03  1.4949992732482095e-03  1.5359940599240409e-03  1.5781548119318117e-03 
 1.6215168321322224e-03  1.6661165977629245e-03  1.7119918043776363e-03  1.7591814116333100e-03 
 1.8077256910105667e-03  1.8576662755568636e-03  1.9090462117462206e-03  1.9619100135538962e-03 
 2.0163037188493231e-03  2.0722749482156569e-03  2.1298729663096166e-03  2.1891487458809856e-03 
 2.2501550345769487e-03  2.3129464246627058e-03  2.3775794257963369e-03  2.4441125410026238e-03 
 2.5126063459979179e-03  2.5831235720254774e-03  2.6557291923688759e-03  2.7304905127192203e-03 
 2.8074772655808681e-03  2.8867617089094067e-03  2.9684187291854789e-03  3.0525259491380684e-03 
 3.1391638403417835e-03  3.2284158409236386e-03  3.3203684786269113e-03  3.4151114994919111e-03 
 3.5127380024266072e-03  3.6133445799537782e-03  3.7170314654357615e-03  3.8239026870929989e-03 
 3.9340662291485100e-03  4.0476342004472443e-03  4.1647230109166326e-03  4.2854535562533132e-03 
 4.4099514112404441e-03  4.5383470321201796e-03  4.6707759684675955e-03  4.8073790850347246e-03 
 4.9483027940570370e-03  5.0936992985396263e-03  5.2437268470663639e-03  5.3985500007030030e-03 
 5.5583399125937200e-03  5.7232746208809235e-03  5.8935393556106309e-03  6.0693268603178932e-03 
 6.2508377290232432e-03  6.4382807594069811e-03  6.6318733229676699e-03  6.8318417530112089e-03 
 7.0384217513602149e-03  7.2518588147179918e-03  7.4724086816685860e-03  7.7003378013441289e-03 
 7.9359238248422372e-03  8.1794561205315412e-03  8.4312363144398751e-03  8.6915788569805180e-03 
 8.9608116173346929e-03  9.2392765068750136e-03  9.5273301330838934e-03  9.8253444854940804e-03 
 1.0133707655255630e-02  1.0452824590012686e-02  1.0783117885859282e-02  1.1125028618230854e-02 
 1.1479017213681365e-02  1.1845564364593034e-02  1.2225171988967871e-02  1.2618364237557009e-02 
 1.3025688550696080e-02  1.3447716767332224e-02  1.3885046288851679e-02  1.4338301300445579e-02 
 1.4808134052887023e-02  1.5295226207733600e-02  1.5800290249118106e-02  1.6324070965444856e-02 
 1.6867347004471508e-02  1.7430932505425403e-02  1.8015678811982992e-02  1.8622476270122926e-02 
 1.9252256115061216e-02  1.9905992451676777e-02  2.0584704333049091e-02  2.1289457941949422e-02 
 2.2021368880358827e-02  2.2781604572325576e-02  2.3571386785726747e-02  2.4391994278758603e-02 
 2.5244765577253869e-02  2.6131101889206528e-02  2.7052470163179326e-02  2.8010406297576104e-02 
 2.9006518508078016e-02  3.0042490860874210e-02  3.1120086979658203e-02  3.2241153934716382e-02 
 3.3407626322803405e-02  3.4621530546874481e-02  3.5884989305140391e-02  3.7200226299312245e-02 
 3.8569571172318691e-02  3.9995464686205823e-02  4.1480464151369016e-02  4.3027249118712994e-02 
 4.4638627346797466e-02  4.6317541056492044e-02  4.8067073486140900e-02  4.9890455760719959e-02 
 5.1791074088957938e-02  5.3772477302883204e-02  5.5838384754752890e-02  5.7992694586812027e-02 
 6.0239492389820001e-02  6.2583060266762816e-02  6.5027886318646838e-02  6.7578674569721053e-02 
 7.0240355349920916e-02  7.3018096152743461e-02  7.5917312987149307e-02  7.8943682242441915e-02 
 8.2103153085386099e-02  8.5401960409087471e-02  8.8846638353358626e-02  9.2444034416432508e-02 
 9.6201324177940223e-02  1.0012602665303644e-01  1.0422602029742219e-01  1.0850955968275976e-01 
 1.1298529286159560e-01  1.1766227944037161e-01  1.2255000937841584e-01  1.2765842252991144e-01 
 1.3299792894478005e-01  1.3857942994306821e-01  1.4441433997589664e-01  1.5051460928416383e-01 
 1.5689274736406467e-01  1.6356184724599998e-01  1.7053561059060501e-01  1.7782837360239795e-01 
 1.8545513375786343e-01  1.9343157734066377e-01  2.0177410777201790e-01  2.1049987471911785e-01 
 2.1962680395868223e-01  2.2917362796635388e-01  2.3915991719561966e-01  2.4960611200213545e-01 
 2.6053355516087001e-01  2.7196452491413808e-01  2.8392226847850299e-01  2.9643103592744402e-01 
 3.0951611435480558e-01  3.2320386221110914e-01  3.3752174369090021e-01  3.5249836303439519e-01 
 3.6816349859062486e-01  3.8454813647219888e-01  4.0168450361351415e-01  4.1960610002483234e-01 
 4.3834773001400273e-01  4.5794553212580419e-01  4.7843700752577401e-01  4.9986104653108671e-01 
 5.2225795296541189e-01  5.4566946598778254e-01  5.7013877901726406e-01  5.9571055534559214e-01 
 6.2243093999906096e-01  6.5034756737838650e-01  6.7950956417155206e-01  7.0996754699910380e-01 
 7.4177361421436450e-01  7.7498133124230673e-01  8.0964570880021591e-01  8.4582317330078449e-01 
 8.8357152869369715e-01  9.2294990895487539e-01  9.6401872038335179e-01  1.0068395728138877e+00 
 1.0514751987988662e+00  1.0979893597556059e+00  1.1464467380147965e+00  1.1969128136424423e+00 
 1.2494537248413511e+00  1.3041361106693303e+00  1.3610269347400772e+00  1.4201932884997874e+00 
 1.4817021725992212e+00  1.5456202548081424e+00  1.6120136028488032e+00  1.6809473904597678e+00 
 1.7524855749438026e+00  1.8266905444075405e+00  1.9036227328706237e+00  1.9833402014133945e+00 
 2.0658981835514099e+00  2.1513485930790512e+00  2.2397394927218812e+00  2.3311145220870593e+00 
 2.4255122836128851e+00  2.5229656855032720e+00  2.6235012410009477e+00  2.7271383238154714e+00 
 2.8338883800890735e+00  2.9437540979629020e+00  3.0567285366069661e+00  3.1727942175015791e+00 
 3.2919221818079332e+00  3.4140710188355756e+00  3.5391858718950391e+00  3.6671974291971225e+00 
 3.7980209089014965e+00  3.9315550488922439e+00  4.0676811133238990e+00  4.2062619293864856e+00 
 4.3471409690217300e+00  4.4901414914174849e+00  4.6350657629417844e+00  4.7816943716784976e+00 
 4.9297856538230720e+00  5.0790752488280724e+00  5.2292757993083487e+00  5.3800768102992089e+00 
 5.5311446805170048e+00  5.6821229158403801e+00  5.8326325324023864e+00  5.9822726535926947e+00 
 6.1306213021032043e+00  6.2772363851427748e+00  6.4216568683731508e+00  6.5634041322814163e+00 
 6.7019835039120856e+00  6.8368859574242746e+00  6.9675899790472631e+00  7.0935635958190169e+00 
 7.2142665730028748e+00  7.3291527921004604e+00  7.4376728295013592e+00  7.5392767643659031e+00 
 7.6334172523926860e+00  7.7195529084855430e+00  7.7971520446052711e+00  7.8656968077349818e+00 
 7.9246877553700381e+00  7.9736488908965963e+00  8.0121331576578303e+00  8.0397283580559744e+00 
 8.0560634232012696e+00  8.0608149109909615e+00  8.0537135589423556e+00  8.0345506667974753e+00 
 8.0031840382835995e+00  7.9595431778257915e+00  7.9036334232830470e+00  7.8355387064556794e+00 
 7.7554226745200712e+00  7.6635279807725381e+00  7.5601736618935247e+00  7.4457506569547744e+00 
 7.3207156813574796e+00  7.1855838326693480e+00  7.0409204563939918e+00  6.8873329164210508e+00 
 6.7254629745786758e+00  6.5559804653877283e+00  6.3795788399591178e+00  6.1969729399322082e+00 
 6.0088990537427680e+00  5.8161169239048984e+00  5.6194129526786494e+00  5.4196034476692603e+00 
 5.2175364238032174e+00  5.0140903036076168e+00  4.8101678974242912e+00  4.6066843434245666e+00 
 4.4045482558544098e+00  4.2046361380987234e+00  4.0077610881100174e+00  3.8146378401601093e+00 
 3.6258471057790245e+00  3.4418028514640597e+00  3.2627264547692780e+00  3.0886914292232839e+00 
 2.9198586772619985e+00  2.7564140880528090e+00  2.5985143368980284e+00  2.4462832982377924e+00 
 2.2998132942048630e+00  2.1591664657853684e+00  2.0243762522630004e+00  1.8954489647538861e+00 
 1.7723654397676505e+00  1.6550827588363939e+00  1.5435360203258652e+00  1.4376401495818294e+00 
 1.3372917335823824e+00  1.2423708662878998e+00  1.1527429909393359e+00  1.0682607256933159e+00 
 9.8876565924127102e-01  9.1409010347845765e-01  8.4405879089720537e-01  7.7849050519479102e-01 
 7.1719963461313085e-01  6.5999763875209139e-01  6.0669442099395188e-01  5.5709960020458094e-01 
 5.1102367698952966e-01  4.6827909142907520e-01  4.2868117084303869e-01  3.9204896769509906e-01 
 3.5820598919466451e-01  3.2698082145756463e-01  2.9820765221997392e-01  2.7172669704753816e-01 
 2.4738453473769978e-01  2.2503435817992520e-01  2.0453614732521358e-01  1.8575677113760428e-01 
 1.6857002547487154e-01  1.5285661379392271e-01  1.3850407742008286e-01  1.2540668187959531e-01 
 1.1346526549106471e-01  1.0258705606202470e-01  9.2685461156734511e-02  8.3679837003544366e-02 
 7.5495240705047081e-02  6.8062170009725836e-02  6.1316294505840849e-02  5.5198181711050405e-02 
 4.9653021157596636e-02  4.4630349214593232e-02  4.0083777047168562e-02  3.5970723787581961e-02 
 3.2252156686355872e-02  2.8892339722226230e-02  2.5858591878562272e-02  2.3121056041101467e-02 
 2.0652479237662863e-02  1.8428004725217856e-02  1.6424976233558611e-02  1.4622754497984235e-02 
 1.3002546055996239e-02  1.1547244144884106e-02  1.0241281418051560e-02  9.0704940975621529e-03 
 8.0219970980548519e-03  7.0840695920924264e-03  6.2460504381757183e-03  5.4982428589400436e-03 
 4.8318277371663760e-03  4.2387848898004276e-03  3.7118216837127302e-03  3.2443083699450056e-03 
 2.8302195341560776e-03  2.4640810884116265e-03  2.1409222619157417e-03  1.8562320843979556e-03 
 1.6059198943879295e-03  1.3862794443908883e-03  1.1939562150116603e-03  1.0259175894943592e-03 
 8.7942557822168134e-04  7.5201181886694443e-04  6.4145461166452379e-04  5.4575778033957194e-04 
 4.6313117741355399e-04  3.9197267778090760e-04  3.3085152662917853e-04  2.7849292702285104e-04 
 2.3376376892585312e-04  1.9565941528469906e-04  1.6329147225494550e-04  1.3587647997328936e-04 
 1.1272546771431926e-04  9.3234323085855089e-05  7.6874929366182817e-05  6.3187028414894600e-05 
 5.1770769024160820e-05  4.2279902326140699e-05  3.4415587118718871e-05  2.7920768875136306e-05 
 2.2575096897746415e-05  1.8190344672037514e-05  1.4606299060963709e-05  1.1687084616737701e-05 
 9.3178900233925465e-06  7.4020645473928065e-06  5.8585533795918893e-06  4.6196419020674411e-06 
 3.6289802003839402e-06  2.8398605508981314e-06  2.2137221239186390e-06  1.7188587336366936e-06 
 1.3293071098813037e-06  1.0238948397502860e-06  7.8542880468800687e-07  6.0000659797038421e-07 
 4.5643502848785942e-07  3.4574138159727825e-07  2.6076460202706183e-07  1.9581497579856429e-07 
 1.4639220929686948e-07  1.0895302825120904e-07  8.0720544338854802e-08  5.9528661596331753e-08 
 4.3695720000111490e-08  3.1922402329062416e-08  2.3209666948522609e-08  1.6793118692825452e-08 
 1.2090798534144556e-08  8.6618666434242100e-09  6.1740794429820277e-09  4.3783260282374125e-09 
 3.0887994828275842e-09  2.1676404601958641e-09  1.5131099396721535e-09  1.0505308526168377e-09 
 7.2538941971880648e-10  4.9811116611920367e-10  3.4012782114347649e-10  2.3093332074651859e-10 
 1.5589311291462689e-10  1.0462369034768148e-10  6.9801117254777173e-11  4.6290296759325713e-11 
 3.0512541228085871e-11  1.9989076858516970e-11  1.3013607534632665e-11  8.4189413207988357e-12 
 5.4117260376188084e-12  3.4561765811674622e-12  2.1928080548716571e-12  1.3820131341464263e-12 
 8.6515189555246410e-13  5.3790114298296155e-13  3.3212626407924524e-13  2.0363613440029880e-13 
 1.2397023193434303e-13  7.4929046974857202e-14  4.4958513106269580e-14  2.6776929813825732e-14 
 1.5829032196736553e-14  9.2864509243269627e-15  5.4063420782542514e-15  3.1229971217463359e-15 
 1.7898199516492009e-15  1.0175871567772616e-15  5.7386882075843672e-16  3.2098595135397912e-16 
 1.7805118118878332e-16  9.7935829648636441e-17  5.3410689157980810e-17  2.8877259971623497e-17 
 1.5476615398846980e-17  8.2212710565640662e-18  4.3280858255039724e-18  2.2578685014991756e-18 
 1.1670835983519653e-18  5.9767710413528320e-19  3.0322614845036919e-19  1.5240674051152868e-19 
 7.5899780441162702e-20  3.7468137457348770e-20  1.8353577585264200e-20  8.9419623861635323e-21 
 0.0000000000000000e+00  0.0000000000000000e+00  0.0000000000000000e+00  0.0000000000000000e+00 
 0.0000000000000000e+00  0.0000000000000000e+00  0.0000000000000000e+00  0.0000000000000000e+00 
 0.0000000000000000e+00  0.0000000000000000e+00  0.0000000000000000e+00  0.0000000000000000e+00 
 0.0000000000000000e+00  0.0000000000000000e+00  0.0000000000000000e+00  0.0000000000000000e+00 
 0.0000000000000000e+00  0.0000000000000000e+00  0.0000000000000000e+00  0.0000000000000000e+00 
 0.0000000000000000e+00  0.0000000000000000e+00  0.0000000000000000e+00  0.0000000000000000e+00 
 0.0000000000000000e+00  0.0000000000000000e+00  0.0000000000000000e+00  0.0000000000000000e+00 
 0.0000000000000000e+00  0.0000000000000000e+00  0.0000000000000000e+00  0.0000000000000000e+00 
 0.0000000000000000e+00  0.0000000000000000e+00  0.0000000000000000e+00  0.0000000000000000e+00 
 0.0000000000000000e+00  0.0000000000000000e+00  0.0000000000000000e+00  0.0000000000000000e+00 
 0.0000000000000000e+00  0.0000000000000000e+00  0.0000000000000000e+00  0.0000000000000000e+00 
 0.0000000000000000e+00  0.0000000000000000e+00  0.0000000000000000e+00  0.0000000000000000e+00 
 0.0000000000000000e+00  0.0000000000000000e+00  0.0000000000000000e+00  0.0000000000000000e+00 
 0.0000000000000000e+00  0.0000000000000000e+00  0.0000000000000000e+00  0.0000000000000000e+00 
 0.0000000000000000e+00  0.0000000000000000e+00  0.0000000000000000e+00  0.0000000000000000e+00 
 0.0000000000000000e+00  0.0000000000000000e+00  0.0000000000000000e+00  0.0000000000000000e+00 
 0.0000000000000000e+00  0.0000000000000000e+00  0.0000000000000000e+00  0.0000000000000000e+00 
 0.0000000000000000e+00  0.0000000000000000e+00  0.0000000000000000e+00  0.0000000000000000e+00 
 0.0000000000000000e+00  0.0000000000000000e+00  0.0000000000000000e+00  0.0000000000000000e+00 
 0.0000000000000000e+00  0.0000000000000000e+00  0.0000000000000000e+00  0.0000000000000000e+00 
 0.0000000000000000e+00  0.0000000000000000e+00  0.0000000000000000e+00  0.0000000000000000e+00 
 0.0000000000000000e+00  0.0000000000000000e+00  0.0000000000000000e+00  0.0000000000000000e+00 
 0.0000000000000000e+00  0.0000000000000000e+00  0.0000000000000000e+00  0.0000000000000000e+00 
 0.0000000000000000e+00  0.0000000000000000e+00  0.0000000000000000e+00  0.0000000000000000e+00 
 0.0000000000000000e+00  0.0000000000000000e+00  0.0000000000000000e+00  0.0000000000000000e+00 
 0.0000000000000000e+00  0.0000000000000000e+00  0.0000000000000000e+00  0.0000000000000000e+00 
 0.0000000000000000e+00  0.0000000000000000e+00  0.0000000000000000e+00  0.0000000000000000e+00 
 0.0000000000000000e+00  0.0000000000000000e+00  0.0000000000000000e+00  0.0000000000000000e+00 
 0.0000000000000000e+00  0.0000000000000000e+00  0.0000000000000000e+00  0.0000000000000000e+00 
 0.0000000000000000e+00  0.0000000000000000e+00  0.0000000000000000e+00  0.0000000000000000e+00 
 0.0000000000000000e+00  0.0000000000000000e+00  0.0000000000000000e+00  0.0000000000000000e+00 
 0.0000000000000000e+00  0.0000000000000000e+00  0.0000000000000000e+00  0.0000000000000000e+00 
 0.0000000000000000e+00  0.0000000000000000e+00  0.0000000000000000e+00  0.0000000000000000e+00 
 0.0000000000000000e+00  0.0000000000000000e+00  0.0000000000000000e+00  0.0000000000000000e+00 
 0.0000000000000000e+00  0.0000000000000000e+00 
</PP_RHOATOM>
