
     Program PWSCF v.7.3.1 starts on  4Nov2025 at 14:41:42 

     This program is part of the open-source Quantum ESPRESSO suite
     for quantum simulation of materials; please cite
         "P. Giannozzi et al., J. Phys.:Condens. Matter 21 395502 (2009);
         "P. Giannozzi et al., J. Phys.:Condens. Matter 29 465901 (2017);
         "P. Giannozzi et al., J. Chem. Phys. 152 154105 (2020);
          URL http://www.quantum-espresso.org", 
     in publications or presentations arising from this work. More details at
     http://www.quantum-espresso.org/quote

     Parallel version (MPI & OpenMP), running on     192 processor cores
     Number of MPI processes:               192
     Threads/MPI process:                     1

     MPI processes distributed on     1 nodes
     362737 MiB available memory on the printing compute node when the environment starts
 
     Reading input from /p/work/yuboqi/pbesol/00_00/bto.in
Warning: card &CELL ignored
Warning: card   CELL_DYNAMICS     = 'BFGS' ignored
Warning: card   PRESS_CONV_THR    = 0.5D0 ignored
Warning: card / ignored

     Current dimensions of program PWSCF are:
     Max number of different atomic species (ntypx) = 10
     Max number of k-points (npk) =  40000
     Max angular momentum in pseudopotentials (lmaxx) =  4
     Presently stress not available with electric field and gates

scan_end: No INFO end statement, corrupted file?
scan_end: No INFO end statement, corrupted file?

     IMPORTANT: XC functional enforced from input :
     Exchange-correlation= PBESOL
                           (   1   4  10   8   0   0   0)
     Any further DFT definition will be discarded
     Please, verify this is what you really want

     Message from routine setup:
     no reason to have ecutrho>4*ecutwfc
 
     R & G space division:  proc/nbgrp/npool/nimage =     192
     Subspace diagonalization in iterative solution of the eigenvalue problem:
     one sub-group per band group will be used
     scalapack distributed-memory algorithm (size of sub-group:  3*  3 procs)

 
     Parallelization info
     --------------------
     sticks:   dense  smooth     PW     G-vecs:    dense   smooth      PW
     Min          14       7      2                 5298     1873     268
     Max          15       8      3                 5407     1934     303
     Sum        2851    1431    409              1030375   364121   55177
 
     Using Slab Decomposition
 

     Title: 
     hfo2                                                                       


     bravais-lattice index     =            0
     lattice parameter (alat)  =       9.6571  a.u.
     unit-cell volume          =    7625.2076 (a.u.)^3
     number of atoms/cell      =           56
     number of atomic types    =            2
     number of electrons       =       456.00
     number of Kohn-Sham states=          274
     kinetic-energy cutoff     =      50.0000  Ry
     charge density cutoff     =     400.0000  Ry
     scf convergence threshold =      1.0E-08
     mixing beta               =       0.3000
     number of iterations used =            8  local-TF  mixing
     energy convergence thresh.=      1.0E-06
     force convergence thresh. =      1.0E-05
     Exchange-correlation= PBESOL
                           (   1   4  10   8   0   0   0)
     nstep                     =          300


     celldm(1)=   9.657120  celldm(2)=   0.000000  celldm(3)=   0.000000
     celldm(4)=   0.000000  celldm(5)=   0.000000  celldm(6)=   0.000000

     crystal axes: (cart. coord. in units of alat)
               a(1) = (   1.000000   0.000000   0.000000 )  
               a(2) = (   0.000000   0.961491   0.000000 )  
               a(3) = (   0.000000   0.000000   8.805698 )  

     reciprocal axes: (cart. coord. in units 2 pi/alat)
               b(1) = (  1.000000  0.000000  0.000000 )  
               b(2) = (  0.000000  1.040052  0.000000 )  
               b(3) = (  0.000000  0.000000  0.113563 )  


     PseudoPot. # 1 for Hf read from file:
     ./hf.upf
     MD5 check sum: 6e148b7243e2ebe265e1add78b9e9d1f
     Pseudo is Norm-conserving, Zval = 12.0
     Generated by new atomic code, or converted to UPF format
     Using radial grid of 1186 points,  3 beta functions with: 
                l(1) =   0
                l(2) =   1
                l(3) =   2

     PseudoPot. # 2 for O  read from file:
     ./o.upf
     MD5 check sum: 6afdad5913fe366ac5de9e6b2d735f4a
     Pseudo is Norm-conserving, Zval =  6.0
     Generated by new atomic code, or converted to UPF format
     Using radial grid of 1130 points,  1 beta functions with: 
                l(1) =   1

     atomic species   valence    mass     pseudopotential
     Hf               12.00   178.49000     Hf( 1.00)
     O                 6.00    15.99940     O ( 1.00)

     No symmetry found


                                    s                        frac. trans.

      isym =  1     identity                                     

 cryst.   s( 1) = (     1          0          0      )
                  (     0          1          0      )
                  (     0          0          1      )

 cart.    s( 1) = (  1.0000000  0.0000000  0.0000000 )
                  (  0.0000000  1.0000000  0.0000000 )
                  (  0.0000000  0.0000000  1.0000000 )


   Cartesian axes

     site n.     atom                  positions (alat units)
         1        Hf     tau(   1) = (   0.7842235   0.7399451   1.2040302  )
         2        Hf     tau(   2) = (   0.7842235   0.7399451   2.1672450  )
         3        Hf     tau(   3) = (   0.7842235   0.7399451   3.1304597  )
         4        Hf     tau(   4) = (   0.7842235   0.7399451   4.0936744  )
         5        Hf     tau(   5) = (   0.7842235   0.7399451   5.0568890  )
         6        Hf     tau(   6) = (   0.2841847   0.2215480   1.2040279  )
         7        Hf     tau(   7) = (   0.2841847   0.2215480   2.1672426  )
         8        Hf     tau(   8) = (   0.2841847   0.2215480   3.1304574  )
         9        Hf     tau(   9) = (   0.2841847   0.2215480   4.0936721  )
        10        Hf     tau(  10) = (   0.2841847   0.2215480   5.0568868  )
        11        Hf     tau(  11) = (   0.7158050   0.2215535   1.6856126  )
        12        Hf     tau(  12) = (   0.7158050   0.2215535   2.6488274  )
        13        Hf     tau(  13) = (   0.7158050   0.2215535   3.6120421  )
        14        Hf     tau(  14) = (   0.7158050   0.2215535   4.5752569  )
        15        Hf     tau(  15) = (   0.7158050   0.2215535   5.5384716  )
        16        Hf     tau(  16) = (   0.2157889   0.7399347   1.6856271  )
        17        Hf     tau(  17) = (   0.2157889   0.7399347   2.6488417  )
        18        Hf     tau(  18) = (   0.2157889   0.7399347   3.6120564  )
        19        Hf     tau(  19) = (   0.2157889   0.7399347   4.5752712  )
        20        Hf     tau(  20) = (   0.2157889   0.7399347   5.5384859  )
        21        O      tau(  21) = (   0.6204684   0.4082464   1.3320954  )
        22        O      tau(  22) = (   0.6204684   0.4082464   2.2953099  )
        23        O      tau(  23) = (   0.6204684   0.4082464   3.2585247  )
        24        O      tau(  24) = (   0.6204684   0.4082464   4.2217394  )
        25        O      tau(  25) = (   0.6204684   0.4082464   5.1849542  )
        26        O      tau(  26) = (   0.1203901   0.5531334   1.3322803  )
        27        O      tau(  27) = (   0.1203901   0.5531334   2.2954951  )
        28        O      tau(  28) = (   0.1203901   0.5531334   3.2587098  )
        29        O      tau(  29) = (   0.1203901   0.5531334   4.2219245  )
        30        O      tau(  30) = (   0.1203901   0.5531334   5.1851393  )
        31        O      tau(  31) = (   0.9887994   0.0405952   1.4441234  )
        32        O      tau(  32) = (   0.9887994   0.0405952   2.4073382  )
        33        O      tau(  33) = (   0.9887994   0.0405952   3.3705529  )
        34        O      tau(  34) = (   0.9887994   0.0405952   4.3337675  )
        35        O      tau(  35) = (   0.9887994   0.0405952   5.2969822  )
        36        O      tau(  36) = (   0.3796168   0.4083067   1.8139144  )
        37        O      tau(  37) = (   0.3796168   0.4083067   2.7771289  )
        38        O      tau(  38) = (   0.3796168   0.4083067   3.7403437  )
        39        O      tau(  39) = (   0.3796168   0.4083067   4.7035584  )
        40        O      tau(  40) = (   0.8796408   0.5531426   1.8138361  )
        41        O      tau(  41) = (   0.8796408   0.5531426   2.7770509  )
        42        O      tau(  42) = (   0.8796408   0.5531426   3.7402654  )
        43        O      tau(  43) = (   0.8796408   0.5531426   4.7034802  )
        44        O      tau(  44) = (   0.4887886  -0.0406127   1.4441043  )
        45        O      tau(  45) = (   0.5112017  -0.0407244   1.9257246  )
        46        O      tau(  46) = (   0.4887886  -0.0406127   2.4073190  )
        47        O      tau(  47) = (   0.5112017  -0.0407244   2.8889394  )
        48        O      tau(  48) = (   0.4887886  -0.0406127   3.3705337  )
        49        O      tau(  49) = (   0.5112017  -0.0407244   3.8521541  )
        50        O      tau(  50) = (   0.4887886  -0.0406127   4.3337485  )
        51        O      tau(  51) = (   0.5112017  -0.0407244   4.8153689  )
        52        O      tau(  52) = (   0.4887886  -0.0406127   5.2969630  )
        53        O      tau(  53) = (   1.0111960   0.0406209   1.9257141  )
        54        O      tau(  54) = (   1.0111960   0.0406209   2.8889286  )
        55        O      tau(  55) = (   1.0111960   0.0406209   3.8521434  )
        56        O      tau(  56) = (   1.0111960   0.0406209   4.8153581  )

   Crystallographic axes

     site n.     atom                  positions (cryst. coord.)
         1        Hf     tau(   1) = (  0.7842235  0.7695812  0.1367331  )
         2        Hf     tau(   2) = (  0.7842235  0.7695812  0.2461185  )
         3        Hf     tau(   3) = (  0.7842235  0.7695812  0.3555039  )
         4        Hf     tau(   4) = (  0.7842235  0.7695812  0.4648893  )
         5        Hf     tau(   5) = (  0.7842235  0.7695812  0.5742747  )
         6        Hf     tau(   6) = (  0.2841847  0.2304214  0.1367328  )
         7        Hf     tau(   7) = (  0.2841847  0.2304214  0.2461182  )
         8        Hf     tau(   8) = (  0.2841847  0.2304214  0.3555036  )
         9        Hf     tau(   9) = (  0.2841847  0.2304214  0.4648890  )
        10        Hf     tau(  10) = (  0.2841847  0.2304214  0.5742744  )
        11        Hf     tau(  11) = (  0.7158050  0.2304271  0.1914230  )
        12        Hf     tau(  12) = (  0.7158050  0.2304271  0.3008084  )
        13        Hf     tau(  13) = (  0.7158050  0.2304271  0.4101938  )
        14        Hf     tau(  14) = (  0.7158050  0.2304271  0.5195792  )
        15        Hf     tau(  15) = (  0.7158050  0.2304271  0.6289646  )
        16        Hf     tau(  16) = (  0.2157889  0.7695704  0.1914246  )
        17        Hf     tau(  17) = (  0.2157889  0.7695704  0.3008100  )
        18        Hf     tau(  18) = (  0.2157889  0.7695704  0.4101954  )
        19        Hf     tau(  19) = (  0.2157889  0.7695704  0.5195808  )
        20        Hf     tau(  20) = (  0.2157889  0.7695704  0.6289662  )
        21        O      tau(  21) = (  0.6204684  0.4245974  0.1512765  )
        22        O      tau(  22) = (  0.6204684  0.4245974  0.2606619  )
        23        O      tau(  23) = (  0.6204684  0.4245974  0.3700473  )
        24        O      tau(  24) = (  0.6204684  0.4245974  0.4794327  )
        25        O      tau(  25) = (  0.6204684  0.4245974  0.5888181  )
        26        O      tau(  26) = (  0.1203901  0.5752874  0.1512975  )
        27        O      tau(  27) = (  0.1203901  0.5752874  0.2606829  )
        28        O      tau(  28) = (  0.1203901  0.5752874  0.3700683  )
        29        O      tau(  29) = (  0.1203901  0.5752874  0.4794537  )
        30        O      tau(  30) = (  0.1203901  0.5752874  0.5888391  )
        31        O      tau(  31) = (  0.9887994  0.0422212  0.1639988  )
        32        O      tau(  32) = (  0.9887994  0.0422212  0.2733842  )
        33        O      tau(  33) = (  0.9887994  0.0422212  0.3827696  )
        34        O      tau(  34) = (  0.9887994  0.0422212  0.4921549  )
        35        O      tau(  35) = (  0.9887994  0.0422212  0.6015403  )
        36        O      tau(  36) = (  0.3796168  0.4246601  0.2059933  )
        37        O      tau(  37) = (  0.3796168  0.4246601  0.3153786  )
        38        O      tau(  38) = (  0.3796168  0.4246601  0.4247640  )
        39        O      tau(  39) = (  0.3796168  0.4246601  0.5341494  )
        40        O      tau(  40) = (  0.8796408  0.5752969  0.2059844  )
        41        O      tau(  41) = (  0.8796408  0.5752969  0.3153698  )
        42        O      tau(  42) = (  0.8796408  0.5752969  0.4247552  )
        43        O      tau(  43) = (  0.8796408  0.5752969  0.5341406  )
        44        O      tau(  44) = (  0.4887886 -0.0422393  0.1639966  )
        45        O      tau(  45) = (  0.5112017 -0.0423555  0.2186908  )
        46        O      tau(  46) = (  0.4887886 -0.0422393  0.2733820  )
        47        O      tau(  47) = (  0.5112017 -0.0423555  0.3280762  )
        48        O      tau(  48) = (  0.4887886 -0.0422393  0.3827674  )
        49        O      tau(  49) = (  0.5112017 -0.0423555  0.4374616  )
        50        O      tau(  50) = (  0.4887886 -0.0422393  0.4921528  )
        51        O      tau(  51) = (  0.5112017 -0.0423555  0.5468470  )
        52        O      tau(  52) = (  0.4887886 -0.0422393  0.6015382  )
        53        O      tau(  53) = (  1.0111960  0.0422478  0.2186896  )
        54        O      tau(  54) = (  1.0111960  0.0422478  0.3280749  )
        55        O      tau(  55) = (  1.0111960  0.0422478  0.4374603  )
        56        O      tau(  56) = (  1.0111960  0.0422478  0.5468457  )

     number of k points=    10  Marzari-Vanderbilt smearing, width (Ry)=  0.0100
                       cart. coord. in units 2pi/alat
        k(    1) = (   0.0000000   0.0000000   0.0000000), wk =   0.1250000
        k(    2) = (   0.0000000   0.2600129   0.0000000), wk =   0.2500000
        k(    3) = (   0.0000000  -0.5200259   0.0000000), wk =   0.1250000
        k(    4) = (   0.2500000   0.0000000   0.0000000), wk =   0.2500000
        k(    5) = (   0.2500000   0.2600129   0.0000000), wk =   0.2500000
        k(    6) = (   0.2500000  -0.5200259   0.0000000), wk =   0.2500000
        k(    7) = (   0.2500000  -0.2600129   0.0000000), wk =   0.2500000
        k(    8) = (  -0.5000000   0.0000000   0.0000000), wk =   0.1250000
        k(    9) = (  -0.5000000   0.2600129   0.0000000), wk =   0.2500000
        k(   10) = (  -0.5000000  -0.5200259   0.0000000), wk =   0.1250000

                       cryst. coord.
        k(    1) = (   0.0000000   0.0000000   0.0000000), wk =   0.1250000
        k(    2) = (   0.0000000   0.2500000   0.0000000), wk =   0.2500000
        k(    3) = (   0.0000000  -0.5000000   0.0000000), wk =   0.1250000
        k(    4) = (   0.2500000   0.0000000   0.0000000), wk =   0.2500000
        k(    5) = (   0.2500000   0.2500000   0.0000000), wk =   0.2500000
        k(    6) = (   0.2500000  -0.5000000   0.0000000), wk =   0.2500000
        k(    7) = (   0.2500000  -0.2500000   0.0000000), wk =   0.2500000
        k(    8) = (  -0.5000000   0.0000000   0.0000000), wk =   0.1250000
        k(    9) = (  -0.5000000   0.2500000   0.0000000), wk =   0.2500000
        k(   10) = (  -0.5000000  -0.5000000   0.0000000), wk =   0.1250000

     Dense  grid:  1030375 G-vectors     FFT dimensions: (  64,  60, 576)

     Smooth grid:   364121 G-vectors     FFT dimensions: (  45,  45, 384)

     Dynamical RAM for                 wfc:       0.99 MB

     Dynamical RAM for     wfc (w. buffer):      10.90 MB

     Dynamical RAM for           str. fact:       0.16 MB

     Dynamical RAM for           local pot:       0.00 MB

     Dynamical RAM for          nlocal pot:       1.04 MB

     Dynamical RAM for                qrad:       0.92 MB

     Dynamical RAM for          rho,v,vnew:       0.51 MB

     Dynamical RAM for               rhoin:       0.17 MB

     Dynamical RAM for            rho*nmix:       1.31 MB

     Dynamical RAM for           G-vectors:       0.32 MB

     Dynamical RAM for          h,s,v(r/c):       1.52 MB

     Dynamical RAM for          <psi|beta>:       1.20 MB

     Dynamical RAM for                 psi:       1.98 MB

     Dynamical RAM for                hpsi:       1.98 MB

     Dynamical RAM for      wfcinit/wfcrot:       3.70 MB

     Estimated static dynamical RAM per process >      14.71 MB

     Estimated max dynamical RAM per process >      22.71 MB

     Estimated total dynamical RAM >       4.26 GB

     Atomic positions and unit cell read from directory:
     ./hfo2.save/
     Atomic positions from file used, from input discarded
 

     The initial density is read from file :
     ./hfo2.save/charge-density

 
     Adding external electric field

     Computed dipole along edir(3) : 
        Elec. dipole         -2.8831 Ry au,         -7.3282 Debye
        Ion. dipole          -2.8820 Ry au,         -7.3254 Debye
        Dipole                0.6606 Ry au,          1.6790 Debye
        Dipole field          0.0011 Ry au, 
 
        E field amplitude [Ha a.u.]:  1.0000E-03
        Potential amp.       -0.0143 Ry
        Total length         80.7858 bohr
 
     Cannot read wfcs: file not found
     Starting wfcs are  324 randomized atomic wfcs

     total cpu time spent up to now is        3.3 secs

     Self-consistent Calculation

     iteration #  1     ecut=    50.00 Ry     beta= 0.30
     Davidson diagonalization with overlap

---- Real-time Memory Report at c_bands before calling an iterative solver
            89 MiB given to the printing process from OS
             0 MiB allocation reported by mallinfo(arena+hblkhd)
        355200 MiB available memory on the node where the printing process lives
------------------
     c_bands:  1 eigenvalues not converged
     c_bands:  4 eigenvalues not converged
     c_bands:  2 eigenvalues not converged
     c_bands:  4 eigenvalues not converged
     c_bands:  2 eigenvalues not converged
     c_bands:  1 eigenvalues not converged
     c_bands:  3 eigenvalues not converged
     c_bands:  2 eigenvalues not converged
     c_bands:  2 eigenvalues not converged
     c_bands:  2 eigenvalues not converged
     ethr =  1.00E-05,  avg # of iterations = 20.0

     Threshold (ethr) on eigenvalues was too large:
     Diagonalizing with lowered threshold

     Davidson diagonalization with overlap

---- Real-time Memory Report at c_bands before calling an iterative solver
           170 MiB given to the printing process from OS
             0 MiB allocation reported by mallinfo(arena+hblkhd)
        349672 MiB available memory on the node where the printing process lives
------------------
     ethr =  6.29E-08,  avg # of iterations =  6.0
 
     Adding external electric field

     Computed dipole along edir(3) : 
        Elec. dipole         -2.8831 Ry au,         -7.3282 Debye
        Ion. dipole          -2.8820 Ry au,         -7.3254 Debye
        Dipole                0.6603 Ry au,          1.6783 Debye
        Dipole field          0.0011 Ry au, 
 
        E field amplitude [Ha a.u.]:  1.0000E-03
        Potential amp.       -0.0142 Ry
        Total length         80.7858 bohr
 

     total cpu time spent up to now is       41.5 secs

     total energy              =   -3121.43985559 Ry
     estimated scf accuracy    <       0.00027556 Ry

     iteration #  2     ecut=    50.00 Ry     beta= 0.30
     Davidson diagonalization with overlap

---- Real-time Memory Report at c_bands before calling an iterative solver
           173 MiB given to the printing process from OS
             0 MiB allocation reported by mallinfo(arena+hblkhd)
        349546 MiB available memory on the node where the printing process lives
------------------
     ethr =  6.04E-08,  avg # of iterations =  1.1
 
     Adding external electric field

     Computed dipole along edir(3) : 
        Elec. dipole         -2.8831 Ry au,         -7.3282 Debye
        Ion. dipole          -2.8820 Ry au,         -7.3254 Debye
        Dipole                0.6602 Ry au,          1.6780 Debye
        Dipole field          0.0011 Ry au, 
 
        E field amplitude [Ha a.u.]:  1.0000E-03
        Potential amp.       -0.0142 Ry
        Total length         80.7858 bohr
 

     total cpu time spent up to now is       46.8 secs

     total energy              =   -3121.43985640 Ry
     estimated scf accuracy    <       0.00003705 Ry

     iteration #  3     ecut=    50.00 Ry     beta= 0.30
     Davidson diagonalization with overlap

---- Real-time Memory Report at c_bands before calling an iterative solver
           176 MiB given to the printing process from OS
             0 MiB allocation reported by mallinfo(arena+hblkhd)
        349565 MiB available memory on the node where the printing process lives
------------------
     ethr =  8.13E-09,  avg # of iterations =  2.2
 
     Adding external electric field

     Computed dipole along edir(3) : 
        Elec. dipole         -2.8831 Ry au,         -7.3282 Debye
        Ion. dipole          -2.8820 Ry au,         -7.3254 Debye
        Dipole                0.6597 Ry au,          1.6768 Debye
        Dipole field          0.0011 Ry au, 
 
        E field amplitude [Ha a.u.]:  1.0000E-03
        Potential amp.       -0.0141 Ry
        Total length         80.7858 bohr
 

     total cpu time spent up to now is       52.4 secs

     total energy              =   -3121.43985343 Ry
     estimated scf accuracy    <       0.00002680 Ry

     iteration #  4     ecut=    50.00 Ry     beta= 0.30
     Davidson diagonalization with overlap

---- Real-time Memory Report at c_bands before calling an iterative solver
           180 MiB given to the printing process from OS
             0 MiB allocation reported by mallinfo(arena+hblkhd)
        349650 MiB available memory on the node where the printing process lives
------------------
     ethr =  5.88E-09,  avg # of iterations =  2.3
 
     Adding external electric field

     Computed dipole along edir(3) : 
        Elec. dipole         -2.8831 Ry au,         -7.3282 Debye
        Ion. dipole          -2.8820 Ry au,         -7.3254 Debye
        Dipole                0.6594 Ry au,          1.6761 Debye
        Dipole field          0.0011 Ry au, 
 
        E field amplitude [Ha a.u.]:  1.0000E-03
        Potential amp.       -0.0140 Ry
        Total length         80.7858 bohr
 

     total cpu time spent up to now is       58.0 secs

     total energy              =   -3121.43985439 Ry
     estimated scf accuracy    <       0.00000934 Ry

     iteration #  5     ecut=    50.00 Ry     beta= 0.30
     Davidson diagonalization with overlap

---- Real-time Memory Report at c_bands before calling an iterative solver
           184 MiB given to the printing process from OS
             0 MiB allocation reported by mallinfo(arena+hblkhd)
        349852 MiB available memory on the node where the printing process lives
------------------
     ethr =  2.05E-09,  avg # of iterations =  3.6
 
     Adding external electric field

     Computed dipole along edir(3) : 
        Elec. dipole         -2.8831 Ry au,         -7.3282 Debye
        Ion. dipole          -2.8820 Ry au,         -7.3254 Debye
        Dipole                0.6593 Ry au,          1.6758 Debye
        Dipole field          0.0011 Ry au, 
 
        E field amplitude [Ha a.u.]:  1.0000E-03
        Potential amp.       -0.0140 Ry
        Total length         80.7858 bohr
 

     total cpu time spent up to now is       64.1 secs

     total energy              =   -3121.43985397 Ry
     estimated scf accuracy    <       0.00000568 Ry

     iteration #  6     ecut=    50.00 Ry     beta= 0.30
     Davidson diagonalization with overlap

---- Real-time Memory Report at c_bands before calling an iterative solver
           186 MiB given to the printing process from OS
             0 MiB allocation reported by mallinfo(arena+hblkhd)
        350302 MiB available memory on the node where the printing process lives
------------------
     ethr =  1.25E-09,  avg # of iterations =  2.3
 
     Adding external electric field

     Computed dipole along edir(3) : 
        Elec. dipole         -2.8831 Ry au,         -7.3282 Debye
        Ion. dipole          -2.8820 Ry au,         -7.3254 Debye
        Dipole                0.6598 Ry au,          1.6770 Debye
        Dipole field          0.0011 Ry au, 
 
        E field amplitude [Ha a.u.]:  1.0000E-03
        Potential amp.       -0.0141 Ry
        Total length         80.7858 bohr
 

     total cpu time spent up to now is       69.8 secs

     total energy              =   -3121.43985375 Ry
     estimated scf accuracy    <       0.00000626 Ry

     iteration #  7     ecut=    50.00 Ry     beta= 0.30
     Davidson diagonalization with overlap

---- Real-time Memory Report at c_bands before calling an iterative solver
           188 MiB given to the printing process from OS
             0 MiB allocation reported by mallinfo(arena+hblkhd)
        350303 MiB available memory on the node where the printing process lives
------------------
     ethr =  1.25E-09,  avg # of iterations =  2.0
 
     Adding external electric field

     Computed dipole along edir(3) : 
        Elec. dipole         -2.8831 Ry au,         -7.3282 Debye
        Ion. dipole          -2.8820 Ry au,         -7.3254 Debye
        Dipole                0.6600 Ry au,          1.6776 Debye
        Dipole field          0.0011 Ry au, 
 
        E field amplitude [Ha a.u.]:  1.0000E-03
        Potential amp.       -0.0142 Ry
        Total length         80.7858 bohr
 

     total cpu time spent up to now is       75.5 secs

     total energy              =   -3121.43985390 Ry
     estimated scf accuracy    <       0.00000827 Ry

     iteration #  8     ecut=    50.00 Ry     beta= 0.30
     Davidson diagonalization with overlap

---- Real-time Memory Report at c_bands before calling an iterative solver
           190 MiB given to the printing process from OS
             0 MiB allocation reported by mallinfo(arena+hblkhd)
        350305 MiB available memory on the node where the printing process lives
------------------
     ethr =  1.25E-09,  avg # of iterations =  1.0
 
     Adding external electric field

     Computed dipole along edir(3) : 
        Elec. dipole         -2.8831 Ry au,         -7.3282 Debye
        Ion. dipole          -2.8820 Ry au,         -7.3254 Debye
        Dipole                0.6608 Ry au,          1.6796 Debye
        Dipole field          0.0011 Ry au, 
 
        E field amplitude [Ha a.u.]:  1.0000E-03
        Potential amp.       -0.0144 Ry
        Total length         80.7858 bohr
 

     total cpu time spent up to now is       80.6 secs

     total energy              =   -3121.43985383 Ry
     estimated scf accuracy    <       0.00000834 Ry

     iteration #  9     ecut=    50.00 Ry     beta= 0.30
     Davidson diagonalization with overlap

---- Real-time Memory Report at c_bands before calling an iterative solver
           192 MiB given to the printing process from OS
             0 MiB allocation reported by mallinfo(arena+hblkhd)
        350315 MiB available memory on the node where the printing process lives
------------------
     ethr =  1.25E-09,  avg # of iterations =  1.2
 
     Adding external electric field

     Computed dipole along edir(3) : 
        Elec. dipole         -2.8831 Ry au,         -7.3282 Debye
        Ion. dipole          -2.8820 Ry au,         -7.3254 Debye
        Dipole                0.6607 Ry au,          1.6794 Debye
        Dipole field          0.0011 Ry au, 
 
        E field amplitude [Ha a.u.]:  1.0000E-03
        Potential amp.       -0.0144 Ry
        Total length         80.7858 bohr
 

     total cpu time spent up to now is       85.9 secs

     total energy              =   -3121.43985379 Ry
     estimated scf accuracy    <       0.00000194 Ry

     iteration # 10     ecut=    50.00 Ry     beta= 0.30
     Davidson diagonalization with overlap

---- Real-time Memory Report at c_bands before calling an iterative solver
           193 MiB given to the printing process from OS
             0 MiB allocation reported by mallinfo(arena+hblkhd)
        350319 MiB available memory on the node where the printing process lives
------------------
     ethr =  4.25E-10,  avg # of iterations =  2.0

     negative rho (up, down):  5.207E-05 0.000E+00
 
     Adding external electric field

     Computed dipole along edir(3) : 
        Elec. dipole         -2.8831 Ry au,         -7.3282 Debye
        Ion. dipole          -2.8820 Ry au,         -7.3254 Debye
        Dipole                0.6607 Ry au,          1.6792 Debye
        Dipole field          0.0011 Ry au, 
 
        E field amplitude [Ha a.u.]:  1.0000E-03
        Potential amp.       -0.0143 Ry
        Total length         80.7858 bohr
 

     total cpu time spent up to now is       91.5 secs

     total energy              =   -3121.43985376 Ry
     estimated scf accuracy    <       0.00000134 Ry

     iteration # 11     ecut=    50.00 Ry     beta= 0.30
     Davidson diagonalization with overlap

---- Real-time Memory Report at c_bands before calling an iterative solver
           194 MiB given to the printing process from OS
             0 MiB allocation reported by mallinfo(arena+hblkhd)
        350323 MiB available memory on the node where the printing process lives
------------------
     ethr =  2.94E-10,  avg # of iterations =  2.0

     negative rho (up, down):  4.319E-05 0.000E+00
 
     Adding external electric field

     Computed dipole along edir(3) : 
        Elec. dipole         -2.8831 Ry au,         -7.3282 Debye
        Ion. dipole          -2.8820 Ry au,         -7.3254 Debye
        Dipole                0.6605 Ry au,          1.6789 Debye
        Dipole field          0.0011 Ry au, 
 
        E field amplitude [Ha a.u.]:  1.0000E-03
        Potential amp.       -0.0143 Ry
        Total length         80.7858 bohr
 

     total cpu time spent up to now is       97.3 secs

     total energy              =   -3121.43985381 Ry
     estimated scf accuracy    <       0.00002577 Ry

     iteration # 12     ecut=    50.00 Ry     beta= 0.30
     Davidson diagonalization with overlap

---- Real-time Memory Report at c_bands before calling an iterative solver
           195 MiB given to the printing process from OS
             0 MiB allocation reported by mallinfo(arena+hblkhd)
        350327 MiB available memory on the node where the printing process lives
------------------
     ethr =  2.94E-10,  avg # of iterations =  1.0

     negative rho (up, down):  3.284E-05 0.000E+00
 
     Adding external electric field

     Computed dipole along edir(3) : 
        Elec. dipole         -2.8831 Ry au,         -7.3282 Debye
        Ion. dipole          -2.8820 Ry au,         -7.3254 Debye
        Dipole                0.6603 Ry au,          1.6782 Debye
        Dipole field          0.0011 Ry au, 
 
        E field amplitude [Ha a.u.]:  1.0000E-03
        Potential amp.       -0.0142 Ry
        Total length         80.7858 bohr
 

     total cpu time spent up to now is      102.5 secs

     total energy              =   -3121.43985364 Ry
     estimated scf accuracy    <       0.00001046 Ry

     iteration # 13     ecut=    50.00 Ry     beta= 0.30
     Davidson diagonalization with overlap

---- Real-time Memory Report at c_bands before calling an iterative solver
           196 MiB given to the printing process from OS
             0 MiB allocation reported by mallinfo(arena+hblkhd)
        350330 MiB available memory on the node where the printing process lives
------------------
     ethr =  2.94E-10,  avg # of iterations =  2.0

     negative rho (up, down):  2.952E-05 0.000E+00
 
     Adding external electric field

     Computed dipole along edir(3) : 
        Elec. dipole         -2.8831 Ry au,         -7.3282 Debye
        Ion. dipole          -2.8820 Ry au,         -7.3254 Debye
        Dipole                0.6603 Ry au,          1.6782 Debye
        Dipole field          0.0011 Ry au, 
 
        E field amplitude [Ha a.u.]:  1.0000E-03
        Potential amp.       -0.0142 Ry
        Total length         80.7858 bohr
 

     total cpu time spent up to now is      108.1 secs

     total energy              =   -3121.43985365 Ry
     estimated scf accuracy    <       0.00000165 Ry

     iteration # 14     ecut=    50.00 Ry     beta= 0.30
     Davidson diagonalization with overlap

---- Real-time Memory Report at c_bands before calling an iterative solver
           196 MiB given to the printing process from OS
             0 MiB allocation reported by mallinfo(arena+hblkhd)
        350334 MiB available memory on the node where the printing process lives
------------------
     ethr =  2.94E-10,  avg # of iterations =  1.8

     negative rho (up, down):  3.054E-06 0.000E+00
 
     Adding external electric field

     Computed dipole along edir(3) : 
        Elec. dipole         -2.8831 Ry au,         -7.3282 Debye
        Ion. dipole          -2.8820 Ry au,         -7.3254 Debye
        Dipole                0.6603 Ry au,          1.6783 Debye
        Dipole field          0.0011 Ry au, 
 
        E field amplitude [Ha a.u.]:  1.0000E-03
        Potential amp.       -0.0142 Ry
        Total length         80.7858 bohr
 

     total cpu time spent up to now is      113.6 secs

     total energy              =   -3121.43985355 Ry
     estimated scf accuracy    <       0.00000201 Ry

     iteration # 15     ecut=    50.00 Ry     beta= 0.30
     Davidson diagonalization with overlap

---- Real-time Memory Report at c_bands before calling an iterative solver
           197 MiB given to the printing process from OS
             0 MiB allocation reported by mallinfo(arena+hblkhd)
        350336 MiB available memory on the node where the printing process lives
------------------
     ethr =  2.94E-10,  avg # of iterations =  1.3
 
     Adding external electric field

     Computed dipole along edir(3) : 
        Elec. dipole         -2.8831 Ry au,         -7.3282 Debye
        Ion. dipole          -2.8820 Ry au,         -7.3254 Debye
        Dipole                0.6603 Ry au,          1.6782 Debye
        Dipole field          0.0011 Ry au, 
 
        E field amplitude [Ha a.u.]:  1.0000E-03
        Potential amp.       -0.0142 Ry
        Total length         80.7858 bohr
 

     total cpu time spent up to now is      118.9 secs

     total energy              =   -3121.43985359 Ry
     estimated scf accuracy    <       0.00000007 Ry

     iteration # 16     ecut=    50.00 Ry     beta= 0.30
     Davidson diagonalization with overlap

---- Real-time Memory Report at c_bands before calling an iterative solver
           197 MiB given to the printing process from OS
             0 MiB allocation reported by mallinfo(arena+hblkhd)
        350336 MiB available memory on the node where the printing process lives
------------------
     ethr =  1.45E-11,  avg # of iterations =  2.0
 
     Adding external electric field

     Computed dipole along edir(3) : 
        Elec. dipole         -2.8831 Ry au,         -7.3282 Debye
        Ion. dipole          -2.8820 Ry au,         -7.3254 Debye
        Dipole                0.6603 Ry au,          1.6784 Debye
        Dipole field          0.0011 Ry au, 
 
        E field amplitude [Ha a.u.]:  1.0000E-03
        Potential amp.       -0.0143 Ry
        Total length         80.7858 bohr
 

     total cpu time spent up to now is      124.9 secs

     total energy              =   -3121.43985360 Ry
     estimated scf accuracy    <       0.00000002 Ry

     iteration # 17     ecut=    50.00 Ry     beta= 0.30
     Davidson diagonalization with overlap

---- Real-time Memory Report at c_bands before calling an iterative solver
           197 MiB given to the printing process from OS
             0 MiB allocation reported by mallinfo(arena+hblkhd)
        350335 MiB available memory on the node where the printing process lives
------------------
     ethr =  5.35E-12,  avg # of iterations =  2.0
 
     Adding external electric field

     Computed dipole along edir(3) : 
        Elec. dipole         -2.8831 Ry au,         -7.3282 Debye
        Ion. dipole          -2.8820 Ry au,         -7.3254 Debye
        Dipole                0.6603 Ry au,          1.6784 Debye
        Dipole field          0.0011 Ry au, 
 
        E field amplitude [Ha a.u.]:  1.0000E-03
        Potential amp.       -0.0143 Ry
        Total length         80.7858 bohr
 

     total cpu time spent up to now is      130.7 secs

     total energy              =   -3121.43985360 Ry
     estimated scf accuracy    <       0.00000006 Ry

     iteration # 18     ecut=    50.00 Ry     beta= 0.30
     Davidson diagonalization with overlap

---- Real-time Memory Report at c_bands before calling an iterative solver
           198 MiB given to the printing process from OS
             0 MiB allocation reported by mallinfo(arena+hblkhd)
        350340 MiB available memory on the node where the printing process lives
------------------
     ethr =  5.35E-12,  avg # of iterations =  1.0
 
     Adding external electric field

     Computed dipole along edir(3) : 
        Elec. dipole         -2.8831 Ry au,         -7.3282 Debye
        Ion. dipole          -2.8820 Ry au,         -7.3254 Debye
        Dipole                0.6603 Ry au,          1.6784 Debye
        Dipole field          0.0011 Ry au, 
 
        E field amplitude [Ha a.u.]:  1.0000E-03
        Potential amp.       -0.0143 Ry
        Total length         80.7858 bohr
 

     total cpu time spent up to now is      137.3 secs

     total energy              =   -3121.43985361 Ry
     estimated scf accuracy    <       0.00000002 Ry

     iteration # 19     ecut=    50.00 Ry     beta= 0.30
     Davidson diagonalization with overlap

---- Real-time Memory Report at c_bands before calling an iterative solver
           198 MiB given to the printing process from OS
             0 MiB allocation reported by mallinfo(arena+hblkhd)
        350341 MiB available memory on the node where the printing process lives
------------------
     ethr =  4.87E-12,  avg # of iterations =  2.0
 
     Adding external electric field

     Computed dipole along edir(3) : 
        Elec. dipole         -2.8831 Ry au,         -7.3282 Debye
        Ion. dipole          -2.8820 Ry au,         -7.3254 Debye
        Dipole                0.6603 Ry au,          1.6783 Debye
        Dipole field          0.0011 Ry au, 
 
        E field amplitude [Ha a.u.]:  1.0000E-03
        Potential amp.       -0.0142 Ry
        Total length         80.7858 bohr
 

     total cpu time spent up to now is      143.0 secs

     total energy              =   -3121.43985361 Ry
     estimated scf accuracy    <       0.00000004 Ry

     iteration # 20     ecut=    50.00 Ry     beta= 0.30
     Davidson diagonalization with overlap

---- Real-time Memory Report at c_bands before calling an iterative solver
           198 MiB given to the printing process from OS
             0 MiB allocation reported by mallinfo(arena+hblkhd)
        350342 MiB available memory on the node where the printing process lives
------------------
     ethr =  4.87E-12,  avg # of iterations =  1.2
 
     Adding external electric field

     Computed dipole along edir(3) : 
        Elec. dipole         -2.8831 Ry au,         -7.3282 Debye
        Ion. dipole          -2.8820 Ry au,         -7.3254 Debye
        Dipole                0.6605 Ry au,          1.6788 Debye
        Dipole field          0.0011 Ry au, 
 
        E field amplitude [Ha a.u.]:  1.0000E-03
        Potential amp.       -0.0143 Ry
        Total length         80.7858 bohr
 

     total cpu time spent up to now is      148.2 secs

     End of self-consistent calculation

          k = 0.0000 0.0000 0.0000 ( 45443 PWs)   bands (ev):

   -56.8567 -56.8412 -56.5954 -56.5800 -56.5613 -56.5474 -56.4228 -56.4075
   -56.3405 -56.3288 -56.2695 -56.2541 -56.1284 -56.1130 -56.0136 -55.9972
   -55.9642 -55.9486 -55.9190 -55.9055 -26.8063 -26.8005 -26.7479 -26.5890
   -26.5000 -26.4681 -26.4261 -26.4197 -26.3757 -26.3634 -26.3206 -26.3071
   -26.2825 -26.2096 -26.1933 -26.1827 -26.1643 -26.1508 -26.1378 -26.1205
   -26.1140 -26.0880 -26.0782 -26.0704 -26.0549 -26.0362 -26.0137 -26.0030
   -25.9814 -25.9743 -25.9729 -25.9514 -25.9362 -25.9199 -25.9019 -25.8515
   -25.8445 -25.8021 -25.7939 -25.7884 -25.7470 -25.7121 -25.7092 -25.6956
   -25.6829 -25.6634 -25.6398 -25.6131 -25.5998 -25.5949 -25.5826 -25.5591
   -25.5375 -25.4945 -25.4741 -25.4709 -25.4324 -25.4043 -25.4019 -25.3700
   -15.6027 -15.2005 -15.0215 -14.7809 -14.4931 -14.4464 -14.1141 -14.1103
   -13.9304 -13.8201 -13.8158 -13.7707 -13.6654 -13.6338 -13.6003 -13.5744
   -13.5655 -13.4920 -13.3927 -13.3688 -13.3286 -13.2535 -13.1003 -13.0011
   -12.9707 -12.9468 -12.9071 -12.8265 -12.7513 -12.6705 -12.6309 -12.5306
   -12.4875 -12.4350 -12.3556 -12.2897  -3.3640  -3.2009  -2.9955  -2.9334
    -2.8281  -2.6988  -2.6464  -2.5458  -2.4566  -2.4220  -2.3679  -2.3238
    -2.1923  -2.1143  -2.0737  -1.9269  -1.8531  -1.7922  -1.7828  -1.7531
    -1.6712  -1.5751  -1.5344  -1.4773  -1.4618  -1.3841  -1.2990  -1.2201
    -1.2171  -1.1467  -1.0075  -0.9563  -0.9515  -0.8356  -0.7451  -0.6952
    -0.6842  -0.6726  -0.5797  -0.5598  -0.4757  -0.4721  -0.3769  -0.3521
    -0.3340  -0.2926  -0.2647  -0.1334  -0.0912  -0.0321   0.0930   0.1134
     0.1378   0.2029   0.2362   0.2776   0.3487   0.3858   0.4132   0.5082
     0.5273   0.6050   0.6114   0.6438   0.7015   0.8183   0.8210   0.8622
     0.8726   0.9375   0.9413   0.9905   1.0428   1.1103   1.1253   1.1979
     1.2376   1.3643   1.3684   1.3820   1.4356   1.5658   1.5665   1.5869
     1.6007   1.7151   1.7330   1.8257   1.8740   1.8801   2.0160   2.0235
     2.0793   2.1328   2.1527   2.2832   2.2881   2.3081   2.4652   2.5116
     2.6383   2.6752   2.7928   2.8225   2.9254   2.9530   3.0538   3.0826
     4.8013   5.5399   6.1259   6.8911   6.8975   7.0796   7.0815   7.1033
     7.1879   7.4572   7.4662   7.8473   7.8652   8.0578   8.0730   8.2394
     8.2506   8.3943   8.4564   8.5852   8.6241   8.6271   8.7377   8.7547
     8.8304   8.8371   8.9401   8.9635   8.9678   8.9875   9.0638   9.1318
     9.1969   9.2225   9.2990   9.3982   9.4476   9.4590   9.5600   9.5688
     9.5954   9.6500   9.6523   9.7716   9.7853   9.8405   9.8560   9.8564
     9.9420  10.1414

     occupation numbers 
     1.0000   1.0000   1.0000   1.0000   1.0000   1.0000   1.0000   1.0000
     1.0000   1.0000   1.0000   1.0000   1.0000   1.0000   1.0000   1.0000
     1.0000   1.0000   1.0000   1.0000   1.0000   1.0000   1.0000   1.0000
     1.0000   1.0000   1.0000   1.0000   1.0000   1.0000   1.0000   1.0000
     1.0000   1.0000   1.0000   1.0000   1.0000   1.0000   1.0000   1.0000
     1.0000   1.0000   1.0000   1.0000   1.0000   1.0000   1.0000   1.0000
     1.0000   1.0000   1.0000   1.0000   1.0000   1.0000   1.0000   1.0000
     1.0000   1.0000   1.0000   1.0000   1.0000   1.0000   1.0000   1.0000
     1.0000   1.0000   1.0000   1.0000   1.0000   1.0000   1.0000   1.0000
     1.0000   1.0000   1.0000   1.0000   1.0000   1.0000   1.0000   1.0000
     1.0000   1.0000   1.0000   1.0000   1.0000   1.0000   1.0000   1.0000
     1.0000   1.0000   1.0000   1.0000   1.0000   1.0000   1.0000   1.0000
     1.0000   1.0000   1.0000   1.0000   1.0000   1.0000   1.0000   1.0000
     1.0000   1.0000   1.0000   1.0000   1.0000   1.0000   1.0000   1.0000
     1.0000   1.0000   1.0000   1.0000   1.0000   1.0000   1.0000   1.0000
     1.0000   1.0000   1.0000   1.0000   1.0000   1.0000   1.0000   1.0000
     1.0000   1.0000   1.0000   1.0000   1.0000   1.0000   1.0000   1.0000
     1.0000   1.0000   1.0000   1.0000   1.0000   1.0000   1.0000   1.0000
     1.0000   1.0000   1.0000   1.0000   1.0000   1.0000   1.0000   1.0000
     1.0000   1.0000   1.0000   1.0000   1.0000   1.0000   1.0000   1.0000
     1.0000   1.0000   1.0000   1.0000   1.0000   1.0000   1.0000   1.0000
     1.0000   1.0000   1.0000   1.0000   1.0000   1.0000   1.0000   1.0000
     1.0000   1.0000   1.0000   1.0000   1.0000   1.0000   1.0000   1.0000
     1.0000   1.0000   1.0000   1.0000   1.0000   1.0000   1.0000   1.0000
     1.0000   1.0000   1.0000   1.0000   1.0000   1.0000   1.0000   1.0000
     1.0000   1.0000   1.0000   1.0000   1.0000   1.0000   1.0000   1.0000
     1.0000   1.0000   1.0000   1.0000   1.0000   1.0000   1.0000   1.0000
     1.0000   1.0000   1.0000   1.0000   1.0000   1.0000   1.0000   1.0000
     1.0000   1.0000   1.0000   0.0047   0.0038   0.0000   0.0000   0.0000
     0.0000   0.0000   0.0000   0.0000   0.0000   0.0000   0.0000   0.0000
     0.0000   0.0000   0.0000   0.0000   0.0000   0.0000   0.0000   0.0000
     0.0000   0.0000   0.0000   0.0000   0.0000   0.0000   0.0000   0.0000
     0.0000   0.0000   0.0000   0.0000   0.0000   0.0000   0.0000   0.0000
     0.0000   0.0000   0.0000   0.0000   0.0000   0.0000   0.0000   0.0000
     0.0000   0.0000

          k = 0.0000 0.2600 0.0000 ( 45481 PWs)   bands (ev):

   -56.8548 -56.8430 -56.5936 -56.5818 -56.5594 -56.5494 -56.4210 -56.4092
   -56.3388 -56.3304 -56.2677 -56.2558 -56.1267 -56.1147 -56.0117 -55.9989
   -55.9623 -55.9504 -55.9179 -55.9070 -26.7781 -26.7417 -26.7270 -26.6023
   -26.5213 -26.4702 -26.4274 -26.4167 -26.3848 -26.3227 -26.3132 -26.2793
   -26.2341 -26.2193 -26.1955 -26.1840 -26.1818 -26.1626 -26.1539 -26.1260
   -26.1229 -26.1136 -26.0735 -26.0638 -26.0314 -26.0218 -26.0105 -25.9907
   -25.9800 -25.9786 -25.9546 -25.9455 -25.9299 -25.9226 -25.9081 -25.8644
   -25.8450 -25.8314 -25.8047 -25.7919 -25.7812 -25.7474 -25.7196 -25.7002
   -25.6821 -25.6691 -25.6611 -25.6353 -25.6234 -25.5872 -25.5757 -25.5613
   -25.5459 -25.5317 -25.5027 -25.4832 -25.4454 -25.4252 -25.3965 -25.3548
   -15.3334 -14.9511 -14.7692 -14.5988 -14.4145 -14.3213 -14.0543 -14.0449
   -13.8652 -13.8015 -13.7331 -13.7281 -13.7033 -13.6099 -13.5830 -13.5533
   -13.5364 -13.4550 -13.4269 -13.3655 -13.3261 -13.3133 -13.1793 -13.1282
   -13.1180 -13.0367 -12.9781 -12.9571 -12.8283 -12.7980 -12.7149 -12.6541
   -12.6167 -12.5188 -12.4422 -12.3694  -3.1914  -3.0137  -2.8547  -2.7604
    -2.6722  -2.5997  -2.5344  -2.4504  -2.3879  -2.3578  -2.2965  -2.1963
    -2.1372  -2.1086  -2.0325  -1.9443  -1.8395  -1.7966  -1.7479  -1.6589
    -1.6531  -1.5961  -1.5924  -1.5111  -1.4600  -1.3501  -1.3055  -1.2592
    -1.2080  -1.1656  -1.0934  -1.0515  -1.0309  -0.9650  -0.8938  -0.8399
    -0.8180  -0.7498  -0.6944  -0.6021  -0.5898  -0.5285  -0.5024  -0.3352
    -0.3224  -0.2368  -0.2076  -0.1145  -0.0956  -0.0439  -0.0215   0.0777
     0.1559   0.1719   0.2939   0.3386   0.3611   0.3932   0.4504   0.4773
     0.5178   0.5944   0.6404   0.6966   0.7693   0.8307   0.8463   0.8848
     0.9465   0.9595   0.9884   1.0803   1.1404   1.1842   1.2183   1.2284
     1.2948   1.3539   1.4065   1.4310   1.4769   1.5313   1.5581   1.6337
     1.6600   1.6806   1.7252   1.7950   1.8558   1.8594   1.9040   1.9554
     1.9914   2.0316   2.1027   2.1274   2.2281   2.2638   2.3108   2.3907
     2.4730   2.4768   2.5077   2.6441   2.7904   2.9026   2.9977   3.0324
     5.1333   5.8911   6.0012   6.7738   6.8576   6.9231   7.0108   7.1964
     7.3331   7.4098   7.4947   7.6877   7.8503   7.9072   8.0405   8.0695
     8.1048   8.1499   8.2397   8.3055   8.3697   8.4265   8.5271   8.5952
     8.6210   8.7063   8.7964   8.8719   8.9276   8.9502   9.0207   9.1526
     9.1830   9.2057   9.2220   9.3314   9.4237   9.4573   9.5222   9.5634
     9.6050   9.6683   9.7248   9.7526   9.8381   9.9533   9.9684   9.9819
    10.0845  10.1250

     occupation numbers 
     1.0000   1.0000   1.0000   1.0000   1.0000   1.0000   1.0000   1.0000
     1.0000   1.0000   1.0000   1.0000   1.0000   1.0000   1.0000   1.0000
     1.0000   1.0000   1.0000   1.0000   1.0000   1.0000   1.0000   1.0000
     1.0000   1.0000   1.0000   1.0000   1.0000   1.0000   1.0000   1.0000
     1.0000   1.0000   1.0000   1.0000   1.0000   1.0000   1.0000   1.0000
     1.0000   1.0000   1.0000   1.0000   1.0000   1.0000   1.0000   1.0000
     1.0000   1.0000   1.0000   1.0000   1.0000   1.0000   1.0000   1.0000
     1.0000   1.0000   1.0000   1.0000   1.0000   1.0000   1.0000   1.0000
     1.0000   1.0000   1.0000   1.0000   1.0000   1.0000   1.0000   1.0000
     1.0000   1.0000   1.0000   1.0000   1.0000   1.0000   1.0000   1.0000
     1.0000   1.0000   1.0000   1.0000   1.0000   1.0000   1.0000   1.0000
     1.0000   1.0000   1.0000   1.0000   1.0000   1.0000   1.0000   1.0000
     1.0000   1.0000   1.0000   1.0000   1.0000   1.0000   1.0000   1.0000
     1.0000   1.0000   1.0000   1.0000   1.0000   1.0000   1.0000   1.0000
     1.0000   1.0000   1.0000   1.0000   1.0000   1.0000   1.0000   1.0000
     1.0000   1.0000   1.0000   1.0000   1.0000   1.0000   1.0000   1.0000
     1.0000   1.0000   1.0000   1.0000   1.0000   1.0000   1.0000   1.0000
     1.0000   1.0000   1.0000   1.0000   1.0000   1.0000   1.0000   1.0000
     1.0000   1.0000   1.0000   1.0000   1.0000   1.0000   1.0000   1.0000
     1.0000   1.0000   1.0000   1.0000   1.0000   1.0000   1.0000   1.0000
     1.0000   1.0000   1.0000   1.0000   1.0000   1.0000   1.0000   1.0000
     1.0000   1.0000   1.0000   1.0000   1.0000   1.0000   1.0000   1.0000
     1.0000   1.0000   1.0000   1.0000   1.0000   1.0000   1.0000   1.0000
     1.0000   1.0000   1.0000   1.0000   1.0000   1.0000   1.0000   1.0000
     1.0000   1.0000   1.0000   1.0000   1.0000   1.0000   1.0000   1.0000
     1.0000   1.0000   1.0000   1.0000   1.0000   1.0000   1.0000   1.0000
     1.0000   1.0000   1.0000   1.0000   1.0000   1.0000   1.0000   1.0000
     1.0000   1.0000   1.0000   1.0000   1.0000   1.0000   1.0000   1.0000
     1.0000   1.0000   1.0000   0.1050   0.0133   0.0016   0.0000   0.0000
     0.0000   0.0000   0.0000   0.0000   0.0000   0.0000   0.0000   0.0000
     0.0000   0.0000   0.0000   0.0000   0.0000   0.0000   0.0000   0.0000
     0.0000   0.0000   0.0000   0.0000   0.0000   0.0000   0.0000   0.0000
     0.0000   0.0000   0.0000   0.0000   0.0000   0.0000   0.0000   0.0000
     0.0000   0.0000   0.0000   0.0000   0.0000   0.0000   0.0000   0.0000
     0.0000   0.0000

          k = 0.0000-0.5200 0.0000 ( 45480 PWs)   bands (ev):

   -56.8519 -56.8457 -56.5910 -56.5843 -56.5559 -56.5529 -56.4185 -56.4117
   -56.3359 -56.3332 -56.2652 -56.2583 -56.1241 -56.1172 -56.0089 -56.0015
   -55.9596 -55.9531 -55.9163 -55.9091 -26.7482 -26.6715 -26.6637 -26.6175
   -26.5717 -26.5292 -26.4388 -26.3807 -26.3297 -26.2989 -26.2842 -26.2755
   -26.2324 -26.2226 -26.2061 -26.1937 -26.1891 -26.1651 -26.1635 -26.1550
   -26.1386 -26.1143 -26.0640 -26.0455 -26.0140 -26.0095 -26.0050 -25.9974
   -25.9863 -25.9589 -25.9456 -25.9440 -25.9198 -25.9035 -25.8889 -25.8842
   -25.8551 -25.8373 -25.8297 -25.8090 -25.7837 -25.7598 -25.7382 -25.7301
   -25.7173 -25.6988 -25.6654 -25.6627 -25.6445 -25.6075 -25.5855 -25.5791
   -25.5405 -25.5374 -25.5283 -25.4828 -25.4541 -25.4503 -25.3725 -25.3573
   -14.9279 -14.6075 -14.3935 -14.3285 -14.3250 -14.1550 -14.0238 -13.9764
   -13.9583 -13.7930 -13.7520 -13.7301 -13.7068 -13.6295 -13.5889 -13.5338
   -13.5108 -13.5036 -13.4800 -13.3595 -13.3275 -13.3213 -13.2659 -13.2478
   -13.2353 -13.2283 -13.1708 -13.0287 -13.0276 -12.8679 -12.8542 -12.7183
   -12.6515 -12.5822 -12.4964 -12.4545  -2.9920  -2.8761  -2.7255  -2.5345
    -2.5225  -2.5013  -2.3645  -2.3592  -2.2743  -2.2311  -2.2053  -2.0568
    -2.0424  -2.0014  -1.9178  -1.8661  -1.8194  -1.7948  -1.7146  -1.7044
    -1.6564  -1.6331  -1.6156  -1.5556  -1.5290  -1.4929  -1.4733  -1.4077
    -1.3918  -1.3255  -1.2379  -1.2340  -1.2031  -1.0032  -0.9377  -0.9099
    -0.8395  -0.7128  -0.6753  -0.6666  -0.6133  -0.5618  -0.4175  -0.3851
    -0.3423  -0.2194  -0.1914  -0.0985  -0.0259   0.0228   0.0708   0.0841
     0.1695   0.1736   0.3414   0.3570   0.4001   0.4071   0.4178   0.5350
     0.5813   0.6438   0.6882   0.7404   0.7846   0.8043   0.8565   0.9392
     0.9541   1.0288   1.0638   1.1488   1.1554   1.1784   1.2270   1.2851
     1.3305   1.3397   1.3482   1.4184   1.4761   1.4976   1.5048   1.5237
     1.5389   1.6147   1.6725   1.7071   1.7337   1.7463   1.8523   1.8851
     1.8933   1.8935   1.9407   2.0424   2.0636   2.1715   2.2170   2.2997
     2.3589   2.4461   2.5777   2.6089   2.7497   2.8718   2.9350   3.0841
     5.5050   5.8117   6.3575   6.4194   6.8903   7.0100   7.1661   7.1761
     7.2332   7.2799   7.4283   7.6122   7.6877   7.7751   7.7912   7.8264
     7.9261   7.9649   8.0346   8.1040   8.1627   8.2403   8.2833   8.4142
     8.5516   8.5913   8.6951   8.7661   8.8347   8.9027   8.9158   8.9506
     9.1681   9.2125   9.2583   9.3168   9.3544   9.4909   9.5129   9.6803
     9.7338   9.7345   9.7602   9.7609   9.8433   9.9820   9.9890  10.0057
    10.0736  10.2144

     occupation numbers 
     1.0000   1.0000   1.0000   1.0000   1.0000   1.0000   1.0000   1.0000
     1.0000   1.0000   1.0000   1.0000   1.0000   1.0000   1.0000   1.0000
     1.0000   1.0000   1.0000   1.0000   1.0000   1.0000   1.0000   1.0000
     1.0000   1.0000   1.0000   1.0000   1.0000   1.0000   1.0000   1.0000
     1.0000   1.0000   1.0000   1.0000   1.0000   1.0000   1.0000   1.0000
     1.0000   1.0000   1.0000   1.0000   1.0000   1.0000   1.0000   1.0000
     1.0000   1.0000   1.0000   1.0000   1.0000   1.0000   1.0000   1.0000
     1.0000   1.0000   1.0000   1.0000   1.0000   1.0000   1.0000   1.0000
     1.0000   1.0000   1.0000   1.0000   1.0000   1.0000   1.0000   1.0000
     1.0000   1.0000   1.0000   1.0000   1.0000   1.0000   1.0000   1.0000
     1.0000   1.0000   1.0000   1.0000   1.0000   1.0000   1.0000   1.0000
     1.0000   1.0000   1.0000   1.0000   1.0000   1.0000   1.0000   1.0000
     1.0000   1.0000   1.0000   1.0000   1.0000   1.0000   1.0000   1.0000
     1.0000   1.0000   1.0000   1.0000   1.0000   1.0000   1.0000   1.0000
     1.0000   1.0000   1.0000   1.0000   1.0000   1.0000   1.0000   1.0000
     1.0000   1.0000   1.0000   1.0000   1.0000   1.0000   1.0000   1.0000
     1.0000   1.0000   1.0000   1.0000   1.0000   1.0000   1.0000   1.0000
     1.0000   1.0000   1.0000   1.0000   1.0000   1.0000   1.0000   1.0000
     1.0000   1.0000   1.0000   1.0000   1.0000   1.0000   1.0000   1.0000
     1.0000   1.0000   1.0000   1.0000   1.0000   1.0000   1.0000   1.0000
     1.0000   1.0000   1.0000   1.0000   1.0000   1.0000   1.0000   1.0000
     1.0000   1.0000   1.0000   1.0000   1.0000   1.0000   1.0000   1.0000
     1.0000   1.0000   1.0000   1.0000   1.0000   1.0000   1.0000   1.0000
     1.0000   1.0000   1.0000   1.0000   1.0000   1.0000   1.0000   1.0000
     1.0000   1.0000   1.0000   1.0000   1.0000   1.0000   1.0000   1.0000
     1.0000   1.0000   1.0000   1.0000   1.0000   1.0000   1.0000   1.0000
     1.0000   1.0000   1.0000   1.0000   1.0000   1.0000   1.0000   1.0000
     1.0000   1.0000   1.0000   1.0000   1.0000   1.0000   1.0000   1.0000
     1.0000   1.0000   1.0118   1.0407   0.0049   0.0000   0.0000   0.0000
     0.0000   0.0000   0.0000   0.0000   0.0000   0.0000   0.0000   0.0000
     0.0000   0.0000   0.0000   0.0000   0.0000   0.0000   0.0000   0.0000
     0.0000   0.0000   0.0000   0.0000   0.0000   0.0000   0.0000   0.0000
     0.0000   0.0000   0.0000   0.0000   0.0000   0.0000   0.0000   0.0000
     0.0000   0.0000   0.0000   0.0000   0.0000   0.0000   0.0000   0.0000
     0.0000   0.0000

          k = 0.2500 0.0000 0.0000 ( 45654 PWs)   bands (ev):

   -56.8544 -56.8434 -56.5931 -56.5823 -56.5593 -56.5495 -56.4206 -56.4097
   -56.3388 -56.3305 -56.2672 -56.2563 -56.1262 -56.1152 -56.0112 -55.9995
   -55.9619 -55.9509 -55.9172 -55.9076 -26.7595 -26.7496 -26.7199 -26.6155
   -26.4970 -26.4680 -26.4464 -26.4226 -26.3713 -26.3335 -26.2927 -26.2857
   -26.2560 -26.1993 -26.1917 -26.1719 -26.1715 -26.1578 -26.1564 -26.1421
   -26.1317 -26.1053 -26.0766 -26.0472 -26.0200 -26.0132 -26.0063 -25.9973
   -25.9874 -25.9817 -25.9580 -25.9480 -25.9332 -25.9172 -25.9157 -25.8524
   -25.8435 -25.8379 -25.8169 -25.8025 -25.7731 -25.7296 -25.7290 -25.7065
   -25.6999 -25.6776 -25.6526 -25.6241 -25.6193 -25.6062 -25.5764 -25.5600
   -25.5354 -25.5160 -25.5047 -25.4926 -25.4380 -25.4335 -25.4002 -25.3594
   -15.3300 -14.9410 -14.7600 -14.5856 -14.4505 -14.3057 -14.1276 -14.0252
   -13.9290 -13.7950 -13.7738 -13.7659 -13.6479 -13.6329 -13.6218 -13.5869
   -13.5391 -13.4725 -13.3726 -13.3720 -13.3400 -13.3342 -13.1505 -13.1287
   -13.1273 -13.0508 -12.9538 -12.9516 -12.8040 -12.7967 -12.6769 -12.6667
   -12.5610 -12.5489 -12.4249 -12.4225  -3.0531  -2.8119  -2.7787  -2.6394
    -2.5414  -2.4357  -2.3795  -2.3789  -2.2691  -2.1948  -2.1643  -2.0870
    -2.0619  -2.0507  -1.9556  -1.8872  -1.8612  -1.7936  -1.7934  -1.7417
    -1.6329  -1.6092  -1.5862  -1.4730  -1.4134  -1.3957  -1.3748  -1.3227
    -1.2787  -1.2652  -1.2087  -1.1803  -1.0236  -0.9636  -0.9578  -0.8489
    -0.8268  -0.7400  -0.7039  -0.5803  -0.5775  -0.4931  -0.4730  -0.4466
    -0.2894  -0.2519  -0.2337  -0.1711  -0.1208  -0.1113  -0.0121   0.0464
     0.1658   0.1841   0.3146   0.3570   0.3832   0.4163   0.4522   0.4635
     0.5283   0.5313   0.5806   0.6679   0.6707   0.7212   0.7401   0.8698
     0.8908   0.8954   0.9421   0.9702   1.0470   1.0619   1.1034   1.1445
     1.2044   1.2457   1.2766   1.3201   1.3909   1.4170   1.4770   1.5382
     1.5978   1.6056   1.6373   1.7384   1.7750   1.8115   1.9060   1.9482
     2.0090   2.0326   2.0927   2.1810   2.2332   2.2747   2.2974   2.3900
     2.4141   2.5350   2.5566   2.6720   2.6842   2.7624   2.8227   2.8310
     5.1285   5.8785   5.9544   6.8469   6.8967   6.9637   7.1643   7.2203
     7.3744   7.5738   7.6461   7.9016   7.9957   8.0890   8.1976   8.3494
     8.3643   8.3808   8.5248   8.5773   8.6244   8.6733   8.6848   8.7590
     8.8283   8.8584   8.8940   8.9813   9.0109   9.0143   9.0437   9.1451
     9.1936   9.1937   9.2940   9.3432   9.3642   9.3684   9.4273   9.4799
     9.5354   9.5922   9.6526   9.7292   9.7608   9.7656   9.8057   9.9672
     9.9809   9.9924

     occupation numbers 
     1.0000   1.0000   1.0000   1.0000   1.0000   1.0000   1.0000   1.0000
     1.0000   1.0000   1.0000   1.0000   1.0000   1.0000   1.0000   1.0000
     1.0000   1.0000   1.0000   1.0000   1.0000   1.0000   1.0000   1.0000
     1.0000   1.0000   1.0000   1.0000   1.0000   1.0000   1.0000   1.0000
     1.0000   1.0000   1.0000   1.0000   1.0000   1.0000   1.0000   1.0000
     1.0000   1.0000   1.0000   1.0000   1.0000   1.0000   1.0000   1.0000
     1.0000   1.0000   1.0000   1.0000   1.0000   1.0000   1.0000   1.0000
     1.0000   1.0000   1.0000   1.0000   1.0000   1.0000   1.0000   1.0000
     1.0000   1.0000   1.0000   1.0000   1.0000   1.0000   1.0000   1.0000
     1.0000   1.0000   1.0000   1.0000   1.0000   1.0000   1.0000   1.0000
     1.0000   1.0000   1.0000   1.0000   1.0000   1.0000   1.0000   1.0000
     1.0000   1.0000   1.0000   1.0000   1.0000   1.0000   1.0000   1.0000
     1.0000   1.0000   1.0000   1.0000   1.0000   1.0000   1.0000   1.0000
     1.0000   1.0000   1.0000   1.0000   1.0000   1.0000   1.0000   1.0000
     1.0000   1.0000   1.0000   1.0000   1.0000   1.0000   1.0000   1.0000
     1.0000   1.0000   1.0000   1.0000   1.0000   1.0000   1.0000   1.0000
     1.0000   1.0000   1.0000   1.0000   1.0000   1.0000   1.0000   1.0000
     1.0000   1.0000   1.0000   1.0000   1.0000   1.0000   1.0000   1.0000
     1.0000   1.0000   1.0000   1.0000   1.0000   1.0000   1.0000   1.0000
     1.0000   1.0000   1.0000   1.0000   1.0000   1.0000   1.0000   1.0000
     1.0000   1.0000   1.0000   1.0000   1.0000   1.0000   1.0000   1.0000
     1.0000   1.0000   1.0000   1.0000   1.0000   1.0000   1.0000   1.0000
     1.0000   1.0000   1.0000   1.0000   1.0000   1.0000   1.0000   1.0000
     1.0000   1.0000   1.0000   1.0000   1.0000   1.0000   1.0000   1.0000
     1.0000   1.0000   1.0000   1.0000   1.0000   1.0000   1.0000   1.0000
     1.0000   1.0000   1.0000   1.0000   1.0000   1.0000   1.0000   1.0000
     1.0000   1.0000   1.0000   1.0000   1.0000   1.0000   1.0000   1.0000
     1.0000   1.0000   1.0000   1.0000   1.0000   1.0000   1.0000   1.0000
     1.0000   1.0000   1.0000   0.0179   0.0039   0.0003   0.0000   0.0000
     0.0000   0.0000   0.0000   0.0000   0.0000   0.0000   0.0000   0.0000
     0.0000   0.0000   0.0000   0.0000   0.0000   0.0000   0.0000   0.0000
     0.0000   0.0000   0.0000   0.0000   0.0000   0.0000   0.0000   0.0000
     0.0000   0.0000   0.0000   0.0000   0.0000   0.0000   0.0000   0.0000
     0.0000   0.0000   0.0000   0.0000   0.0000   0.0000   0.0000   0.0000
     0.0000   0.0000

          k = 0.2500 0.2600 0.0000 ( 45558 PWs)   bands (ev):

   -56.8530 -56.8446 -56.5918 -56.5835 -56.5579 -56.5509 -56.4193 -56.4109
   -56.3375 -56.3316 -56.2660 -56.2575 -56.1249 -56.1164 -56.0098 -56.0007
   -55.9606 -55.9521 -55.9165 -55.9088 -26.7962 -26.7402 -26.6914 -26.6445
   -26.5788 -26.4632 -26.4165 -26.3931 -26.3761 -26.3216 -26.3115 -26.2831
   -26.2389 -26.2222 -26.2044 -26.2016 -26.1932 -26.1771 -26.1641 -26.1385
   -26.1036 -26.0910 -26.0838 -26.0405 -26.0317 -26.0217 -26.0050 -25.9884
   -25.9851 -25.9811 -25.9719 -25.9493 -25.9281 -25.9184 -25.8903 -25.8819
   -25.8676 -25.8346 -25.8050 -25.7782 -25.7587 -25.7486 -25.7356 -25.7029
   -25.6885 -25.6772 -25.6526 -25.6235 -25.6122 -25.5895 -25.5755 -25.5527
   -25.5468 -25.5075 -25.4961 -25.4738 -25.4561 -25.4168 -25.3903 -25.3606
   -15.1382 -14.7888 -14.5880 -14.5105 -14.4559 -14.2736 -14.1478 -14.0479
   -13.9522 -13.8359 -13.7976 -13.7715 -13.7053 -13.6458 -13.6068 -13.5858
   -13.5427 -13.4771 -13.4492 -13.3805 -13.3251 -13.3091 -13.2760 -13.2052
   -13.0997 -13.0144 -12.9980 -12.9404 -12.8397 -12.8011 -12.7138 -12.6789
   -12.5958 -12.5548 -12.4371 -12.3854  -2.9592  -2.8156  -2.5974  -2.5314
    -2.5053  -2.4101  -2.3755  -2.2652  -2.1791  -2.1419  -2.1022  -2.0717
    -2.0289  -1.9610  -1.9369  -1.8525  -1.8040  -1.7921  -1.7236  -1.6879
    -1.6059  -1.5602  -1.5207  -1.4462  -1.4050  -1.3811  -1.3495  -1.3001
    -1.2541  -1.1935  -1.1302  -1.0605  -0.9865  -0.9654  -0.8849  -0.8640
    -0.8213  -0.7652  -0.7087  -0.6459  -0.5695  -0.5364  -0.5070  -0.4125
    -0.3935  -0.2642  -0.2322  -0.1582  -0.1436  -0.0783  -0.0414   0.0480
     0.1055   0.1456   0.2334   0.2907   0.3419   0.3903   0.4484   0.4913
     0.5202   0.5542   0.5944   0.6335   0.6713   0.7213   0.7514   0.8146
     0.8419   0.8810   0.9213   0.9576   1.0192   1.0367   1.1265   1.1445
     1.2032   1.2409   1.2773   1.2884   1.3334   1.3966   1.4551   1.5006
     1.5723   1.6083   1.6277   1.6699   1.7362   1.7721   1.8041   1.8421
     1.9118   2.0072   2.0600   2.1134   2.1632   2.1873   2.2641   2.3147
     2.3513   2.3971   2.4693   2.5135   2.6113   2.7248   2.8046   2.8902
     5.3123   5.9624   6.0767   6.6801   6.6858   6.8905   7.0377   7.2737
     7.3925   7.5451   7.6779   7.6874   7.7982   7.9364   8.0490   8.1135
     8.1357   8.1880   8.3005   8.3329   8.3865   8.4860   8.5053   8.5363
     8.5885   8.6205   8.6990   8.7165   8.8281   8.9174   8.9398   9.0277
     9.1247   9.1917   9.2243   9.3008   9.3323   9.3897   9.4185   9.4952
     9.5179   9.6130   9.6310   9.6804   9.7457   9.8291   9.9098   9.9626
     9.9953  10.0868

     occupation numbers 
     1.0000   1.0000   1.0000   1.0000   1.0000   1.0000   1.0000   1.0000
     1.0000   1.0000   1.0000   1.0000   1.0000   1.0000   1.0000   1.0000
     1.0000   1.0000   1.0000   1.0000   1.0000   1.0000   1.0000   1.0000
     1.0000   1.0000   1.0000   1.0000   1.0000   1.0000   1.0000   1.0000
     1.0000   1.0000   1.0000   1.0000   1.0000   1.0000   1.0000   1.0000
     1.0000   1.0000   1.0000   1.0000   1.0000   1.0000   1.0000   1.0000
     1.0000   1.0000   1.0000   1.0000   1.0000   1.0000   1.0000   1.0000
     1.0000   1.0000   1.0000   1.0000   1.0000   1.0000   1.0000   1.0000
     1.0000   1.0000   1.0000   1.0000   1.0000   1.0000   1.0000   1.0000
     1.0000   1.0000   1.0000   1.0000   1.0000   1.0000   1.0000   1.0000
     1.0000   1.0000   1.0000   1.0000   1.0000   1.0000   1.0000   1.0000
     1.0000   1.0000   1.0000   1.0000   1.0000   1.0000   1.0000   1.0000
     1.0000   1.0000   1.0000   1.0000   1.0000   1.0000   1.0000   1.0000
     1.0000   1.0000   1.0000   1.0000   1.0000   1.0000   1.0000   1.0000
     1.0000   1.0000   1.0000   1.0000   1.0000   1.0000   1.0000   1.0000
     1.0000   1.0000   1.0000   1.0000   1.0000   1.0000   1.0000   1.0000
     1.0000   1.0000   1.0000   1.0000   1.0000   1.0000   1.0000   1.0000
     1.0000   1.0000   1.0000   1.0000   1.0000   1.0000   1.0000   1.0000
     1.0000   1.0000   1.0000   1.0000   1.0000   1.0000   1.0000   1.0000
     1.0000   1.0000   1.0000   1.0000   1.0000   1.0000   1.0000   1.0000
     1.0000   1.0000   1.0000   1.0000   1.0000   1.0000   1.0000   1.0000
     1.0000   1.0000   1.0000   1.0000   1.0000   1.0000   1.0000   1.0000
     1.0000   1.0000   1.0000   1.0000   1.0000   1.0000   1.0000   1.0000
     1.0000   1.0000   1.0000   1.0000   1.0000   1.0000   1.0000   1.0000
     1.0000   1.0000   1.0000   1.0000   1.0000   1.0000   1.0000   1.0000
     1.0000   1.0000   1.0000   1.0000   1.0000   1.0000   1.0000   1.0000
     1.0000   1.0000   1.0000   1.0000   1.0000   1.0000   1.0000   1.0000
     1.0000   1.0000   1.0000   1.0000   1.0000   1.0000   1.0000   1.0000
     1.0000   1.0000   1.0000   0.4642   0.4342   0.0048   0.0000   0.0000
     0.0000   0.0000   0.0000   0.0000   0.0000   0.0000   0.0000   0.0000
     0.0000   0.0000   0.0000   0.0000   0.0000   0.0000   0.0000   0.0000
     0.0000   0.0000   0.0000   0.0000   0.0000   0.0000   0.0000   0.0000
     0.0000   0.0000   0.0000   0.0000   0.0000   0.0000   0.0000   0.0000
     0.0000   0.0000   0.0000   0.0000   0.0000   0.0000   0.0000   0.0000
     0.0000   0.0000

          k = 0.2500-0.5200 0.0000 ( 45398 PWs)   bands (ev):

   -56.8509 -56.8466 -56.5900 -56.5853 -56.5555 -56.5534 -56.4175 -56.4127
   -56.3354 -56.3335 -56.2642 -56.2593 -56.1231 -56.1182 -56.0078 -56.0025
   -55.9586 -55.9540 -55.9154 -55.9103 -26.7696 -26.7658 -26.7395 -26.6679
   -26.5119 -26.5017 -26.4355 -26.4090 -26.3695 -26.3556 -26.2971 -26.2955
   -26.2223 -26.2212 -26.2148 -26.2049 -26.1843 -26.1706 -26.1466 -26.1395
   -26.1281 -26.1179 -26.0720 -26.0667 -26.0331 -26.0079 -26.0014 -25.9959
   -25.9859 -25.9727 -25.9518 -25.9490 -25.9406 -25.9377 -25.8930 -25.8901
   -25.8427 -25.8418 -25.8002 -25.7950 -25.7598 -25.7596 -25.7264 -25.7075
   -25.6678 -25.6607 -25.6531 -25.6452 -25.5949 -25.5748 -25.5536 -25.5450
   -25.5257 -25.5072 -25.4906 -25.4716 -25.4517 -25.4428 -25.3744 -25.3646
   -14.8744 -14.5961 -14.5060 -14.3743 -14.2880 -14.2340 -14.1768 -14.0586
   -13.9978 -13.9256 -13.8892 -13.8173 -13.8055 -13.6979 -13.6124 -13.5967
   -13.5849 -13.5256 -13.5162 -13.4557 -13.3483 -13.3085 -13.2547 -13.1835
   -13.1224 -13.0835 -13.0260 -12.9402 -12.8604 -12.7946 -12.7100 -12.6446
   -12.5787 -12.5084 -12.4625 -12.4129  -2.7975  -2.7861  -2.5502  -2.4596
    -2.3564  -2.3383  -2.3120  -2.2117  -2.1885  -2.1702  -2.0268  -1.9835
    -1.9506  -1.9056  -1.8510  -1.7612  -1.7568  -1.6706  -1.6218  -1.5925
    -1.5777  -1.5685  -1.4847  -1.4716  -1.4481  -1.3861  -1.3030  -1.3015
    -1.2101  -1.2032  -1.1084  -1.0717  -1.0597  -0.9597  -0.8967  -0.8737
    -0.8553  -0.7874  -0.7182  -0.6723  -0.5657  -0.4976  -0.4219  -0.3259
    -0.2959  -0.2197  -0.1809  -0.0981  -0.0868  -0.0264   0.0176   0.0459
     0.0946   0.1092   0.1167   0.2145   0.2382   0.3028   0.3448   0.3477
     0.4216   0.4792   0.5073   0.5908   0.6218   0.6669   0.7336   0.7546
     0.7718   0.8646   0.9237   0.9768   0.9914   1.0778   1.1077   1.1110
     1.1904   1.2164   1.2692   1.2868   1.3901   1.4258   1.4341   1.4861
     1.5210   1.5917   1.6036   1.6644   1.6809   1.7239   1.7768   1.8519
     1.9281   1.9408   1.9739   1.9748   2.0859   2.1479   2.1622   2.2374
     2.2766   2.3932   2.4106   2.5355   2.5696   2.6402   2.7422   2.9232
     5.5505   5.9142   6.3042   6.4135   6.6524   6.9030   7.1251   7.1347
     7.1473   7.3325   7.4695   7.5252   7.6832   7.6838   7.8587   7.8724
     7.9218   7.9398   8.0033   8.1406   8.1416   8.2375   8.3139   8.3308
     8.3719   8.5173   8.5691   8.6090   8.7658   8.7950   8.9053   9.0055
     9.0229   9.0467   9.2032   9.2921   9.3542   9.4024   9.4476   9.5097
     9.5486   9.6556   9.6608   9.7545   9.8814   9.8985   9.9527  10.0269
    10.0839  10.1334

     occupation numbers 
     1.0000   1.0000   1.0000   1.0000   1.0000   1.0000   1.0000   1.0000
     1.0000   1.0000   1.0000   1.0000   1.0000   1.0000   1.0000   1.0000
     1.0000   1.0000   1.0000   1.0000   1.0000   1.0000   1.0000   1.0000
     1.0000   1.0000   1.0000   1.0000   1.0000   1.0000   1.0000   1.0000
     1.0000   1.0000   1.0000   1.0000   1.0000   1.0000   1.0000   1.0000
     1.0000   1.0000   1.0000   1.0000   1.0000   1.0000   1.0000   1.0000
     1.0000   1.0000   1.0000   1.0000   1.0000   1.0000   1.0000   1.0000
     1.0000   1.0000   1.0000   1.0000   1.0000   1.0000   1.0000   1.0000
     1.0000   1.0000   1.0000   1.0000   1.0000   1.0000   1.0000   1.0000
     1.0000   1.0000   1.0000   1.0000   1.0000   1.0000   1.0000   1.0000
     1.0000   1.0000   1.0000   1.0000   1.0000   1.0000   1.0000   1.0000
     1.0000   1.0000   1.0000   1.0000   1.0000   1.0000   1.0000   1.0000
     1.0000   1.0000   1.0000   1.0000   1.0000   1.0000   1.0000   1.0000
     1.0000   1.0000   1.0000   1.0000   1.0000   1.0000   1.0000   1.0000
     1.0000   1.0000   1.0000   1.0000   1.0000   1.0000   1.0000   1.0000
     1.0000   1.0000   1.0000   1.0000   1.0000   1.0000   1.0000   1.0000
     1.0000   1.0000   1.0000   1.0000   1.0000   1.0000   1.0000   1.0000
     1.0000   1.0000   1.0000   1.0000   1.0000   1.0000   1.0000   1.0000
     1.0000   1.0000   1.0000   1.0000   1.0000   1.0000   1.0000   1.0000
     1.0000   1.0000   1.0000   1.0000   1.0000   1.0000   1.0000   1.0000
     1.0000   1.0000   1.0000   1.0000   1.0000   1.0000   1.0000   1.0000
     1.0000   1.0000   1.0000   1.0000   1.0000   1.0000   1.0000   1.0000
     1.0000   1.0000   1.0000   1.0000   1.0000   1.0000   1.0000   1.0000
     1.0000   1.0000   1.0000   1.0000   1.0000   1.0000   1.0000   1.0000
     1.0000   1.0000   1.0000   1.0000   1.0000   1.0000   1.0000   1.0000
     1.0000   1.0000   1.0000   1.0000   1.0000   1.0000   1.0000   1.0000
     1.0000   1.0000   1.0000   1.0000   1.0000   1.0000   1.0000   1.0000
     1.0000   1.0000   1.0000   1.0000   1.0000   1.0000   1.0000   1.0000
     1.0000   1.0000   1.0028   1.0369   0.6158   0.0032   0.0000   0.0000
     0.0000   0.0000   0.0000   0.0000   0.0000   0.0000   0.0000   0.0000
     0.0000   0.0000   0.0000   0.0000   0.0000   0.0000   0.0000   0.0000
     0.0000   0.0000   0.0000   0.0000   0.0000   0.0000   0.0000   0.0000
     0.0000   0.0000   0.0000   0.0000   0.0000   0.0000   0.0000   0.0000
     0.0000   0.0000   0.0000   0.0000   0.0000   0.0000   0.0000   0.0000
     0.0000   0.0000

          k = 0.2500-0.2600 0.0000 ( 45558 PWs)   bands (ev):

   -56.8530 -56.8446 -56.5918 -56.5835 -56.5579 -56.5509 -56.4193 -56.4109
   -56.3375 -56.3316 -56.2660 -56.2575 -56.1249 -56.1164 -56.0098 -56.0007
   -55.9605 -55.9521 -55.9165 -55.9088 -26.7962 -26.7402 -26.6914 -26.6445
   -26.5788 -26.4632 -26.4165 -26.3931 -26.3761 -26.3216 -26.3115 -26.2831
   -26.2389 -26.2222 -26.2044 -26.2016 -26.1932 -26.1771 -26.1641 -26.1385
   -26.1036 -26.0910 -26.0838 -26.0406 -26.0317 -26.0217 -26.0050 -25.9884
   -25.9851 -25.9811 -25.9719 -25.9493 -25.9281 -25.9184 -25.8903 -25.8819
   -25.8676 -25.8346 -25.8050 -25.7782 -25.7587 -25.7486 -25.7356 -25.7029
   -25.6885 -25.6772 -25.6526 -25.6235 -25.6122 -25.5895 -25.5755 -25.5527
   -25.5468 -25.5075 -25.4961 -25.4738 -25.4561 -25.4168 -25.3903 -25.3606
   -15.1382 -14.7888 -14.5880 -14.5105 -14.4559 -14.2736 -14.1478 -14.0479
   -13.9522 -13.8359 -13.7976 -13.7715 -13.7053 -13.6458 -13.6068 -13.5858
   -13.5427 -13.4771 -13.4492 -13.3805 -13.3251 -13.3091 -13.2760 -13.2052
   -13.0997 -13.0144 -12.9980 -12.9404 -12.8397 -12.8011 -12.7138 -12.6789
   -12.5958 -12.5548 -12.4371 -12.3854  -2.9592  -2.8156  -2.5974  -2.5314
    -2.5053  -2.4101  -2.3755  -2.2652  -2.1791  -2.1419  -2.1022  -2.0717
    -2.0289  -1.9610  -1.9369  -1.8525  -1.8040  -1.7921  -1.7236  -1.6879
    -1.6059  -1.5602  -1.5207  -1.4462  -1.4050  -1.3811  -1.3495  -1.3001
    -1.2541  -1.1935  -1.1302  -1.0605  -0.9865  -0.9654  -0.8849  -0.8640
    -0.8213  -0.7652  -0.7087  -0.6459  -0.5695  -0.5364  -0.5070  -0.4125
    -0.3935  -0.2642  -0.2322  -0.1582  -0.1436  -0.0783  -0.0414   0.0480
     0.1055   0.1456   0.2334   0.2907   0.3419   0.3903   0.4484   0.4913
     0.5202   0.5542   0.5944   0.6335   0.6713   0.7213   0.7514   0.8146
     0.8419   0.8810   0.9213   0.9576   1.0192   1.0367   1.1265   1.1444
     1.2032   1.2409   1.2773   1.2884   1.3334   1.3966   1.4551   1.5006
     1.5723   1.6083   1.6277   1.6699   1.7362   1.7721   1.8041   1.8421
     1.9118   2.0072   2.0600   2.1134   2.1632   2.1873   2.2641   2.3148
     2.3513   2.3971   2.4692   2.5135   2.6113   2.7248   2.8046   2.8902
     5.3123   5.9624   6.0767   6.6801   6.6858   6.8905   7.0377   7.2737
     7.3925   7.5451   7.6779   7.6874   7.7982   7.9364   8.0490   8.1135
     8.1357   8.1880   8.3005   8.3329   8.3865   8.4860   8.5053   8.5363
     8.5885   8.6205   8.6990   8.7165   8.8281   8.9174   8.9398   9.0278
     9.1247   9.1917   9.2243   9.3008   9.3323   9.3898   9.4185   9.4952
     9.5179   9.6130   9.6310   9.6804   9.7457   9.8291   9.9098   9.9627
     9.9956  10.0840

     occupation numbers 
     1.0000   1.0000   1.0000   1.0000   1.0000   1.0000   1.0000   1.0000
     1.0000   1.0000   1.0000   1.0000   1.0000   1.0000   1.0000   1.0000
     1.0000   1.0000   1.0000   1.0000   1.0000   1.0000   1.0000   1.0000
     1.0000   1.0000   1.0000   1.0000   1.0000   1.0000   1.0000   1.0000
     1.0000   1.0000   1.0000   1.0000   1.0000   1.0000   1.0000   1.0000
     1.0000   1.0000   1.0000   1.0000   1.0000   1.0000   1.0000   1.0000
     1.0000   1.0000   1.0000   1.0000   1.0000   1.0000   1.0000   1.0000
     1.0000   1.0000   1.0000   1.0000   1.0000   1.0000   1.0000   1.0000
     1.0000   1.0000   1.0000   1.0000   1.0000   1.0000   1.0000   1.0000
     1.0000   1.0000   1.0000   1.0000   1.0000   1.0000   1.0000   1.0000
     1.0000   1.0000   1.0000   1.0000   1.0000   1.0000   1.0000   1.0000
     1.0000   1.0000   1.0000   1.0000   1.0000   1.0000   1.0000   1.0000
     1.0000   1.0000   1.0000   1.0000   1.0000   1.0000   1.0000   1.0000
     1.0000   1.0000   1.0000   1.0000   1.0000   1.0000   1.0000   1.0000
     1.0000   1.0000   1.0000   1.0000   1.0000   1.0000   1.0000   1.0000
     1.0000   1.0000   1.0000   1.0000   1.0000   1.0000   1.0000   1.0000
     1.0000   1.0000   1.0000   1.0000   1.0000   1.0000   1.0000   1.0000
     1.0000   1.0000   1.0000   1.0000   1.0000   1.0000   1.0000   1.0000
     1.0000   1.0000   1.0000   1.0000   1.0000   1.0000   1.0000   1.0000
     1.0000   1.0000   1.0000   1.0000   1.0000   1.0000   1.0000   1.0000
     1.0000   1.0000   1.0000   1.0000   1.0000   1.0000   1.0000   1.0000
     1.0000   1.0000   1.0000   1.0000   1.0000   1.0000   1.0000   1.0000
     1.0000   1.0000   1.0000   1.0000   1.0000   1.0000   1.0000   1.0000
     1.0000   1.0000   1.0000   1.0000   1.0000   1.0000   1.0000   1.0000
     1.0000   1.0000   1.0000   1.0000   1.0000   1.0000   1.0000   1.0000
     1.0000   1.0000   1.0000   1.0000   1.0000   1.0000   1.0000   1.0000
     1.0000   1.0000   1.0000   1.0000   1.0000   1.0000   1.0000   1.0000
     1.0000   1.0000   1.0000   1.0000   1.0000   1.0000   1.0000   1.0000
     1.0000   1.0000   1.0000   0.4642   0.4342   0.0048   0.0000   0.0000
     0.0000   0.0000   0.0000   0.0000   0.0000   0.0000   0.0000   0.0000
     0.0000   0.0000   0.0000   0.0000   0.0000   0.0000   0.0000   0.0000
     0.0000   0.0000   0.0000   0.0000   0.0000   0.0000   0.0000   0.0000
     0.0000   0.0000   0.0000   0.0000   0.0000   0.0000   0.0000   0.0000
     0.0000   0.0000   0.0000   0.0000   0.0000   0.0000   0.0000   0.0000
     0.0000   0.0000

          k =-0.5000 0.0000 0.0000 ( 45630 PWs)   bands (ev):

   -56.8489 -56.8489 -56.5877 -56.5877 -56.5544 -56.5544 -56.4151 -56.4151
   -56.3346 -56.3346 -56.2618 -56.2618 -56.1207 -56.1207 -56.0053 -56.0053
   -55.9563 -55.9563 -55.9126 -55.9125 -26.6785 -26.6785 -26.6609 -26.6609
   -26.5530 -26.5530 -26.4059 -26.4059 -26.3093 -26.3093 -26.2645 -26.2645
   -26.2419 -26.2419 -26.2042 -26.2042 -26.1581 -26.1581 -26.1543 -26.1543
   -26.1244 -26.1244 -26.0642 -26.0642 -25.9976 -25.9976 -25.9927 -25.9927
   -25.9758 -25.9758 -25.9214 -25.9214 -25.9164 -25.9164 -25.8849 -25.8849
   -25.8640 -25.8640 -25.8286 -25.8286 -25.7755 -25.7755 -25.7634 -25.7634
   -25.7039 -25.7039 -25.6716 -25.6716 -25.6030 -25.6030 -25.5811 -25.5810
   -25.5416 -25.5416 -25.4996 -25.4996 -25.4570 -25.4570 -25.3729 -25.3729
   -14.7164 -14.7164 -14.4002 -14.4002 -14.1805 -14.1805 -14.1203 -14.1203
   -13.9906 -13.9906 -13.8287 -13.8287 -13.6816 -13.6816 -13.6382 -13.6382
   -13.4906 -13.4906 -13.3995 -13.3995 -13.3291 -13.3291 -13.2451 -13.2451
   -13.1775 -13.1775 -13.0156 -13.0156 -12.8674 -12.8674 -12.7396 -12.7396
   -12.6531 -12.6531 -12.5524 -12.5524  -2.6004  -2.6004  -2.4199  -2.4199
    -2.2196  -2.2196  -2.1400  -2.1400  -2.0599  -2.0598  -1.9423  -1.9423
    -1.8310  -1.8310  -1.7607  -1.7607  -1.7348  -1.7348  -1.6713  -1.6713
    -1.6012  -1.6012  -1.4999  -1.4999  -1.4090  -1.4090  -1.2777  -1.2777
    -1.2271  -1.2271  -1.1839  -1.1839  -1.0905  -1.0905  -0.9412  -0.9412
    -0.9207  -0.9207  -0.8669  -0.8669  -0.7112  -0.7112  -0.6693  -0.6693
    -0.5346  -0.5346  -0.4203  -0.4203  -0.1709  -0.1709  -0.1286  -0.1286
    -0.0156  -0.0156   0.1175   0.1175   0.2857   0.2858   0.3998   0.3998
     0.4228   0.4228   0.5663   0.5663   0.7052   0.7052   0.7719   0.7719
     0.8924   0.8924   0.9775   0.9775   1.0436   1.0436   1.1726   1.1727
     1.2053   1.2053   1.3565   1.3565   1.4252   1.4252   1.5064   1.5064
     1.5529   1.5529   1.6801   1.6801   1.7830   1.7831   1.8082   1.8082
     1.9291   1.9291   2.0173   2.0173   2.1671   2.1671   2.2602   2.2602
     2.3444   2.3445   2.3908   2.3908   2.5444   2.5444   2.6802   2.6802
     5.6416   5.6416   6.5841   6.5841   6.7509   6.7509   7.5357   7.5357
     7.6271   7.6271   7.8024   7.8024   8.1614   8.1614   8.2985   8.2985
     8.3297   8.3297   8.3942   8.3942   8.5477   8.5477   8.7024   8.7024
     8.8317   8.8317   8.8882   8.8882   8.9837   8.9837   9.0640   9.0640
     9.1728   9.1728   9.2634   9.2635   9.3720   9.3720   9.4979   9.4979
     9.5940   9.5941   9.6788   9.6788   9.7578   9.7578   9.7900   9.7900
     9.9904   9.9904

     occupation numbers 
     1.0000   1.0000   1.0000   1.0000   1.0000   1.0000   1.0000   1.0000
     1.0000   1.0000   1.0000   1.0000   1.0000   1.0000   1.0000   1.0000
     1.0000   1.0000   1.0000   1.0000   1.0000   1.0000   1.0000   1.0000
     1.0000   1.0000   1.0000   1.0000   1.0000   1.0000   1.0000   1.0000
     1.0000   1.0000   1.0000   1.0000   1.0000   1.0000   1.0000   1.0000
     1.0000   1.0000   1.0000   1.0000   1.0000   1.0000   1.0000   1.0000
     1.0000   1.0000   1.0000   1.0000   1.0000   1.0000   1.0000   1.0000
     1.0000   1.0000   1.0000   1.0000   1.0000   1.0000   1.0000   1.0000
     1.0000   1.0000   1.0000   1.0000   1.0000   1.0000   1.0000   1.0000
     1.0000   1.0000   1.0000   1.0000   1.0000   1.0000   1.0000   1.0000
     1.0000   1.0000   1.0000   1.0000   1.0000   1.0000   1.0000   1.0000
     1.0000   1.0000   1.0000   1.0000   1.0000   1.0000   1.0000   1.0000
     1.0000   1.0000   1.0000   1.0000   1.0000   1.0000   1.0000   1.0000
     1.0000   1.0000   1.0000   1.0000   1.0000   1.0000   1.0000   1.0000
     1.0000   1.0000   1.0000   1.0000   1.0000   1.0000   1.0000   1.0000
     1.0000   1.0000   1.0000   1.0000   1.0000   1.0000   1.0000   1.0000
     1.0000   1.0000   1.0000   1.0000   1.0000   1.0000   1.0000   1.0000
     1.0000   1.0000   1.0000   1.0000   1.0000   1.0000   1.0000   1.0000
     1.0000   1.0000   1.0000   1.0000   1.0000   1.0000   1.0000   1.0000
     1.0000   1.0000   1.0000   1.0000   1.0000   1.0000   1.0000   1.0000
     1.0000   1.0000   1.0000   1.0000   1.0000   1.0000   1.0000   1.0000
     1.0000   1.0000   1.0000   1.0000   1.0000   1.0000   1.0000   1.0000
     1.0000   1.0000   1.0000   1.0000   1.0000   1.0000   1.0000   1.0000
     1.0000   1.0000   1.0000   1.0000   1.0000   1.0000   1.0000   1.0000
     1.0000   1.0000   1.0000   1.0000   1.0000   1.0000   1.0000   1.0000
     1.0000   1.0000   1.0000   1.0000   1.0000   1.0000   1.0000   1.0000
     1.0000   1.0000   1.0000   1.0000   1.0000   1.0000   1.0000   1.0000
     1.0000   1.0000   1.0000   1.0000   1.0000   1.0000   1.0000   1.0000
     1.0000   1.0000   0.9457   0.9457   0.1634   0.1633   0.0000   0.0000
     0.0000   0.0000   0.0000   0.0000   0.0000   0.0000   0.0000   0.0000
     0.0000   0.0000   0.0000   0.0000   0.0000   0.0000   0.0000   0.0000
     0.0000   0.0000   0.0000   0.0000   0.0000   0.0000   0.0000   0.0000
     0.0000   0.0000   0.0000   0.0000   0.0000   0.0000   0.0000   0.0000
     0.0000   0.0000   0.0000   0.0000   0.0000   0.0000   0.0000   0.0000
     0.0000   0.0000

          k =-0.5000 0.2600 0.0000 ( 45606 PWs)   bands (ev):

   -56.8488 -56.8488 -56.5876 -56.5876 -56.5544 -56.5544 -56.4151 -56.4151
   -56.3345 -56.3345 -56.2618 -56.2617 -56.1207 -56.1207 -56.0052 -56.0052
   -55.9563 -55.9563 -55.9128 -55.9128 -26.7644 -26.7644 -26.7008 -26.7008
   -26.5067 -26.5067 -26.4247 -26.4247 -26.3578 -26.3578 -26.2922 -26.2922
   -26.2258 -26.2258 -26.2031 -26.2031 -26.1766 -26.1766 -26.1419 -26.1419
   -26.1216 -26.1216 -26.0684 -26.0684 -26.0214 -26.0214 -25.9949 -25.9949
   -25.9766 -25.9766 -25.9492 -25.9492 -25.9356 -25.9356 -25.8923 -25.8923
   -25.8489 -25.8489 -25.7982 -25.7982 -25.7737 -25.7737 -25.7190 -25.7190
   -25.6637 -25.6637 -25.6448 -25.6448 -25.5836 -25.5836 -25.5465 -25.5465
   -25.5125 -25.5125 -25.4828 -25.4828 -25.4486 -25.4486 -25.3747 -25.3747
   -14.7213 -14.7213 -14.4506 -14.4506 -14.2361 -14.2361 -14.1199 -14.1199
   -14.0557 -14.0557 -13.9038 -13.9038 -13.7624 -13.7624 -13.6514 -13.6514
   -13.5734 -13.5734 -13.3993 -13.3993 -13.3464 -13.3464 -13.1585 -13.1585
   -13.1214 -13.1214 -12.9594 -12.9594 -12.8119 -12.8119 -12.6792 -12.6792
   -12.5596 -12.5596 -12.4490 -12.4489  -2.6431  -2.6430  -2.3666  -2.3666
    -2.2340  -2.2340  -2.1346  -2.1346  -2.0414  -2.0414  -1.9307  -1.9307
    -1.8022  -1.8022  -1.7017  -1.7017  -1.6559  -1.6559  -1.5826  -1.5826
    -1.5468  -1.5468  -1.4783  -1.4783  -1.3873  -1.3873  -1.2843  -1.2843
    -1.1777  -1.1777  -1.0729  -1.0729  -0.9983  -0.9983  -0.8827  -0.8827
    -0.7679  -0.7679  -0.6880  -0.6880  -0.6205  -0.6205  -0.5267  -0.5267
    -0.4228  -0.4228  -0.3257  -0.3257  -0.1819  -0.1819  -0.0854  -0.0854
    -0.0022  -0.0022   0.1048   0.1048   0.2016   0.2016   0.3228   0.3228
     0.3868   0.3868   0.4675   0.4675   0.5687   0.5687   0.6763   0.6763
     0.7747   0.7747   0.8974   0.8974   0.9953   0.9953   1.0811   1.0811
     1.1898   1.1898   1.2474   1.2474   1.3279   1.3279   1.4184   1.4184
     1.4816   1.4816   1.6222   1.6222   1.6732   1.6732   1.7720   1.7720
     1.8973   1.8973   1.9964   1.9964   2.1041   2.1041   2.2308   2.2308
     2.3286   2.3286   2.4068   2.4068   2.5194   2.5194   2.6973   2.6973
     5.6853   5.6853   6.4691   6.4691   6.7106   6.7106   7.2942   7.2942
     7.5063   7.5063   7.5352   7.5352   7.9224   7.9225   8.1252   8.1252
     8.1724   8.1724   8.2533   8.2533   8.4023   8.4023   8.4633   8.4633
     8.5919   8.5919   8.7401   8.7401   8.7980   8.7980   8.9623   8.9623
     9.0236   9.0236   9.1610   9.1610   9.2556   9.2556   9.3716   9.3716
     9.4975   9.4975   9.6750   9.6750   9.7552   9.7552   9.9195   9.9196
    10.0585  10.0585

     occupation numbers 
     1.0000   1.0000   1.0000   1.0000   1.0000   1.0000   1.0000   1.0000
     1.0000   1.0000   1.0000   1.0000   1.0000   1.0000   1.0000   1.0000
     1.0000   1.0000   1.0000   1.0000   1.0000   1.0000   1.0000   1.0000
     1.0000   1.0000   1.0000   1.0000   1.0000   1.0000   1.0000   1.0000
     1.0000   1.0000   1.0000   1.0000   1.0000   1.0000   1.0000   1.0000
     1.0000   1.0000   1.0000   1.0000   1.0000   1.0000   1.0000   1.0000
     1.0000   1.0000   1.0000   1.0000   1.0000   1.0000   1.0000   1.0000
     1.0000   1.0000   1.0000   1.0000   1.0000   1.0000   1.0000   1.0000
     1.0000   1.0000   1.0000   1.0000   1.0000   1.0000   1.0000   1.0000
     1.0000   1.0000   1.0000   1.0000   1.0000   1.0000   1.0000   1.0000
     1.0000   1.0000   1.0000   1.0000   1.0000   1.0000   1.0000   1.0000
     1.0000   1.0000   1.0000   1.0000   1.0000   1.0000   1.0000   1.0000
     1.0000   1.0000   1.0000   1.0000   1.0000   1.0000   1.0000   1.0000
     1.0000   1.0000   1.0000   1.0000   1.0000   1.0000   1.0000   1.0000
     1.0000   1.0000   1.0000   1.0000   1.0000   1.0000   1.0000   1.0000
     1.0000   1.0000   1.0000   1.0000   1.0000   1.0000   1.0000   1.0000
     1.0000   1.0000   1.0000   1.0000   1.0000   1.0000   1.0000   1.0000
     1.0000   1.0000   1.0000   1.0000   1.0000   1.0000   1.0000   1.0000
     1.0000   1.0000   1.0000   1.0000   1.0000   1.0000   1.0000   1.0000
     1.0000   1.0000   1.0000   1.0000   1.0000   1.0000   1.0000   1.0000
     1.0000   1.0000   1.0000   1.0000   1.0000   1.0000   1.0000   1.0000
     1.0000   1.0000   1.0000   1.0000   1.0000   1.0000   1.0000   1.0000
     1.0000   1.0000   1.0000   1.0000   1.0000   1.0000   1.0000   1.0000
     1.0000   1.0000   1.0000   1.0000   1.0000   1.0000   1.0000   1.0000
     1.0000   1.0000   1.0000   1.0000   1.0000   1.0000   1.0000   1.0000
     1.0000   1.0000   1.0000   1.0000   1.0000   1.0000   1.0000   1.0000
     1.0000   1.0000   1.0000   1.0000   1.0000   1.0000   1.0000   1.0000
     1.0000   1.0000   1.0000   1.0000   1.0000   1.0000   1.0000   1.0000
     1.0000   1.0000   1.0735   1.0735   0.3139   0.3139   0.0000   0.0000
     0.0000   0.0000   0.0000   0.0000   0.0000   0.0000   0.0000   0.0000
     0.0000   0.0000   0.0000   0.0000   0.0000   0.0000   0.0000   0.0000
     0.0000   0.0000   0.0000   0.0000   0.0000   0.0000   0.0000   0.0000
     0.0000   0.0000   0.0000   0.0000   0.0000   0.0000   0.0000   0.0000
     0.0000   0.0000   0.0000   0.0000   0.0000   0.0000   0.0000   0.0000
     0.0000   0.0000

          k =-0.5000-0.5200 0.0000 ( 45488 PWs)   bands (ev):

   -56.8487 -56.8487 -56.5876 -56.5876 -56.5545 -56.5544 -56.4151 -56.4151
   -56.3344 -56.3344 -56.2617 -56.2617 -56.1206 -56.1206 -56.0051 -56.0051
   -55.9562 -55.9562 -55.9131 -55.9131 -26.8137 -26.8137 -26.7407 -26.7407
   -26.5292 -26.5292 -26.4210 -26.4210 -26.3582 -26.3582 -26.3097 -26.3097
   -26.2513 -26.2513 -26.2419 -26.2419 -26.1846 -26.1846 -26.1124 -26.1124
   -26.1012 -26.1012 -26.0801 -26.0801 -26.0408 -26.0408 -26.0066 -26.0066
   -25.9909 -25.9909 -25.9649 -25.9649 -25.9105 -25.9105 -25.9035 -25.9035
   -25.8389 -25.8389 -25.7786 -25.7786 -25.7525 -25.7525 -25.6927 -25.6927
   -25.6439 -25.6439 -25.6125 -25.6125 -25.5772 -25.5772 -25.5055 -25.5055
   -25.4929 -25.4929 -25.4739 -25.4739 -25.4263 -25.4263 -25.3758 -25.3758
   -14.7342 -14.7342 -14.4923 -14.4923 -14.2806 -14.2806 -14.1220 -14.1220
   -14.1037 -14.1037 -13.9593 -13.9593 -13.8448 -13.8447 -13.7109 -13.7109
   -13.6117 -13.6117 -13.4379 -13.4379 -13.3019 -13.3019 -13.1177 -13.1176
   -13.0539 -13.0539 -12.9030 -12.9030 -12.7515 -12.7515 -12.6109 -12.6109
   -12.4694 -12.4694 -12.3863 -12.3863  -2.4653  -2.4653  -2.2865  -2.2865
    -2.1665  -2.1665  -2.0860  -2.0860  -1.9812  -1.9812  -1.9114  -1.9114
    -1.8596  -1.8596  -1.7883  -1.7883  -1.6923  -1.6923  -1.6003  -1.6003
    -1.5685  -1.5685  -1.5021  -1.5021  -1.3785  -1.3785  -1.2524  -1.2524
    -1.1869  -1.1869  -1.0091  -1.0091  -0.8448  -0.8448  -0.7865  -0.7865
    -0.6676  -0.6676  -0.6126  -0.6126  -0.5338  -0.5338  -0.4444  -0.4444
    -0.3664  -0.3664  -0.2288  -0.2287  -0.1464  -0.1464  -0.0605  -0.0605
     0.0411   0.0411   0.1131   0.1131   0.2306   0.2307   0.2591   0.2591
     0.4006   0.4006   0.4714   0.4714   0.5596   0.5596   0.6605   0.6605
     0.7955   0.7955   0.8286   0.8286   0.8891   0.8891   0.9839   0.9839
     1.0604   1.0604   1.2102   1.2102   1.2966   1.2966   1.4048   1.4048
     1.4363   1.4363   1.5324   1.5324   1.5908   1.5908   1.7320   1.7320
     1.8697   1.8697   1.9644   1.9644   2.0663   2.0663   2.1326   2.1326
     2.2223   2.2223   2.3729   2.3729   2.4391   2.4391   2.6097   2.6097
     5.8000   5.8001   6.4453   6.4453   6.5968   6.5968   6.8406   6.8406
     7.3587   7.3587   7.4486   7.4486   7.7028   7.7028   7.9111   7.9112
     8.0633   8.0633   8.1180   8.1180   8.2115   8.2115   8.2844   8.2844
     8.3949   8.3949   8.5273   8.5273   8.6676   8.6676   8.8005   8.8005
     8.9394   8.9394   9.0089   9.0089   9.1875   9.1875   9.3983   9.3983
     9.5524   9.5524   9.7175   9.7175   9.8089   9.8089   9.9397   9.9398
    10.0533  10.0544

     occupation numbers 
     1.0000   1.0000   1.0000   1.0000   1.0000   1.0000   1.0000   1.0000
     1.0000   1.0000   1.0000   1.0000   1.0000   1.0000   1.0000   1.0000
     1.0000   1.0000   1.0000   1.0000   1.0000   1.0000   1.0000   1.0000
     1.0000   1.0000   1.0000   1.0000   1.0000   1.0000   1.0000   1.0000
     1.0000   1.0000   1.0000   1.0000   1.0000   1.0000   1.0000   1.0000
     1.0000   1.0000   1.0000   1.0000   1.0000   1.0000   1.0000   1.0000
     1.0000   1.0000   1.0000   1.0000   1.0000   1.0000   1.0000   1.0000
     1.0000   1.0000   1.0000   1.0000   1.0000   1.0000   1.0000   1.0000
     1.0000   1.0000   1.0000   1.0000   1.0000   1.0000   1.0000   1.0000
     1.0000   1.0000   1.0000   1.0000   1.0000   1.0000   1.0000   1.0000
     1.0000   1.0000   1.0000   1.0000   1.0000   1.0000   1.0000   1.0000
     1.0000   1.0000   1.0000   1.0000   1.0000   1.0000   1.0000   1.0000
     1.0000   1.0000   1.0000   1.0000   1.0000   1.0000   1.0000   1.0000
     1.0000   1.0000   1.0000   1.0000   1.0000   1.0000   1.0000   1.0000
     1.0000   1.0000   1.0000   1.0000   1.0000   1.0000   1.0000   1.0000
     1.0000   1.0000   1.0000   1.0000   1.0000   1.0000   1.0000   1.0000
     1.0000   1.0000   1.0000   1.0000   1.0000   1.0000   1.0000   1.0000
     1.0000   1.0000   1.0000   1.0000   1.0000   1.0000   1.0000   1.0000
     1.0000   1.0000   1.0000   1.0000   1.0000   1.0000   1.0000   1.0000
     1.0000   1.0000   1.0000   1.0000   1.0000   1.0000   1.0000   1.0000
     1.0000   1.0000   1.0000   1.0000   1.0000   1.0000   1.0000   1.0000
     1.0000   1.0000   1.0000   1.0000   1.0000   1.0000   1.0000   1.0000
     1.0000   1.0000   1.0000   1.0000   1.0000   1.0000   1.0000   1.0000
     1.0000   1.0000   1.0000   1.0000   1.0000   1.0000   1.0000   1.0000
     1.0000   1.0000   1.0000   1.0000   1.0000   1.0000   1.0000   1.0000
     1.0000   1.0000   1.0000   1.0000   1.0000   1.0000   1.0000   1.0000
     1.0000   1.0000   1.0000   1.0000   1.0000   1.0000   1.0000   1.0000
     1.0000   1.0000   1.0000   1.0000   1.0000   1.0000   1.0000   1.0000
     1.0000   1.0000   1.0582   1.0582   0.8965   0.8964   0.0213   0.0213
     0.0000   0.0000   0.0000   0.0000   0.0000   0.0000   0.0000   0.0000
     0.0000   0.0000   0.0000   0.0000   0.0000   0.0000   0.0000   0.0000
     0.0000   0.0000   0.0000   0.0000   0.0000   0.0000   0.0000   0.0000
     0.0000   0.0000   0.0000   0.0000   0.0000   0.0000   0.0000   0.0000
     0.0000   0.0000   0.0000   0.0000   0.0000   0.0000   0.0000   0.0000
     0.0000   0.0000

     the Fermi energy is     6.6924 ev

!    total energy              =   -3121.43985360 Ry
     estimated scf accuracy    <          3.3E-09 Ry
     smearing contrib. (-TS)   =      -0.00211667 Ry
     internal energy E=F+TS    =   -3121.43773693 Ry

     The total energy is F=E-TS. E is the sum of the following terms:
     one-electron contribution =  -97173.32728490 Ry
     hartree contribution      =   48676.55740083 Ry
     xc contribution           =    -490.49075285 Ry
     ewald contribution        =   45865.82350203 Ry
     electric field correction =      -0.00060204 Ry

     convergence has been achieved in  20 iterations

     Forces acting on atoms (cartesian axes, Ry/au):

     atom    1 type  1   force =     0.00000820    0.00000337    0.00002165
     atom    2 type  1   force =     0.00000666    0.00000263    0.00001100
     atom    3 type  1   force =    -0.00000596   -0.00000652   -0.00002919
     atom    4 type  1   force =    -0.00000917    0.00000645   -0.00002156
     atom    5 type  1   force =     0.00000764    0.00000661    0.00000514
     atom    6 type  1   force =     0.00000835   -0.00000332    0.00002164
     atom    7 type  1   force =     0.00000659   -0.00000300    0.00001104
     atom    8 type  1   force =    -0.00000607    0.00000622   -0.00002916
     atom    9 type  1   force =    -0.00000915   -0.00000638   -0.00002144
     atom   10 type  1   force =     0.00000766   -0.00000654    0.00000521
     atom   11 type  1   force =     0.00001017    0.00000225    0.00000774
     atom   12 type  1   force =     0.00000097   -0.00000612   -0.00001403
     atom   13 type  1   force =    -0.00000303    0.00000157   -0.00001988
     atom   14 type  1   force =    -0.00000307    0.00000677   -0.00000511
     atom   15 type  1   force =    -0.00000499    0.00000193   -0.00000632
     atom   16 type  1   force =     0.00001016   -0.00000235    0.00000767
     atom   17 type  1   force =     0.00000102    0.00000627   -0.00001405
     atom   18 type  1   force =    -0.00000303   -0.00000133   -0.00001978
     atom   19 type  1   force =    -0.00000312   -0.00000689   -0.00000498
     atom   20 type  1   force =    -0.00000534   -0.00000177   -0.00000631
     atom   21 type  2   force =     0.00000436   -0.00000069   -0.00000470
     atom   22 type  2   force =    -0.00001341    0.00000169    0.00000643
     atom   23 type  2   force =    -0.00000287   -0.00000809    0.00000103
     atom   24 type  2   force =     0.00001082   -0.00000239   -0.00000112
     atom   25 type  2   force =    -0.00000203    0.00001554    0.00000080
     atom   26 type  2   force =     0.00000433    0.00000074   -0.00000496
     atom   27 type  2   force =    -0.00001313   -0.00000171    0.00000619
     atom   28 type  2   force =    -0.00000257    0.00000818    0.00000060
     atom   29 type  2   force =     0.00001087    0.00000242   -0.00000115
     atom   30 type  2   force =    -0.00000191   -0.00001533    0.00000059
     atom   31 type  2   force =     0.00000006   -0.00000087    0.00000585
     atom   32 type  2   force =    -0.00000062    0.00000126    0.00001512
     atom   33 type  2   force =     0.00000114    0.00000295    0.00000389
     atom   34 type  2   force =     0.00000521    0.00000924   -0.00000296
     atom   35 type  2   force =     0.00000006   -0.00000339   -0.00000048
     atom   36 type  2   force =    -0.00000661   -0.00000570    0.00000661
     atom   37 type  2   force =     0.00000071    0.00000786   -0.00000811
     atom   38 type  2   force =     0.00001233   -0.00000495    0.00000027
     atom   39 type  2   force =    -0.00000152   -0.00000054    0.00001121
     atom   40 type  2   force =    -0.00000656    0.00000555    0.00000685
     atom   41 type  2   force =     0.00000080   -0.00000780   -0.00000767
     atom   42 type  2   force =     0.00001261    0.00000494    0.00000042
     atom   43 type  2   force =    -0.00000162    0.00000048    0.00001122
     atom   44 type  2   force =     0.00000005    0.00000090    0.00000583
     atom   45 type  2   force =    -0.00000901    0.00000005    0.00000047
     atom   46 type  2   force =    -0.00000055   -0.00000155    0.00001509
     atom   47 type  2   force =    -0.00000678   -0.00000435   -0.00000430
     atom   48 type  2   force =     0.00000118   -0.00000321    0.00000382
     atom   49 type  2   force =     0.00000187   -0.00000460    0.00000688
     atom   50 type  2   force =     0.00000519   -0.00000958   -0.00000301
     atom   51 type  2   force =    -0.00000146    0.00000368    0.00001378
     atom   52 type  2   force =     0.00000005    0.00000350   -0.00000056
     atom   53 type  2   force =    -0.00000902   -0.00000019    0.00000047
     atom   54 type  2   force =    -0.00000684    0.00000469   -0.00000431
     atom   55 type  2   force =     0.00000178    0.00000488    0.00000694
     atom   56 type  2   force =    -0.00000141   -0.00000346    0.00001370
     The non-local contrib.  to forces
     atom    1 type  1   force =    -0.01911271    0.01974982   -0.06896589
     atom    2 type  1   force =    -0.03050499    0.07125764    0.01776648
     atom    3 type  1   force =    -0.02863740    0.06461329    0.02417704
     atom    4 type  1   force =    -0.02883058    0.06451967    0.03145436
     atom    5 type  1   force =    -0.04823683    0.04600590    0.06616838
     atom    6 type  1   force =    -0.01911301   -0.01974965   -0.06896634
     atom    7 type  1   force =    -0.03050498   -0.07125789    0.01776482
     atom    8 type  1   force =    -0.02863811   -0.06461261    0.02417517
     atom    9 type  1   force =    -0.02883147   -0.06451834    0.03145240
     atom   10 type  1   force =    -0.04823824   -0.04600505    0.06617128
     atom   11 type  1   force =     0.03007368   -0.08231953   -0.01153741
     atom   12 type  1   force =     0.02912071   -0.06668803    0.02270260
     atom   13 type  1   force =     0.02894119   -0.06459019    0.02624916
     atom   14 type  1   force =     0.03152633   -0.07439424    0.05026915
     atom   15 type  1   force =     0.03189330   -0.06095265    0.24612764
     atom   16 type  1   force =     0.03007390    0.08231854   -0.01153812
     atom   17 type  1   force =     0.02912055    0.06668859    0.02270499
     atom   18 type  1   force =     0.02894024    0.06459108    0.02625176
     atom   19 type  1   force =     0.03152560    0.07439473    0.05026986
     atom   20 type  1   force =     0.03189715    0.06095198    0.24612661
     atom   21 type  2   force =    -0.08868181    0.04648934    0.05273452
     atom   22 type  2   force =    -0.07252403    0.06606782    0.02403169
     atom   23 type  2   force =    -0.08061264    0.07180502    0.02508572
     atom   24 type  2   force =    -0.09183676    0.07588536    0.04063384
     atom   25 type  2   force =    -0.10345515    0.10186032    0.27573246
     atom   26 type  2   force =    -0.08868196   -0.04649030    0.05273826
     atom   27 type  2   force =    -0.07252484   -0.06606625    0.02402221
     atom   28 type  2   force =    -0.08061873   -0.07180187    0.02507175
     atom   29 type  2   force =    -0.09184654   -0.07588411    0.04062564
     atom   30 type  2   force =    -0.10345995   -0.10185974    0.27572851
     atom   31 type  2   force =    -0.02473271   -0.17307259   -0.02786664
     atom   32 type  2   force =    -0.04168285   -0.14909741   -0.00995023
     atom   33 type  2   force =    -0.03950928   -0.14733116   -0.00338290
     atom   34 type  2   force =    -0.03444996   -0.14940888    0.00231958
     atom   35 type  2   force =    -0.09907269   -0.06981998   -0.04609795
     atom   36 type  2   force =     0.05456736    0.05987350    0.01596346
     atom   37 type  2   force =     0.07812013    0.06981509    0.02389149
     atom   38 type  2   force =     0.08470783    0.07353700    0.02634128
     atom   39 type  2   force =     0.12780228    0.08753812    0.03935691
     atom   40 type  2   force =     0.05456473   -0.05987469    0.01595885
     atom   41 type  2   force =     0.07812860   -0.06981406    0.02388143
     atom   42 type  2   force =     0.08471887   -0.07353447    0.02633052
     atom   43 type  2   force =     0.12780812   -0.08753799    0.03934835
     atom   44 type  2   force =    -0.02472995    0.17307388   -0.02786531
     atom   45 type  2   force =     0.04639957    0.15142307   -0.02089699
     atom   46 type  2   force =    -0.04169081    0.14909598   -0.00995083
     atom   47 type  2   force =     0.04016506    0.14813962   -0.00515617
     atom   48 type  2   force =    -0.03952204    0.14732977   -0.00338541
     atom   49 type  2   force =     0.03833491    0.14848084    0.00112123
     atom   50 type  2   force =    -0.03445912    0.14940854    0.00231839
     atom   51 type  2   force =     0.02180155    0.15197532    0.05484906
     atom   52 type  2   force =    -0.09907875    0.06981804   -0.04610185
     atom   53 type  2   force =     0.04639701   -0.15142596   -0.02089505
     atom   54 type  2   force =     0.04015283   -0.14814242   -0.00515403
     atom   55 type  2   force =     0.03832149   -0.14848279    0.00112228
     atom   56 type  2   force =     0.02179764   -0.15197371    0.05484994
     The ionic contribution  to forces
     atom    1 type  1   force =    -1.62549867    1.06549867 -342.68813598
     atom    2 type  1   force =    -1.84459101   -2.36125100 -189.08805304
     atom    3 type  1   force =    -1.80246778   -2.80491593  -33.78473756
     atom    4 type  1   force =    -1.85690991   -2.78829226  121.85745978
     atom    5 type  1   force =    -2.42740195   -3.35822199  282.33146154
     atom    6 type  1   force =    -1.62549320   -1.06550828 -342.68816006
     atom    7 type  1   force =    -1.84456368    2.36125696 -189.08812888
     atom    8 type  1   force =    -1.80246977    2.80492972  -33.78488654
     atom    9 type  1   force =    -1.85693643    2.78830927  121.85728314
     atom   10 type  1   force =    -2.42740771    3.35822317  282.33131266
     atom   11 type  1   force =     1.89988834    1.60009859 -267.11581849
     atom   12 type  1   force =     1.81396977    2.68351588 -111.43492357
     atom   13 type  1   force =     1.81591860    2.82846860   43.91342252
     atom   14 type  1   force =     1.98840556    2.53378335  200.30047690
     atom   15 type  1   force =     0.27486936    5.32249848  347.01446520
     atom   16 type  1   force =     1.89986613   -1.60009819 -267.11583057
     atom   17 type  1   force =     1.81399134   -2.68349795 -111.43474089
     atom   18 type  1   force =     1.81591568   -2.82845502   43.91364423
     atom   19 type  1   force =     1.98836593   -2.53378452  200.30059688
     atom   20 type  1   force =     0.27489904   -5.32253083  347.01444677
     atom   21 type  2   force =     1.02713405    0.30613295 -162.40607837
     atom   22 type  2   force =     1.02245525    0.62683435  -85.53444089
     atom   23 type  2   force =     1.08053762    0.64490823   -8.23619077
     atom   24 type  2   force =     1.18287262    0.61941348   69.07621526
     atom   25 type  2   force =     1.18846507    0.95766297  144.37030012
     atom   26 type  2   force =     1.02711210   -0.30612919 -162.40614338
     atom   27 type  2   force =     1.02249680   -0.62682877  -85.53425241
     atom   28 type  2   force =     1.08061263   -0.64492101   -8.23598243
     atom   29 type  2   force =     1.18293286   -0.61944138   69.07628220
     atom   30 type  2   force =     1.18849588   -0.95766983  144.37026951
     atom   31 type  2   force =     0.16587636    2.38546394 -155.02598421
     atom   32 type  2   force =     0.28858637    2.44773976  -75.60298093
     atom   33 type  2   force =     0.28540037    2.46974733    2.20690903
     atom   34 type  2   force =     0.26785434    2.52716229   80.33410907
     atom   35 type  2   force =     0.80076055    1.78110231  162.24177472
     atom   36 type  2   force =    -0.87057969    0.58218431 -123.71494209
     atom   37 type  2   force =    -1.06210607    0.64312927  -46.93793979
     atom   38 type  2   force =    -1.11529612    0.63858613   30.49541845
     atom   39 type  2   force =    -1.47216002    0.51786901  107.71260438
     atom   40 type  2   force =    -0.87056625   -0.58215935 -123.71487440
     atom   41 type  2   force =    -1.06217706   -0.64313148  -46.93781461
     atom   42 type  2   force =    -1.11537799   -0.63861429   30.49557020
     atom   43 type  2   force =    -1.47220598   -0.51786892  107.71268530
     atom   44 type  2   force =     0.16586574   -2.38546976 -155.02598677
     atom   45 type  2   force =    -0.30580655   -2.38311646 -114.69846190
     atom   46 type  2   force =     0.28864990   -2.44775557  -75.60295914
     atom   47 type  2   force =    -0.28629718   -2.46483411  -36.67750654
     atom   48 type  2   force =     0.28549759   -2.46975657    2.20696963
     atom   49 type  2   force =    -0.28092388   -2.49250632   41.11502533
     atom   50 type  2   force =     0.26793049   -2.52715493   80.33416004
     atom   51 type  2   force =    -0.15319424   -2.67364107  119.97617310
     atom   52 type  2   force =     0.80079927   -1.78107662  162.24185120
     atom   53 type  2   force =    -0.30578394    2.38310956 -114.69848516
     atom   54 type  2   force =    -0.28619901    2.46484206  -36.67754940
     atom   55 type  2   force =    -0.28082531    2.49252953   41.11497404
     atom   56 type  2   force =    -0.15318621    2.67363142  119.97612759
     The local contribution  to forces
     atom    1 type  1   force =     1.64462941   -1.08523737  342.75928940
     atom    2 type  1   force =     1.87510884    2.28999923  189.07247518
     atom    3 type  1   force =     1.83109447    2.74029845   33.76256919
     atom    4 type  1   force =     1.88574390    2.72378212 -121.88687877
     atom    5 type  1   force =     2.47565698    3.31222834 -282.39550213
     atom    6 type  1   force =     1.64462448    1.08524679  342.75931397
     atom    7 type  1   force =     1.87508161   -2.29000572  189.07255276
     atom    8 type  1   force =     1.83109713   -2.74031349   33.76272018
     atom    9 type  1   force =     1.88577167   -2.72380056 -121.88670007
     atom   10 type  1   force =     2.47566437   -3.31223062 -282.39535627
     atom   11 type  1   force =    -1.92995058   -1.51778289  267.12950724
     atom   12 type  1   force =    -1.84308883   -2.61684187  111.41429341
     atom   13 type  1   force =    -1.84485796   -2.76387880  -43.93764410
     atom   14 type  1   force =    -2.01992031   -2.45938569 -200.34864432
     atom   15 type  1   force =    -0.30675316   -5.26153333 -347.25849512
     atom   16 type  1   force =    -1.92992851    1.51778305  267.12951996
     atom   17 type  1   force =    -1.84311034    2.61682324  111.41410818
     atom   18 type  1   force =    -1.84485398    2.76386419  -43.93786825
     atom   19 type  1   force =    -2.01987984    2.45938609 -200.34876486
     atom   20 type  1   force =    -0.30678686    5.26156634 -347.25847587
     atom   21 type  2   force =    -0.93844130   -0.35262309  162.35441286
     atom   22 type  2   force =    -0.94993799   -0.69290346   85.51149573
     atom   23 type  2   force =    -0.99992936   -0.71671835    8.21210860
     atom   24 type  2   force =    -1.09100998   -0.69530884  -69.11583156
     atom   25 type  2   force =    -1.08500492   -1.05950939 -144.64497746
     atom   26 type  2   force =    -0.93841906    0.35261996  162.35447382
     atom   27 type  2   force =    -0.94997853    0.69289595   85.51131658
     atom   28 type  2   force =    -0.99999808    0.71672794    8.21191371
     atom   29 type  2   force =    -1.09106039    0.69533513  -69.11589021
     atom   30 type  2   force =    -1.08503049    1.05951593 -144.64494340
     atom   31 type  2   force =    -0.14113470   -2.21239738  155.05492699
     atom   32 type  2   force =    -0.24689794   -2.29864530   75.61401461
     atom   33 type  2   force =    -0.24588710   -2.32241037   -2.20251844
     atom   34 type  2   force =    -0.23338680   -2.37774182  -80.33539665
     atom   35 type  2   force =    -0.70167786   -1.71128534 -162.19463006
     atom   36 type  2   force =     0.81600983   -0.64206881  123.70007097
     atom   37 type  2   force =     0.98398953   -0.71293809   46.91505086
     atom   38 type  2   force =     1.03060356   -0.71213387  -30.52074262
     atom   39 type  2   force =     1.34436116   -0.60541405 -107.75089851
     atom   40 type  2   force =     0.81599896    0.64204454  123.70000820
     atom   41 type  2   force =     0.98405215    0.71293916   46.91493621
     atom   42 type  2   force =     1.03067468    0.71215944  -30.52088366
     atom   43 type  2   force =     1.34440113    0.60541349 -107.75097102
     atom   44 type  2   force =    -0.14112687    2.21240187  155.05492819
     atom   45 type  2   force =     0.25940194    2.23169435  114.72045992
     atom   46 type  2   force =    -0.24695357    2.29866175   75.61399328
     atom   47 type  2   force =     0.24612428    2.31668839   36.68365925
     atom   48 type  2   force =    -0.24597139    2.32242066   -2.20257663
     atom   49 type  2   force =     0.24259678    2.34402173  -41.11511722
     atom   50 type  2   force =    -0.23345393    2.37773430  -80.33544654
     atom   51 type  2   force =     0.13140118    2.52167084 -120.02994116
     atom   52 type  2   force =    -0.70171040    1.71126158 -162.19470267
     atom   53 type  2   force =     0.25938183   -2.23168506  114.72048122
     atom   54 type  2   force =     0.24603820   -2.31669351   36.68369985
     atom   55 type  2   force =     0.24251148   -2.34404290  -41.11506700
     atom   56 type  2   force =     0.13139723   -2.52166263 -120.02989666
     The core correction contribution to forces
     atom    1 type  1   force =     0.00000000    0.00000000    0.00000000
     atom    2 type  1   force =     0.00000000    0.00000000    0.00000000
     atom    3 type  1   force =     0.00000000    0.00000000    0.00000000
     atom    4 type  1   force =     0.00000000    0.00000000    0.00000000
     atom    5 type  1   force =     0.00000000    0.00000000    0.00000000
     atom    6 type  1   force =     0.00000000    0.00000000    0.00000000
     atom    7 type  1   force =     0.00000000    0.00000000    0.00000000
     atom    8 type  1   force =     0.00000000    0.00000000    0.00000000
     atom    9 type  1   force =     0.00000000    0.00000000    0.00000000
     atom   10 type  1   force =     0.00000000    0.00000000    0.00000000
     atom   11 type  1   force =     0.00000000    0.00000000    0.00000000
     atom   12 type  1   force =     0.00000000    0.00000000    0.00000000
     atom   13 type  1   force =     0.00000000    0.00000000    0.00000000
     atom   14 type  1   force =     0.00000000    0.00000000    0.00000000
     atom   15 type  1   force =     0.00000000    0.00000000    0.00000000
     atom   16 type  1   force =     0.00000000    0.00000000    0.00000000
     atom   17 type  1   force =     0.00000000    0.00000000    0.00000000
     atom   18 type  1   force =     0.00000000    0.00000000    0.00000000
     atom   19 type  1   force =     0.00000000    0.00000000    0.00000000
     atom   20 type  1   force =     0.00000000    0.00000000    0.00000000
     atom   21 type  2   force =     0.00000000    0.00000000    0.00000000
     atom   22 type  2   force =     0.00000000    0.00000000    0.00000000
     atom   23 type  2   force =     0.00000000    0.00000000    0.00000000
     atom   24 type  2   force =     0.00000000    0.00000000    0.00000000
     atom   25 type  2   force =     0.00000000    0.00000000    0.00000000
     atom   26 type  2   force =     0.00000000    0.00000000    0.00000000
     atom   27 type  2   force =     0.00000000    0.00000000    0.00000000
     atom   28 type  2   force =     0.00000000    0.00000000    0.00000000
     atom   29 type  2   force =     0.00000000    0.00000000    0.00000000
     atom   30 type  2   force =     0.00000000    0.00000000    0.00000000
     atom   31 type  2   force =     0.00000000    0.00000000    0.00000000
     atom   32 type  2   force =     0.00000000    0.00000000    0.00000000
     atom   33 type  2   force =     0.00000000    0.00000000    0.00000000
     atom   34 type  2   force =     0.00000000    0.00000000    0.00000000
     atom   35 type  2   force =     0.00000000    0.00000000    0.00000000
     atom   36 type  2   force =     0.00000000    0.00000000    0.00000000
     atom   37 type  2   force =     0.00000000    0.00000000    0.00000000
     atom   38 type  2   force =     0.00000000    0.00000000    0.00000000
     atom   39 type  2   force =     0.00000000    0.00000000    0.00000000
     atom   40 type  2   force =     0.00000000    0.00000000    0.00000000
     atom   41 type  2   force =     0.00000000    0.00000000    0.00000000
     atom   42 type  2   force =     0.00000000    0.00000000    0.00000000
     atom   43 type  2   force =     0.00000000    0.00000000    0.00000000
     atom   44 type  2   force =     0.00000000    0.00000000    0.00000000
     atom   45 type  2   force =     0.00000000    0.00000000    0.00000000
     atom   46 type  2   force =     0.00000000    0.00000000    0.00000000
     atom   47 type  2   force =     0.00000000    0.00000000    0.00000000
     atom   48 type  2   force =     0.00000000    0.00000000    0.00000000
     atom   49 type  2   force =     0.00000000    0.00000000    0.00000000
     atom   50 type  2   force =     0.00000000    0.00000000    0.00000000
     atom   51 type  2   force =     0.00000000    0.00000000    0.00000000
     atom   52 type  2   force =     0.00000000    0.00000000    0.00000000
     atom   53 type  2   force =     0.00000000    0.00000000    0.00000000
     atom   54 type  2   force =     0.00000000    0.00000000    0.00000000
     atom   55 type  2   force =     0.00000000    0.00000000    0.00000000
     atom   56 type  2   force =     0.00000000    0.00000000    0.00000000
     The Hubbard contrib.    to forces
     atom    1 type  1   force =     0.00000000    0.00000000    0.00000000
     atom    2 type  1   force =     0.00000000    0.00000000    0.00000000
     atom    3 type  1   force =     0.00000000    0.00000000    0.00000000
     atom    4 type  1   force =     0.00000000    0.00000000    0.00000000
     atom    5 type  1   force =     0.00000000    0.00000000    0.00000000
     atom    6 type  1   force =     0.00000000    0.00000000    0.00000000
     atom    7 type  1   force =     0.00000000    0.00000000    0.00000000
     atom    8 type  1   force =     0.00000000    0.00000000    0.00000000
     atom    9 type  1   force =     0.00000000    0.00000000    0.00000000
     atom   10 type  1   force =     0.00000000    0.00000000    0.00000000
     atom   11 type  1   force =     0.00000000    0.00000000    0.00000000
     atom   12 type  1   force =     0.00000000    0.00000000    0.00000000
     atom   13 type  1   force =     0.00000000    0.00000000    0.00000000
     atom   14 type  1   force =     0.00000000    0.00000000    0.00000000
     atom   15 type  1   force =     0.00000000    0.00000000    0.00000000
     atom   16 type  1   force =     0.00000000    0.00000000    0.00000000
     atom   17 type  1   force =     0.00000000    0.00000000    0.00000000
     atom   18 type  1   force =     0.00000000    0.00000000    0.00000000
     atom   19 type  1   force =     0.00000000    0.00000000    0.00000000
     atom   20 type  1   force =     0.00000000    0.00000000    0.00000000
     atom   21 type  2   force =     0.00000000    0.00000000    0.00000000
     atom   22 type  2   force =     0.00000000    0.00000000    0.00000000
     atom   23 type  2   force =     0.00000000    0.00000000    0.00000000
     atom   24 type  2   force =     0.00000000    0.00000000    0.00000000
     atom   25 type  2   force =     0.00000000    0.00000000    0.00000000
     atom   26 type  2   force =     0.00000000    0.00000000    0.00000000
     atom   27 type  2   force =     0.00000000    0.00000000    0.00000000
     atom   28 type  2   force =     0.00000000    0.00000000    0.00000000
     atom   29 type  2   force =     0.00000000    0.00000000    0.00000000
     atom   30 type  2   force =     0.00000000    0.00000000    0.00000000
     atom   31 type  2   force =     0.00000000    0.00000000    0.00000000
     atom   32 type  2   force =     0.00000000    0.00000000    0.00000000
     atom   33 type  2   force =     0.00000000    0.00000000    0.00000000
     atom   34 type  2   force =     0.00000000    0.00000000    0.00000000
     atom   35 type  2   force =     0.00000000    0.00000000    0.00000000
     atom   36 type  2   force =     0.00000000    0.00000000    0.00000000
     atom   37 type  2   force =     0.00000000    0.00000000    0.00000000
     atom   38 type  2   force =     0.00000000    0.00000000    0.00000000
     atom   39 type  2   force =     0.00000000    0.00000000    0.00000000
     atom   40 type  2   force =     0.00000000    0.00000000    0.00000000
     atom   41 type  2   force =     0.00000000    0.00000000    0.00000000
     atom   42 type  2   force =     0.00000000    0.00000000    0.00000000
     atom   43 type  2   force =     0.00000000    0.00000000    0.00000000
     atom   44 type  2   force =     0.00000000    0.00000000    0.00000000
     atom   45 type  2   force =     0.00000000    0.00000000    0.00000000
     atom   46 type  2   force =     0.00000000    0.00000000    0.00000000
     atom   47 type  2   force =     0.00000000    0.00000000    0.00000000
     atom   48 type  2   force =     0.00000000    0.00000000    0.00000000
     atom   49 type  2   force =     0.00000000    0.00000000    0.00000000
     atom   50 type  2   force =     0.00000000    0.00000000    0.00000000
     atom   51 type  2   force =     0.00000000    0.00000000    0.00000000
     atom   52 type  2   force =     0.00000000    0.00000000    0.00000000
     atom   53 type  2   force =     0.00000000    0.00000000    0.00000000
     atom   54 type  2   force =     0.00000000    0.00000000    0.00000000
     atom   55 type  2   force =     0.00000000    0.00000000    0.00000000
     atom   56 type  2   force =     0.00000000    0.00000000    0.00000000
     The SCF correction term to forces
     atom    1 type  1   force =    -0.00000348   -0.00000786   -0.00004706
     atom    2 type  1   force =     0.00000017   -0.00000336   -0.00005880
     atom    3 type  1   force =     0.00001110   -0.00000244    0.00008095
     atom    4 type  1   force =    -0.00000624   -0.00000320    0.00006190
     atom    5 type  1   force =    -0.00000421   -0.00000576   -0.00000382
     atom    6 type  1   force =    -0.00000358    0.00000771   -0.00004711
     atom    7 type  1   force =    -0.00000002    0.00000353   -0.00005883
     atom    8 type  1   force =     0.00001102    0.00000248    0.00008086
     atom    9 type  1   force =    -0.00000657    0.00000314    0.00006191
     atom   10 type  1   force =    -0.00000441    0.00000585   -0.00000363
     atom   11 type  1   force =     0.00000507    0.00000596   -0.00002477
     atom   12 type  1   force =     0.00000566    0.00000779    0.00003236
     atom   13 type  1   force =     0.00000148    0.00000184    0.00007136
     atom   14 type  1   force =    -0.00000832    0.00000324    0.00001198
     atom   15 type  1   force =    -0.00000815   -0.00001068    0.00001479
     atom   16 type  1   force =     0.00000498   -0.00000586   -0.00002478
     atom   17 type  1   force =     0.00000581   -0.00000772    0.00003249
     atom   18 type  1   force =     0.00000136   -0.00000170    0.00007131
     atom   19 type  1   force =    -0.00000847   -0.00000330    0.00001197
     atom   20 type  1   force =    -0.00000833    0.00001062    0.00001501
     atom   21 type  2   force =    -0.00000023    0.00000000   -0.00001704
     atom   22 type  2   force =    -0.00000030    0.00000286   -0.00002344
     atom   23 type  2   force =     0.00000785   -0.00000310    0.00005414
     atom   24 type  2   force =    -0.00000872    0.00000750    0.00003799
     atom   25 type  2   force =    -0.00000069    0.00000152    0.00000235
     atom   26 type  2   force =    -0.00000041    0.00000016   -0.00001700
     atom   27 type  2   force =    -0.00000021   -0.00000276   -0.00002354
     atom   28 type  2   force =     0.00000794    0.00000301    0.00005422
     atom   29 type  2   force =    -0.00000871   -0.00000734    0.00003788
     atom   30 type  2   force =    -0.00000100   -0.00000179    0.00000262
     atom   31 type  2   force =    -0.00000255    0.00000504   -0.00001362
     atom   32 type  2   force =     0.00000013    0.00000409   -0.00001167
     atom   33 type  2   force =     0.00000348   -0.00000297    0.00005286
     atom   34 type  2   force =    -0.00000603   -0.00000247    0.00002170
     atom   35 type  2   force =    -0.00000361   -0.00000050    0.00000947
     atom   36 type  2   force =     0.00000223    0.00000519   -0.00002908
     atom   37 type  2   force =     0.00000346    0.00000147    0.00004599
     atom   38 type  2   force =     0.00000340    0.00000567    0.00003982
     atom   39 type  2   force =     0.00000140    0.00000627    0.00000508
     atom   40 type  2   force =     0.00000234   -0.00000507   -0.00002915
     atom   41 type  2   force =     0.00000345   -0.00000154    0.00004596
     atom   42 type  2   force =     0.00000339   -0.00000585    0.00004001
     atom   43 type  2   force =     0.00000145   -0.00000621    0.00000525
     atom   44 type  2   force =    -0.00000254   -0.00000521   -0.00001363
     atom   45 type  2   force =     0.00000237   -0.00000101   -0.00004390
     atom   46 type  2   force =     0.00000027   -0.00000382   -0.00001157
     atom   47 type  2   force =     0.00000739    0.00000164    0.00005582
     atom   48 type  2   force =     0.00000337    0.00000281    0.00005289
     atom   49 type  2   force =     0.00000040   -0.00000096    0.00003420
     atom   50 type  2   force =    -0.00000591    0.00000239    0.00002175
     atom   51 type  2   force =    -0.00000361   -0.00000152   -0.00001057
     atom   52 type  2   force =    -0.00000374    0.00000038    0.00000942
     atom   53 type  2   force =     0.00000242    0.00000116   -0.00004388
     atom   54 type  2   force =     0.00000747   -0.00000155    0.00005592
     atom   55 type  2   force =     0.00000047    0.00000092    0.00003428
     atom   56 type  2   force =    -0.00000373    0.00000134   -0.00001051

     Total force =     0.000104     Total SCF correction =     0.000298
     SCF correction compared to forces is large: reduce conv_thr to get better values
     Energy error            =      6.9E-09 Ry
     Gradient error          =      2.9E-05 Ry/Bohr

     number of scf cycles    =  77
     number of bfgs steps    =  76

     energy             old  =   -3121.4398535940 Ry
     energy             new  =   -3121.4398536009 Ry

     CASE: energy            _new < energy            _old

     new trust radius        =       0.0001261442 bohr
     new conv_thr            =            1.0E-10 Ry


ATOMIC_POSITIONS (angstrom)
Hf               4.0163627895        3.7492964673        6.2863394008
Hf               4.0010326693        3.7804651660       11.1221119098
Hf               4.0011853197        3.7836490161       16.0432878821
Hf               4.0042692922        3.7847180013       20.9599247632
Hf               4.0165315989        3.8015868080       25.8385590746
Hf               1.4611993637        1.1639550926        6.2863390412
Hf               1.4458669419        1.1327843100       11.1221103745
Hf               1.4460202149        1.1296444303       16.0432846729
Hf               1.4491046350        1.1286325318       20.9599209771
Hf               1.4613674053        1.1117992179       25.8385541845
Hf               3.6490401412        1.1408142120        8.6549607413
Hf               3.6475073499        1.1308520978       13.5830774870
Hf               3.6477803949        1.1300780121       18.5024301215
Hf               3.6401313861        1.1376467404       23.4067667388
Hf               3.7312817368        1.3170333329       28.0553719025
Hf               1.0938771618        3.7724293986        8.6549602059
Hf               1.0923421283        3.7824148759       13.5830816239
Hf               1.0926144540        3.7832428530       18.5024356004
Hf               1.0849668576        3.7757240183       23.4067704806
Hf               1.1761128469        3.5963639276       28.0553699973
O                3.1118954762        2.1123151460        6.8718531348
O                3.1706159189        2.0752539912       11.7390244248
O                3.1786455963        2.0671101122       16.6426346784
O                3.1943769052        2.0526879473       21.5341557069
O                3.3309684907        1.9451153730       26.1983283361
O                0.5567328362        2.8009379618        6.8718503464
O                0.6154507097        2.8379926972       11.7390324204
O                0.6234816005        2.8461840633       16.6426406114
O                0.6392168371        2.8606685883       21.5341551305
O                0.7758098763        2.9682748006       26.1983223875
O                5.0395476271        0.2287779980        7.3356206165
O                5.0492044865        0.2154735944       12.3242183733
O                5.0541307093        0.2168711828       17.2542301081
O                5.0608490314        0.2229232297       22.1780439065
O                5.0976202166        0.1691316284       27.1241675075
O                1.9362636365        2.0919673199        9.3046211467
O                1.9178517256        2.0699102239       14.1884950971
O                1.9119358005        2.0628960455       19.0951587987
O                1.8794222098        2.0217380600       23.9359912063
O                4.4914305863        2.8212713605        9.3046242796
O                4.4730130103        2.8433596113       14.1884963075
O                4.4670951436        2.8504300817       19.0951610797
O                4.4345838132        2.8916354095       23.9359909256
O                2.4843826019       -0.2290586796        7.3356215079
O                2.6086136110       -0.2115016828        9.8454536711
O                2.4940406388       -0.2157534232       12.3242192369
O                2.5962378184       -0.2165767352       14.7912170315
O                2.4989674869       -0.2171016300       17.2542322893
O                2.5942466959       -0.2185490218       19.7158659725
O                2.5056854920       -0.2230943283       22.1780459507
O                2.5679154816       -0.2390417849       24.6464488708
O                2.5424563770       -0.1692682948       27.1241697486
O                5.1637772488        0.2112085868        9.8454538472
O                5.1514029172        0.2163195610       14.7912160881
O                5.1494120806        0.2183496420       19.7158638851
O                5.1230796181        0.2388888543       24.6464471900



     Writing config-only to output data dir ./hfo2.save/ :
     XML data file
     NEW-OLD atomic charge density approx. for the potential

     negative rho (up, down):  5.795E-08 0.000E+00
 
     Adding external electric field

     Computed dipole along edir(3) : 
        Elec. dipole         -2.8831 Ry au,         -7.3282 Debye
        Ion. dipole          -2.8820 Ry au,         -7.3254 Debye
        Dipole                0.6606 Ry au,          1.6791 Debye
        Dipole field          0.0011 Ry au, 
 
        E field amplitude [Ha a.u.]:  1.0000E-03
        Potential amp.       -0.0143 Ry
        Total length         80.7858 bohr
 

     total cpu time spent up to now is      149.0 secs

     Self-consistent Calculation

     iteration #  1     ecut=    50.00 Ry     beta= 0.30
     Davidson diagonalization with overlap

---- Real-time Memory Report at c_bands before calling an iterative solver
           214 MiB given to the printing process from OS
             0 MiB allocation reported by mallinfo(arena+hblkhd)
        350240 MiB available memory on the node where the printing process lives
------------------
     ethr =  1.00E-06,  avg # of iterations =  2.0

     Threshold (ethr) on eigenvalues was too large:
     Diagonalizing with lowered threshold

     Davidson diagonalization with overlap

---- Real-time Memory Report at c_bands before calling an iterative solver
           214 MiB given to the printing process from OS
             0 MiB allocation reported by mallinfo(arena+hblkhd)
        350217 MiB available memory on the node where the printing process lives
------------------
     ethr =  2.82E-08,  avg # of iterations =  1.0
 
     Adding external electric field

     Computed dipole along edir(3) : 
        Elec. dipole         -2.8831 Ry au,         -7.3282 Debye
        Ion. dipole          -2.8820 Ry au,         -7.3254 Debye
        Dipole                0.6605 Ry au,          1.6787 Debye
        Dipole field          0.0011 Ry au, 
 
        E field amplitude [Ha a.u.]:  1.0000E-03
        Potential amp.       -0.0143 Ry
        Total length         80.7858 bohr
 

     total cpu time spent up to now is      159.6 secs

     total energy              =   -3121.43985355 Ry
     estimated scf accuracy    <       0.00012921 Ry

     iteration #  2     ecut=    50.00 Ry     beta= 0.30
     Davidson diagonalization with overlap

---- Real-time Memory Report at c_bands before calling an iterative solver
           214 MiB given to the printing process from OS
             0 MiB allocation reported by mallinfo(arena+hblkhd)
        350220 MiB available memory on the node where the printing process lives
------------------
     ethr =  2.83E-08,  avg # of iterations =  1.0
 
     Adding external electric field

     Computed dipole along edir(3) : 
        Elec. dipole         -2.8831 Ry au,         -7.3282 Debye
        Ion. dipole          -2.8820 Ry au,         -7.3254 Debye
        Dipole                0.6604 Ry au,          1.6786 Debye
        Dipole field          0.0011 Ry au, 
 
        E field amplitude [Ha a.u.]:  1.0000E-03
        Potential amp.       -0.0143 Ry
        Total length         80.7858 bohr
 

     total cpu time spent up to now is      164.8 secs

     total energy              =   -3121.43985378 Ry
     estimated scf accuracy    <       0.00000359 Ry

     iteration #  3     ecut=    50.00 Ry     beta= 0.30
     Davidson diagonalization with overlap

---- Real-time Memory Report at c_bands before calling an iterative solver
           214 MiB given to the printing process from OS
             0 MiB allocation reported by mallinfo(arena+hblkhd)
        350224 MiB available memory on the node where the printing process lives
------------------
     ethr =  7.88E-10,  avg # of iterations =  1.0
 
     Adding external electric field

     Computed dipole along edir(3) : 
        Elec. dipole         -2.8831 Ry au,         -7.3282 Debye
        Ion. dipole          -2.8820 Ry au,         -7.3254 Debye
        Dipole                0.6602 Ry au,          1.6780 Debye
        Dipole field          0.0011 Ry au, 
 
        E field amplitude [Ha a.u.]:  1.0000E-03
        Potential amp.       -0.0142 Ry
        Total length         80.7858 bohr
 

     total cpu time spent up to now is      170.0 secs

     total energy              =   -3121.43985364 Ry
     estimated scf accuracy    <       0.00000127 Ry

     iteration #  4     ecut=    50.00 Ry     beta= 0.30
     Davidson diagonalization with overlap

---- Real-time Memory Report at c_bands before calling an iterative solver
           214 MiB given to the printing process from OS
             0 MiB allocation reported by mallinfo(arena+hblkhd)
        350223 MiB available memory on the node where the printing process lives
------------------
     ethr =  2.78E-10,  avg # of iterations =  2.0
 
     Adding external electric field

     Computed dipole along edir(3) : 
        Elec. dipole         -2.8831 Ry au,         -7.3282 Debye
        Ion. dipole          -2.8820 Ry au,         -7.3254 Debye
        Dipole                0.6601 Ry au,          1.6779 Debye
        Dipole field          0.0011 Ry au, 
 
        E field amplitude [Ha a.u.]:  1.0000E-03
        Potential amp.       -0.0142 Ry
        Total length         80.7858 bohr
 

     total cpu time spent up to now is      175.6 secs

     total energy              =   -3121.43985368 Ry
     estimated scf accuracy    <       0.00000046 Ry

     iteration #  5     ecut=    50.00 Ry     beta= 0.30
     Davidson diagonalization with overlap

---- Real-time Memory Report at c_bands before calling an iterative solver
           214 MiB given to the printing process from OS
             0 MiB allocation reported by mallinfo(arena+hblkhd)
        350226 MiB available memory on the node where the printing process lives
------------------
     ethr =  1.00E-10,  avg # of iterations =  1.5
 
     Adding external electric field

     Computed dipole along edir(3) : 
        Elec. dipole         -2.8831 Ry au,         -7.3282 Debye
        Ion. dipole          -2.8820 Ry au,         -7.3254 Debye
        Dipole                0.6600 Ry au,          1.6777 Debye
        Dipole field          0.0011 Ry au, 
 
        E field amplitude [Ha a.u.]:  1.0000E-03
        Potential amp.       -0.0142 Ry
        Total length         80.7858 bohr
 

     total cpu time spent up to now is      181.1 secs

     total energy              =   -3121.43985365 Ry
     estimated scf accuracy    <       0.00000041 Ry

     iteration #  6     ecut=    50.00 Ry     beta= 0.30
     Davidson diagonalization with overlap

---- Real-time Memory Report at c_bands before calling an iterative solver
           214 MiB given to the printing process from OS
             0 MiB allocation reported by mallinfo(arena+hblkhd)
        350230 MiB available memory on the node where the printing process lives
------------------
     ethr =  9.01E-11,  avg # of iterations =  2.3
 
     Adding external electric field

     Computed dipole along edir(3) : 
        Elec. dipole         -2.8831 Ry au,         -7.3282 Debye
        Ion. dipole          -2.8820 Ry au,         -7.3254 Debye
        Dipole                0.6602 Ry au,          1.6780 Debye
        Dipole field          0.0011 Ry au, 
 
        E field amplitude [Ha a.u.]:  1.0000E-03
        Potential amp.       -0.0142 Ry
        Total length         80.7858 bohr
 

     total cpu time spent up to now is      186.8 secs

     total energy              =   -3121.43985364 Ry
     estimated scf accuracy    <       0.00000030 Ry

     iteration #  7     ecut=    50.00 Ry     beta= 0.30
     Davidson diagonalization with overlap

---- Real-time Memory Report at c_bands before calling an iterative solver
           214 MiB given to the printing process from OS
             0 MiB allocation reported by mallinfo(arena+hblkhd)
        350231 MiB available memory on the node where the printing process lives
------------------
     ethr =  6.56E-11,  avg # of iterations =  2.0
 
     Adding external electric field

     Computed dipole along edir(3) : 
        Elec. dipole         -2.8831 Ry au,         -7.3282 Debye
        Ion. dipole          -2.8820 Ry au,         -7.3254 Debye
        Dipole                0.6602 Ry au,          1.6781 Debye
        Dipole field          0.0011 Ry au, 
 
        E field amplitude [Ha a.u.]:  1.0000E-03
        Potential amp.       -0.0142 Ry
        Total length         80.7858 bohr
 

     total cpu time spent up to now is      192.5 secs

     total energy              =   -3121.43985363 Ry
     estimated scf accuracy    <       0.00000034 Ry

     iteration #  8     ecut=    50.00 Ry     beta= 0.30
     Davidson diagonalization with overlap

---- Real-time Memory Report at c_bands before calling an iterative solver
           214 MiB given to the printing process from OS
             0 MiB allocation reported by mallinfo(arena+hblkhd)
        350233 MiB available memory on the node where the printing process lives
------------------
     ethr =  6.56E-11,  avg # of iterations =  1.0
 
     Adding external electric field

     Computed dipole along edir(3) : 
        Elec. dipole         -2.8831 Ry au,         -7.3282 Debye
        Ion. dipole          -2.8820 Ry au,         -7.3254 Debye
        Dipole                0.6603 Ry au,          1.6783 Debye
        Dipole field          0.0011 Ry au, 
 
        E field amplitude [Ha a.u.]:  1.0000E-03
        Potential amp.       -0.0142 Ry
        Total length         80.7858 bohr
 

     total cpu time spent up to now is      197.7 secs

     total energy              =   -3121.43985362 Ry
     estimated scf accuracy    <       0.00000045 Ry

     iteration #  9     ecut=    50.00 Ry     beta= 0.30
     Davidson diagonalization with overlap

---- Real-time Memory Report at c_bands before calling an iterative solver
           214 MiB given to the printing process from OS
             0 MiB allocation reported by mallinfo(arena+hblkhd)
        350229 MiB available memory on the node where the printing process lives
------------------
     ethr =  6.56E-11,  avg # of iterations =  1.2
 
     Adding external electric field

     Computed dipole along edir(3) : 
        Elec. dipole         -2.8831 Ry au,         -7.3282 Debye
        Ion. dipole          -2.8820 Ry au,         -7.3254 Debye
        Dipole                0.6604 Ry au,          1.6784 Debye
        Dipole field          0.0011 Ry au, 
 
        E field amplitude [Ha a.u.]:  1.0000E-03
        Potential amp.       -0.0143 Ry
        Total length         80.7858 bohr
 

     total cpu time spent up to now is      203.0 secs

     total energy              =   -3121.43985363 Ry
     estimated scf accuracy    <       0.00000013 Ry

     iteration # 10     ecut=    50.00 Ry     beta= 0.30
     Davidson diagonalization with overlap

---- Real-time Memory Report at c_bands before calling an iterative solver
           214 MiB given to the printing process from OS
             0 MiB allocation reported by mallinfo(arena+hblkhd)
        350221 MiB available memory on the node where the printing process lives
------------------
     ethr =  2.82E-11,  avg # of iterations =  1.0

     negative rho (up, down):  1.285E-08 0.000E+00
 
     Adding external electric field

     Computed dipole along edir(3) : 
        Elec. dipole         -2.8831 Ry au,         -7.3282 Debye
        Ion. dipole          -2.8820 Ry au,         -7.3254 Debye
        Dipole                0.6602 Ry au,          1.6782 Debye
        Dipole field          0.0011 Ry au, 
 
        E field amplitude [Ha a.u.]:  1.0000E-03
        Potential amp.       -0.0142 Ry
        Total length         80.7858 bohr
 

     total cpu time spent up to now is      208.2 secs

     total energy              =   -3121.43985360 Ry
     estimated scf accuracy    <       0.00000010 Ry

     iteration # 11     ecut=    50.00 Ry     beta= 0.30
     Davidson diagonalization with overlap

---- Real-time Memory Report at c_bands before calling an iterative solver
           214 MiB given to the printing process from OS
             0 MiB allocation reported by mallinfo(arena+hblkhd)
        350223 MiB available memory on the node where the printing process lives
------------------
     ethr =  2.11E-11,  avg # of iterations =  2.1
 
     Adding external electric field

     Computed dipole along edir(3) : 
        Elec. dipole         -2.8831 Ry au,         -7.3282 Debye
        Ion. dipole          -2.8820 Ry au,         -7.3254 Debye
        Dipole                0.6602 Ry au,          1.6780 Debye
        Dipole field          0.0011 Ry au, 
 
        E field amplitude [Ha a.u.]:  1.0000E-03
        Potential amp.       -0.0142 Ry
        Total length         80.7858 bohr
 

     total cpu time spent up to now is      214.1 secs

     total energy              =   -3121.43985363 Ry
     estimated scf accuracy    <       0.00000530 Ry

     iteration # 12     ecut=    50.00 Ry     beta= 0.30
     Davidson diagonalization with overlap

---- Real-time Memory Report at c_bands before calling an iterative solver
           214 MiB given to the printing process from OS
             0 MiB allocation reported by mallinfo(arena+hblkhd)
        350232 MiB available memory on the node where the printing process lives
------------------
     ethr =  2.11E-11,  avg # of iterations =  1.2
 
     Adding external electric field

     Computed dipole along edir(3) : 
        Elec. dipole         -2.8831 Ry au,         -7.3282 Debye
        Ion. dipole          -2.8820 Ry au,         -7.3254 Debye
        Dipole                0.6603 Ry au,          1.6782 Debye
        Dipole field          0.0011 Ry au, 
 
        E field amplitude [Ha a.u.]:  1.0000E-03
        Potential amp.       -0.0142 Ry
        Total length         80.7858 bohr
 

     total cpu time spent up to now is      219.4 secs

     total energy              =   -3121.43985362 Ry
     estimated scf accuracy    <       0.00000381 Ry

     iteration # 13     ecut=    50.00 Ry     beta= 0.30
     Davidson diagonalization with overlap

---- Real-time Memory Report at c_bands before calling an iterative solver
           214 MiB given to the printing process from OS
             0 MiB allocation reported by mallinfo(arena+hblkhd)
        350230 MiB available memory on the node where the printing process lives
------------------
     ethr =  2.11E-11,  avg # of iterations =  1.0

     negative rho (up, down):  4.087E-07 0.000E+00
 
     Adding external electric field

     Computed dipole along edir(3) : 
        Elec. dipole         -2.8831 Ry au,         -7.3282 Debye
        Ion. dipole          -2.8820 Ry au,         -7.3254 Debye
        Dipole                0.6603 Ry au,          1.6783 Debye
        Dipole field          0.0011 Ry au, 
 
        E field amplitude [Ha a.u.]:  1.0000E-03
        Potential amp.       -0.0142 Ry
        Total length         80.7858 bohr
 

     total cpu time spent up to now is      224.6 secs

     total energy              =   -3121.43985360 Ry
     estimated scf accuracy    <       0.00000005 Ry

     iteration # 14     ecut=    50.00 Ry     beta= 0.30
     Davidson diagonalization with overlap

---- Real-time Memory Report at c_bands before calling an iterative solver
           214 MiB given to the printing process from OS
             0 MiB allocation reported by mallinfo(arena+hblkhd)
        350231 MiB available memory on the node where the printing process lives
------------------
     ethr =  1.13E-11,  avg # of iterations =  2.0

     negative rho (up, down):  1.373E-06 0.000E+00
 
     Adding external electric field

     Computed dipole along edir(3) : 
        Elec. dipole         -2.8831 Ry au,         -7.3282 Debye
        Ion. dipole          -2.8820 Ry au,         -7.3254 Debye
        Dipole                0.6603 Ry au,          1.6783 Debye
        Dipole field          0.0011 Ry au, 
 
        E field amplitude [Ha a.u.]:  1.0000E-03
        Potential amp.       -0.0142 Ry
        Total length         80.7858 bohr
 

     total cpu time spent up to now is      230.3 secs

     total energy              =   -3121.43985357 Ry
     estimated scf accuracy    <       0.00000015 Ry

     iteration # 15     ecut=    50.00 Ry     beta= 0.30
     Davidson diagonalization with overlap

---- Real-time Memory Report at c_bands before calling an iterative solver
           214 MiB given to the printing process from OS
             0 MiB allocation reported by mallinfo(arena+hblkhd)
        350235 MiB available memory on the node where the printing process lives
------------------
     ethr =  1.13E-11,  avg # of iterations =  1.9

     negative rho (up, down):  3.102E-06 0.000E+00
 
     Adding external electric field

     Computed dipole along edir(3) : 
        Elec. dipole         -2.8831 Ry au,         -7.3282 Debye
        Ion. dipole          -2.8820 Ry au,         -7.3254 Debye
        Dipole                0.6603 Ry au,          1.6783 Debye
        Dipole field          0.0011 Ry au, 
 
        E field amplitude [Ha a.u.]:  1.0000E-03
        Potential amp.       -0.0142 Ry
        Total length         80.7858 bohr
 

     total cpu time spent up to now is      235.9 secs

     total energy              =   -3121.43985356 Ry
     estimated scf accuracy    <       0.00000015 Ry

     iteration # 16     ecut=    50.00 Ry     beta= 0.30
     Davidson diagonalization with overlap

---- Real-time Memory Report at c_bands before calling an iterative solver
           214 MiB given to the printing process from OS
             0 MiB allocation reported by mallinfo(arena+hblkhd)
        350234 MiB available memory on the node where the printing process lives
------------------
     ethr =  1.13E-11,  avg # of iterations =  1.9

     negative rho (up, down):  1.259E-06 0.000E+00
 
     Adding external electric field

     Computed dipole along edir(3) : 
        Elec. dipole         -2.8831 Ry au,         -7.3282 Debye
        Ion. dipole          -2.8820 Ry au,         -7.3254 Debye
        Dipole                0.6603 Ry au,          1.6783 Debye
        Dipole field          0.0011 Ry au, 
 
        E field amplitude [Ha a.u.]:  1.0000E-03
        Potential amp.       -0.0142 Ry
        Total length         80.7858 bohr
 

     total cpu time spent up to now is      241.5 secs

     total energy              =   -3121.43985357 Ry
     estimated scf accuracy    <       0.00000042 Ry

     iteration # 17     ecut=    50.00 Ry     beta= 0.30
     Davidson diagonalization with overlap

---- Real-time Memory Report at c_bands before calling an iterative solver
           214 MiB given to the printing process from OS
             0 MiB allocation reported by mallinfo(arena+hblkhd)
        350242 MiB available memory on the node where the printing process lives
------------------
     ethr =  1.13E-11,  avg # of iterations =  1.0

     negative rho (up, down):  9.108E-07 0.000E+00
 
     Adding external electric field

     Computed dipole along edir(3) : 
        Elec. dipole         -2.8831 Ry au,         -7.3282 Debye
        Ion. dipole          -2.8820 Ry au,         -7.3254 Debye
        Dipole                0.6603 Ry au,          1.6783 Debye
        Dipole field          0.0011 Ry au, 
 
        E field amplitude [Ha a.u.]:  1.0000E-03
        Potential amp.       -0.0142 Ry
        Total length         80.7858 bohr
 

     total cpu time spent up to now is      246.7 secs

     total energy              =   -3121.43985358 Ry
     estimated scf accuracy    <       0.00000025 Ry

     iteration # 18     ecut=    50.00 Ry     beta= 0.30
     Davidson diagonalization with overlap

---- Real-time Memory Report at c_bands before calling an iterative solver
           214 MiB given to the printing process from OS
             0 MiB allocation reported by mallinfo(arena+hblkhd)
        350243 MiB available memory on the node where the printing process lives
------------------
     ethr =  1.13E-11,  avg # of iterations =  1.0
 
     Adding external electric field

     Computed dipole along edir(3) : 
        Elec. dipole         -2.8831 Ry au,         -7.3282 Debye
        Ion. dipole          -2.8820 Ry au,         -7.3254 Debye
        Dipole                0.6603 Ry au,          1.6783 Debye
        Dipole field          0.0011 Ry au, 
 
        E field amplitude [Ha a.u.]:  1.0000E-03
        Potential amp.       -0.0142 Ry
        Total length         80.7858 bohr
 

     total cpu time spent up to now is      251.9 secs

     total energy              =   -3121.43985359 Ry
     estimated scf accuracy    <       0.00000019 Ry

     iteration # 19     ecut=    50.00 Ry     beta= 0.30
     Davidson diagonalization with overlap

---- Real-time Memory Report at c_bands before calling an iterative solver
           214 MiB given to the printing process from OS
             0 MiB allocation reported by mallinfo(arena+hblkhd)
        350243 MiB available memory on the node where the printing process lives
------------------
     ethr =  1.13E-11,  avg # of iterations =  1.1

     negative rho (up, down):  2.787E-08 0.000E+00
 
     Adding external electric field

     Computed dipole along edir(3) : 
        Elec. dipole         -2.8831 Ry au,         -7.3282 Debye
        Ion. dipole          -2.8820 Ry au,         -7.3254 Debye
        Dipole                0.6603 Ry au,          1.6783 Debye
        Dipole field          0.0011 Ry au, 
 
        E field amplitude [Ha a.u.]:  1.0000E-03
        Potential amp.       -0.0142 Ry
        Total length         80.7858 bohr
 

     total cpu time spent up to now is      257.2 secs

     total energy              =   -3121.43985362 Ry
     estimated scf accuracy    <       0.00000004 Ry

     iteration # 20     ecut=    50.00 Ry     beta= 0.30
     Davidson diagonalization with overlap

---- Real-time Memory Report at c_bands before calling an iterative solver
           214 MiB given to the printing process from OS
             0 MiB allocation reported by mallinfo(arena+hblkhd)
        350243 MiB available memory on the node where the printing process lives
------------------
     ethr =  9.82E-12,  avg # of iterations =  1.5
 
     Adding external electric field

     Computed dipole along edir(3) : 
        Elec. dipole         -2.8831 Ry au,         -7.3282 Debye
        Ion. dipole          -2.8820 Ry au,         -7.3254 Debye
        Dipole                0.6603 Ry au,          1.6783 Debye
        Dipole field          0.0011 Ry au, 
 
        E field amplitude [Ha a.u.]:  1.0000E-03
        Potential amp.       -0.0142 Ry
        Total length         80.7858 bohr
 

     total cpu time spent up to now is      262.6 secs

     total energy              =   -3121.43985363 Ry
     estimated scf accuracy    <       0.00000004 Ry

     iteration # 21     ecut=    50.00 Ry     beta= 0.30
     Davidson diagonalization with overlap

---- Real-time Memory Report at c_bands before calling an iterative solver
           214 MiB given to the printing process from OS
             0 MiB allocation reported by mallinfo(arena+hblkhd)
        350243 MiB available memory on the node where the printing process lives
------------------
     ethr =  8.44E-12,  avg # of iterations =  1.0
 
     Adding external electric field

     Computed dipole along edir(3) : 
        Elec. dipole         -2.8831 Ry au,         -7.3282 Debye
        Ion. dipole          -2.8820 Ry au,         -7.3254 Debye
        Dipole                0.6603 Ry au,          1.6783 Debye
        Dipole field          0.0011 Ry au, 
 
        E field amplitude [Ha a.u.]:  1.0000E-03
        Potential amp.       -0.0142 Ry
        Total length         80.7858 bohr
 

     total cpu time spent up to now is      267.9 secs

     total energy              =   -3121.43985362 Ry
     estimated scf accuracy    <       0.00000003 Ry

     iteration # 22     ecut=    50.00 Ry     beta= 0.30
     Davidson diagonalization with overlap

---- Real-time Memory Report at c_bands before calling an iterative solver
           214 MiB given to the printing process from OS
             0 MiB allocation reported by mallinfo(arena+hblkhd)
        350244 MiB available memory on the node where the printing process lives
------------------
     ethr =  7.30E-12,  avg # of iterations =  1.1
 
     Adding external electric field

     Computed dipole along edir(3) : 
        Elec. dipole         -2.8831 Ry au,         -7.3282 Debye
        Ion. dipole          -2.8820 Ry au,         -7.3254 Debye
        Dipole                0.6603 Ry au,          1.6783 Debye
        Dipole field          0.0011 Ry au, 
 
        E field amplitude [Ha a.u.]:  1.0000E-03
        Potential amp.       -0.0142 Ry
        Total length         80.7858 bohr
 

     total cpu time spent up to now is      273.1 secs

     total energy              =   -3121.43985360 Ry
     estimated scf accuracy    <          3.6E-09 Ry

     iteration # 23     ecut=    50.00 Ry     beta= 0.30
     Davidson diagonalization with overlap

---- Real-time Memory Report at c_bands before calling an iterative solver
           214 MiB given to the printing process from OS
             0 MiB allocation reported by mallinfo(arena+hblkhd)
        350245 MiB available memory on the node where the printing process lives
------------------
     ethr =  7.88E-13,  avg # of iterations =  2.3
 
     Adding external electric field

     Computed dipole along edir(3) : 
        Elec. dipole         -2.8831 Ry au,         -7.3282 Debye
        Ion. dipole          -2.8820 Ry au,         -7.3254 Debye
        Dipole                0.6603 Ry au,          1.6782 Debye
        Dipole field          0.0011 Ry au, 
 
        E field amplitude [Ha a.u.]:  1.0000E-03
        Potential amp.       -0.0142 Ry
        Total length         80.7858 bohr
 

     total cpu time spent up to now is      278.8 secs

     total energy              =   -3121.43985361 Ry
     estimated scf accuracy    <       0.00000004 Ry

     iteration # 24     ecut=    50.00 Ry     beta= 0.30
     Davidson diagonalization with overlap

---- Real-time Memory Report at c_bands before calling an iterative solver
           214 MiB given to the printing process from OS
             0 MiB allocation reported by mallinfo(arena+hblkhd)
        350246 MiB available memory on the node where the printing process lives
------------------
     ethr =  7.88E-13,  avg # of iterations =  1.1
 
     Adding external electric field

     Computed dipole along edir(3) : 
        Elec. dipole         -2.8831 Ry au,         -7.3282 Debye
        Ion. dipole          -2.8820 Ry au,         -7.3254 Debye
        Dipole                0.6603 Ry au,          1.6782 Debye
        Dipole field          0.0011 Ry au, 
 
        E field amplitude [Ha a.u.]:  1.0000E-03
        Potential amp.       -0.0142 Ry
        Total length         80.7858 bohr
 

     total cpu time spent up to now is      284.2 secs

     total energy              =   -3121.43985361 Ry
     estimated scf accuracy    <          7.1E-09 Ry

     iteration # 25     ecut=    50.00 Ry     beta= 0.30
     Davidson diagonalization with overlap

---- Real-time Memory Report at c_bands before calling an iterative solver
           214 MiB given to the printing process from OS
             0 MiB allocation reported by mallinfo(arena+hblkhd)
        350246 MiB available memory on the node where the printing process lives
------------------
     ethr =  7.88E-13,  avg # of iterations =  1.0
 
     Adding external electric field

     Computed dipole along edir(3) : 
        Elec. dipole         -2.8831 Ry au,         -7.3282 Debye
        Ion. dipole          -2.8820 Ry au,         -7.3254 Debye
        Dipole                0.6603 Ry au,          1.6782 Debye
        Dipole field          0.0011 Ry au, 
 
        E field amplitude [Ha a.u.]:  1.0000E-03
        Potential amp.       -0.0142 Ry
        Total length         80.7858 bohr
 

     total cpu time spent up to now is      290.5 secs

     total energy              =   -3121.43985361 Ry
     estimated scf accuracy    <          6.4E-09 Ry

     iteration # 26     ecut=    50.00 Ry     beta= 0.30
     Davidson diagonalization with overlap

---- Real-time Memory Report at c_bands before calling an iterative solver
           214 MiB given to the printing process from OS
             0 MiB allocation reported by mallinfo(arena+hblkhd)
        350244 MiB available memory on the node where the printing process lives
------------------
     ethr =  7.88E-13,  avg # of iterations =  1.0
 
     Adding external electric field

     Computed dipole along edir(3) : 
        Elec. dipole         -2.8831 Ry au,         -7.3282 Debye
        Ion. dipole          -2.8820 Ry au,         -7.3254 Debye
        Dipole                0.6603 Ry au,          1.6782 Debye
        Dipole field          0.0011 Ry au, 
 
        E field amplitude [Ha a.u.]:  1.0000E-03
        Potential amp.       -0.0142 Ry
        Total length         80.7858 bohr
 

     total cpu time spent up to now is      295.7 secs

     total energy              =   -3121.43985361 Ry
     estimated scf accuracy    <          1.2E-09 Ry

     iteration # 27     ecut=    50.00 Ry     beta= 0.30
     Davidson diagonalization with overlap

---- Real-time Memory Report at c_bands before calling an iterative solver
           214 MiB given to the printing process from OS
             0 MiB allocation reported by mallinfo(arena+hblkhd)
        350246 MiB available memory on the node where the printing process lives
------------------
     ethr =  2.53E-13,  avg # of iterations =  1.0
 
     Adding external electric field

     Computed dipole along edir(3) : 
        Elec. dipole         -2.8831 Ry au,         -7.3282 Debye
        Ion. dipole          -2.8820 Ry au,         -7.3254 Debye
        Dipole                0.6603 Ry au,          1.6782 Debye
        Dipole field          0.0011 Ry au, 
 
        E field amplitude [Ha a.u.]:  1.0000E-03
        Potential amp.       -0.0142 Ry
        Total length         80.7858 bohr
 

     total cpu time spent up to now is      301.0 secs

     total energy              =   -3121.43985361 Ry
     estimated scf accuracy    <          6.5E-10 Ry

     iteration # 28     ecut=    50.00 Ry     beta= 0.30
     Davidson diagonalization with overlap

---- Real-time Memory Report at c_bands before calling an iterative solver
           214 MiB given to the printing process from OS
             0 MiB allocation reported by mallinfo(arena+hblkhd)
        350251 MiB available memory on the node where the printing process lives
------------------
     ethr =  1.42E-13,  avg # of iterations =  1.7
 
     Adding external electric field

     Computed dipole along edir(3) : 
        Elec. dipole         -2.8831 Ry au,         -7.3282 Debye
        Ion. dipole          -2.8820 Ry au,         -7.3254 Debye
        Dipole                0.6603 Ry au,          1.6782 Debye
        Dipole field          0.0011 Ry au, 
 
        E field amplitude [Ha a.u.]:  1.0000E-03
        Potential amp.       -0.0142 Ry
        Total length         80.7858 bohr
 

     total cpu time spent up to now is      306.5 secs

     total energy              =   -3121.43985361 Ry
     estimated scf accuracy    <          4.8E-10 Ry

     iteration # 29     ecut=    50.00 Ry     beta= 0.30
     Davidson diagonalization with overlap

---- Real-time Memory Report at c_bands before calling an iterative solver
           214 MiB given to the printing process from OS
             0 MiB allocation reported by mallinfo(arena+hblkhd)
        350253 MiB available memory on the node where the printing process lives
------------------
     ethr =  1.04E-13,  avg # of iterations =  1.0
 
     Adding external electric field

     Computed dipole along edir(3) : 
        Elec. dipole         -2.8831 Ry au,         -7.3282 Debye
        Ion. dipole          -2.8820 Ry au,         -7.3254 Debye
        Dipole                0.6603 Ry au,          1.6782 Debye
        Dipole field          0.0011 Ry au, 
 
        E field amplitude [Ha a.u.]:  1.0000E-03
        Potential amp.       -0.0142 Ry
        Total length         80.7858 bohr
 

     total cpu time spent up to now is      311.7 secs

     total energy              =   -3121.43985361 Ry
     estimated scf accuracy    <          1.3E-10 Ry

     iteration # 30     ecut=    50.00 Ry     beta= 0.30
     Davidson diagonalization with overlap

---- Real-time Memory Report at c_bands before calling an iterative solver
           214 MiB given to the printing process from OS
             0 MiB allocation reported by mallinfo(arena+hblkhd)
        350252 MiB available memory on the node where the printing process lives
------------------
     ethr =  1.00E-13,  avg # of iterations =  1.9
 
     Adding external electric field

     Computed dipole along edir(3) : 
        Elec. dipole         -2.8831 Ry au,         -7.3282 Debye
        Ion. dipole          -2.8820 Ry au,         -7.3254 Debye
        Dipole                0.6603 Ry au,          1.6782 Debye
        Dipole field          0.0011 Ry au, 
 
        E field amplitude [Ha a.u.]:  1.0000E-03
        Potential amp.       -0.0142 Ry
        Total length         80.7858 bohr
 

     total cpu time spent up to now is      317.3 secs

     total energy              =   -3121.43985361 Ry
     estimated scf accuracy    <          3.6E-10 Ry

     iteration # 31     ecut=    50.00 Ry     beta= 0.30
     Davidson diagonalization with overlap

---- Real-time Memory Report at c_bands before calling an iterative solver
           214 MiB given to the printing process from OS
             0 MiB allocation reported by mallinfo(arena+hblkhd)
        350286 MiB available memory on the node where the printing process lives
------------------
     ethr =  1.00E-13,  avg # of iterations =  1.0
 
     Adding external electric field

     Computed dipole along edir(3) : 
        Elec. dipole         -2.8831 Ry au,         -7.3282 Debye
        Ion. dipole          -2.8820 Ry au,         -7.3254 Debye
        Dipole                0.6603 Ry au,          1.6782 Debye
        Dipole field          0.0011 Ry au, 
 
        E field amplitude [Ha a.u.]:  1.0000E-03
        Potential amp.       -0.0142 Ry
        Total length         80.7858 bohr
 

     total cpu time spent up to now is      322.5 secs

     total energy              =   -3121.43985361 Ry
     estimated scf accuracy    <          2.1E-10 Ry

     iteration # 32     ecut=    50.00 Ry     beta= 0.30
     Davidson diagonalization with overlap

---- Real-time Memory Report at c_bands before calling an iterative solver
           214 MiB given to the printing process from OS
             0 MiB allocation reported by mallinfo(arena+hblkhd)
        350287 MiB available memory on the node where the printing process lives
------------------
     ethr =  1.00E-13,  avg # of iterations =  1.6
 
     Adding external electric field

     Computed dipole along edir(3) : 
        Elec. dipole         -2.8831 Ry au,         -7.3282 Debye
        Ion. dipole          -2.8820 Ry au,         -7.3254 Debye
        Dipole                0.6602 Ry au,          1.6782 Debye
        Dipole field          0.0011 Ry au, 
 
        E field amplitude [Ha a.u.]:  1.0000E-03
        Potential amp.       -0.0142 Ry
        Total length         80.7858 bohr
 

     total cpu time spent up to now is      327.9 secs

     End of self-consistent calculation

          k = 0.0000 0.0000 0.0000 ( 45443 PWs)   bands (ev):

   -56.8567 -56.8412 -56.5952 -56.5799 -56.5612 -56.5474 -56.4226 -56.4073
   -56.3405 -56.3288 -56.2694 -56.2540 -56.1284 -56.1130 -56.0137 -55.9972
   -55.9642 -55.9487 -55.9190 -55.9054 -26.8063 -26.8005 -26.7479 -26.5890
   -26.4999 -26.4680 -26.4260 -26.4197 -26.3756 -26.3633 -26.3206 -26.3070
   -26.2824 -26.2095 -26.1932 -26.1827 -26.1643 -26.1508 -26.1378 -26.1204
   -26.1140 -26.0879 -26.0782 -26.0704 -26.0549 -26.0361 -26.0137 -26.0028
   -25.9814 -25.9743 -25.9729 -25.9513 -25.9362 -25.9199 -25.9017 -25.8514
   -25.8445 -25.8021 -25.7938 -25.7884 -25.7470 -25.7120 -25.7092 -25.6956
   -25.6828 -25.6634 -25.6398 -25.6131 -25.5998 -25.5949 -25.5826 -25.5592
   -25.5375 -25.4946 -25.4741 -25.4708 -25.4324 -25.4044 -25.4019 -25.3700
   -15.6027 -15.2004 -15.0215 -14.7808 -14.4931 -14.4463 -14.1141 -14.1103
   -13.9303 -13.8201 -13.8158 -13.7706 -13.6654 -13.6338 -13.6003 -13.5744
   -13.5654 -13.4920 -13.3927 -13.3689 -13.3286 -13.2535 -13.1002 -13.0010
   -12.9708 -12.9468 -12.9070 -12.8264 -12.7512 -12.6705 -12.6309 -12.5307
   -12.4876 -12.4351 -12.3556 -12.2898  -3.3640  -3.2009  -2.9955  -2.9334
    -2.8281  -2.6988  -2.6464  -2.5458  -2.4566  -2.4220  -2.3679  -2.3238
    -2.1923  -2.1143  -2.0736  -1.9269  -1.8531  -1.7921  -1.7828  -1.7530
    -1.6712  -1.5751  -1.5344  -1.4772  -1.4617  -1.3841  -1.2990  -1.2201
    -1.2171  -1.1467  -1.0075  -0.9563  -0.9514  -0.8356  -0.7451  -0.6951
    -0.6842  -0.6726  -0.5797  -0.5598  -0.4757  -0.4721  -0.3769  -0.3521
    -0.3340  -0.2926  -0.2646  -0.1334  -0.0912  -0.0321   0.0930   0.1134
     0.1378   0.2030   0.2362   0.2775   0.3488   0.3858   0.4133   0.5083
     0.5273   0.6051   0.6114   0.6438   0.7015   0.8183   0.8210   0.8621
     0.8726   0.9375   0.9413   0.9905   1.0429   1.1103   1.1253   1.1979
     1.2376   1.3643   1.3685   1.3820   1.4356   1.5658   1.5665   1.5869
     1.6007   1.7150   1.7331   1.8257   1.8741   1.8801   2.0160   2.0235
     2.0793   2.1329   2.1527   2.2831   2.2881   2.3081   2.4653   2.5117
     2.6383   2.6754   2.7928   2.8225   2.9254   2.9529   3.0537   3.0826
     4.8013   5.5399   6.1259   6.8911   6.8975   7.0796   7.0816   7.1034
     7.1879   7.4573   7.4662   7.8474   7.8653   8.0578   8.0731   8.2395
     8.2507   8.3943   8.4565   8.5852   8.6242   8.6271   8.7377   8.7547
     8.8304   8.8371   8.9401   8.9635   8.9678   8.9875   9.0638   9.1319
     9.1969   9.2226   9.2991   9.3983   9.4476   9.4590   9.5600   9.5687
     9.5955   9.6500   9.6524   9.7716   9.7852   9.8405   9.8560   9.8565
     9.9420  10.1405

     occupation numbers 
     1.0000   1.0000   1.0000   1.0000   1.0000   1.0000   1.0000   1.0000
     1.0000   1.0000   1.0000   1.0000   1.0000   1.0000   1.0000   1.0000
     1.0000   1.0000   1.0000   1.0000   1.0000   1.0000   1.0000   1.0000
     1.0000   1.0000   1.0000   1.0000   1.0000   1.0000   1.0000   1.0000
     1.0000   1.0000   1.0000   1.0000   1.0000   1.0000   1.0000   1.0000
     1.0000   1.0000   1.0000   1.0000   1.0000   1.0000   1.0000   1.0000
     1.0000   1.0000   1.0000   1.0000   1.0000   1.0000   1.0000   1.0000
     1.0000   1.0000   1.0000   1.0000   1.0000   1.0000   1.0000   1.0000
     1.0000   1.0000   1.0000   1.0000   1.0000   1.0000   1.0000   1.0000
     1.0000   1.0000   1.0000   1.0000   1.0000   1.0000   1.0000   1.0000
     1.0000   1.0000   1.0000   1.0000   1.0000   1.0000   1.0000   1.0000
     1.0000   1.0000   1.0000   1.0000   1.0000   1.0000   1.0000   1.0000
     1.0000   1.0000   1.0000   1.0000   1.0000   1.0000   1.0000   1.0000
     1.0000   1.0000   1.0000   1.0000   1.0000   1.0000   1.0000   1.0000
     1.0000   1.0000   1.0000   1.0000   1.0000   1.0000   1.0000   1.0000
     1.0000   1.0000   1.0000   1.0000   1.0000   1.0000   1.0000   1.0000
     1.0000   1.0000   1.0000   1.0000   1.0000   1.0000   1.0000   1.0000
     1.0000   1.0000   1.0000   1.0000   1.0000   1.0000   1.0000   1.0000
     1.0000   1.0000   1.0000   1.0000   1.0000   1.0000   1.0000   1.0000
     1.0000   1.0000   1.0000   1.0000   1.0000   1.0000   1.0000   1.0000
     1.0000   1.0000   1.0000   1.0000   1.0000   1.0000   1.0000   1.0000
     1.0000   1.0000   1.0000   1.0000   1.0000   1.0000   1.0000   1.0000
     1.0000   1.0000   1.0000   1.0000   1.0000   1.0000   1.0000   1.0000
     1.0000   1.0000   1.0000   1.0000   1.0000   1.0000   1.0000   1.0000
     1.0000   1.0000   1.0000   1.0000   1.0000   1.0000   1.0000   1.0000
     1.0000   1.0000   1.0000   1.0000   1.0000   1.0000   1.0000   1.0000
     1.0000   1.0000   1.0000   1.0000   1.0000   1.0000   1.0000   1.0000
     1.0000   1.0000   1.0000   1.0000   1.0000   1.0000   1.0000   1.0000
     1.0000   1.0000   1.0000   0.0047   0.0038   0.0000   0.0000   0.0000
     0.0000   0.0000   0.0000   0.0000   0.0000   0.0000   0.0000   0.0000
     0.0000   0.0000   0.0000   0.0000   0.0000   0.0000   0.0000   0.0000
     0.0000   0.0000   0.0000   0.0000   0.0000   0.0000   0.0000   0.0000
     0.0000   0.0000   0.0000   0.0000   0.0000   0.0000   0.0000   0.0000
     0.0000   0.0000   0.0000   0.0000   0.0000   0.0000   0.0000   0.0000
     0.0000   0.0000

          k = 0.0000 0.2600 0.0000 ( 45481 PWs)   bands (ev):

   -56.8548 -56.8430 -56.5935 -56.5816 -56.5593 -56.5493 -56.4209 -56.4090
   -56.3388 -56.3303 -56.2677 -56.2557 -56.1267 -56.1147 -56.0117 -55.9989
   -55.9624 -55.9504 -55.9179 -55.9070 -26.7781 -26.7417 -26.7270 -26.6022
   -26.5212 -26.4702 -26.4273 -26.4166 -26.3847 -26.3227 -26.3131 -26.2792
   -26.2340 -26.2192 -26.1954 -26.1839 -26.1818 -26.1625 -26.1539 -26.1259
   -26.1228 -26.1135 -26.0734 -26.0637 -26.0313 -26.0217 -26.0105 -25.9906
   -25.9800 -25.9786 -25.9544 -25.9454 -25.9299 -25.9226 -25.9081 -25.8644
   -25.8449 -25.8314 -25.8047 -25.7919 -25.7812 -25.7474 -25.7196 -25.7001
   -25.6821 -25.6691 -25.6611 -25.6353 -25.6234 -25.5873 -25.5757 -25.5613
   -25.5459 -25.5317 -25.5027 -25.4833 -25.4454 -25.4252 -25.3965 -25.3548
   -15.3334 -14.9511 -14.7692 -14.5987 -14.4146 -14.3213 -14.0543 -14.0449
   -13.8651 -13.8014 -13.7331 -13.7281 -13.7032 -13.6099 -13.5830 -13.5533
   -13.5364 -13.4550 -13.4270 -13.3655 -13.3261 -13.3133 -13.1793 -13.1281
   -13.1179 -13.0368 -12.9780 -12.9570 -12.8282 -12.7979 -12.7150 -12.6541
   -12.6167 -12.5189 -12.4423 -12.3695  -3.1914  -3.0137  -2.8547  -2.7604
    -2.6722  -2.5997  -2.5344  -2.4504  -2.3879  -2.3577  -2.2965  -2.1963
    -2.1372  -2.1086  -2.0324  -1.9442  -1.8395  -1.7966  -1.7479  -1.6589
    -1.6530  -1.5961  -1.5924  -1.5111  -1.4600  -1.3501  -1.3054  -1.2592
    -1.2080  -1.1656  -1.0934  -1.0515  -1.0309  -0.9650  -0.8937  -0.8399
    -0.8180  -0.7498  -0.6944  -0.6021  -0.5898  -0.5285  -0.5024  -0.3352
    -0.3224  -0.2368  -0.2076  -0.1145  -0.0956  -0.0439  -0.0214   0.0777
     0.1559   0.1719   0.2938   0.3386   0.3611   0.3933   0.4504   0.4773
     0.5178   0.5944   0.6404   0.6966   0.7693   0.8307   0.8464   0.8848
     0.9465   0.9595   0.9884   1.0803   1.1404   1.1842   1.2183   1.2284
     1.2948   1.3539   1.4065   1.4310   1.4769   1.5313   1.5582   1.6338
     1.6600   1.6806   1.7252   1.7950   1.8559   1.8594   1.9041   1.9554
     1.9914   2.0316   2.1028   2.1274   2.2281   2.2638   2.3108   2.3908
     2.4730   2.4769   2.5077   2.6442   2.7904   2.9026   2.9976   3.0323
     5.1334   5.8911   6.0012   6.7738   6.8576   6.9231   7.0108   7.1965
     7.3331   7.4098   7.4947   7.6878   7.8504   7.9073   8.0405   8.0695
     8.1048   8.1500   8.2397   8.3056   8.3698   8.4266   8.5271   8.5952
     8.6210   8.7063   8.7964   8.8719   8.9276   8.9502   9.0208   9.1526
     9.1830   9.2057   9.2221   9.3315   9.4237   9.4573   9.5222   9.5635
     9.6051   9.6683   9.7249   9.7526   9.8381   9.9532   9.9685   9.9818
    10.0840  10.1245

     occupation numbers 
     1.0000   1.0000   1.0000   1.0000   1.0000   1.0000   1.0000   1.0000
     1.0000   1.0000   1.0000   1.0000   1.0000   1.0000   1.0000   1.0000
     1.0000   1.0000   1.0000   1.0000   1.0000   1.0000   1.0000   1.0000
     1.0000   1.0000   1.0000   1.0000   1.0000   1.0000   1.0000   1.0000
     1.0000   1.0000   1.0000   1.0000   1.0000   1.0000   1.0000   1.0000
     1.0000   1.0000   1.0000   1.0000   1.0000   1.0000   1.0000   1.0000
     1.0000   1.0000   1.0000   1.0000   1.0000   1.0000   1.0000   1.0000
     1.0000   1.0000   1.0000   1.0000   1.0000   1.0000   1.0000   1.0000
     1.0000   1.0000   1.0000   1.0000   1.0000   1.0000   1.0000   1.0000
     1.0000   1.0000   1.0000   1.0000   1.0000   1.0000   1.0000   1.0000
     1.0000   1.0000   1.0000   1.0000   1.0000   1.0000   1.0000   1.0000
     1.0000   1.0000   1.0000   1.0000   1.0000   1.0000   1.0000   1.0000
     1.0000   1.0000   1.0000   1.0000   1.0000   1.0000   1.0000   1.0000
     1.0000   1.0000   1.0000   1.0000   1.0000   1.0000   1.0000   1.0000
     1.0000   1.0000   1.0000   1.0000   1.0000   1.0000   1.0000   1.0000
     1.0000   1.0000   1.0000   1.0000   1.0000   1.0000   1.0000   1.0000
     1.0000   1.0000   1.0000   1.0000   1.0000   1.0000   1.0000   1.0000
     1.0000   1.0000   1.0000   1.0000   1.0000   1.0000   1.0000   1.0000
     1.0000   1.0000   1.0000   1.0000   1.0000   1.0000   1.0000   1.0000
     1.0000   1.0000   1.0000   1.0000   1.0000   1.0000   1.0000   1.0000
     1.0000   1.0000   1.0000   1.0000   1.0000   1.0000   1.0000   1.0000
     1.0000   1.0000   1.0000   1.0000   1.0000   1.0000   1.0000   1.0000
     1.0000   1.0000   1.0000   1.0000   1.0000   1.0000   1.0000   1.0000
     1.0000   1.0000   1.0000   1.0000   1.0000   1.0000   1.0000   1.0000
     1.0000   1.0000   1.0000   1.0000   1.0000   1.0000   1.0000   1.0000
     1.0000   1.0000   1.0000   1.0000   1.0000   1.0000   1.0000   1.0000
     1.0000   1.0000   1.0000   1.0000   1.0000   1.0000   1.0000   1.0000
     1.0000   1.0000   1.0000   1.0000   1.0000   1.0000   1.0000   1.0000
     1.0000   1.0000   1.0000   0.1050   0.0133   0.0016   0.0000   0.0000
     0.0000   0.0000   0.0000   0.0000   0.0000   0.0000   0.0000   0.0000
     0.0000   0.0000   0.0000   0.0000   0.0000   0.0000   0.0000   0.0000
     0.0000   0.0000   0.0000   0.0000   0.0000   0.0000   0.0000   0.0000
     0.0000   0.0000   0.0000   0.0000   0.0000   0.0000   0.0000   0.0000
     0.0000   0.0000   0.0000   0.0000   0.0000   0.0000   0.0000   0.0000
     0.0000   0.0000

          k = 0.0000-0.5200 0.0000 ( 45480 PWs)   bands (ev):

   -56.8519 -56.8457 -56.5909 -56.5842 -56.5559 -56.5529 -56.4183 -56.4115
   -56.3359 -56.3331 -56.2651 -56.2582 -56.1241 -56.1172 -56.0089 -56.0015
   -55.9597 -55.9531 -55.9163 -55.9091 -26.7482 -26.6714 -26.6637 -26.6175
   -26.5717 -26.5292 -26.4387 -26.3806 -26.3296 -26.2987 -26.2842 -26.2754
   -26.2323 -26.2225 -26.2061 -26.1936 -26.1890 -26.1650 -26.1634 -26.1550
   -26.1385 -26.1142 -26.0639 -26.0453 -26.0140 -26.0094 -26.0050 -25.9973
   -25.9863 -25.9589 -25.9457 -25.9439 -25.9197 -25.9035 -25.8889 -25.8842
   -25.8551 -25.8372 -25.8297 -25.8089 -25.7836 -25.7598 -25.7382 -25.7301
   -25.7173 -25.6988 -25.6654 -25.6627 -25.6445 -25.6075 -25.5855 -25.5791
   -25.5405 -25.5374 -25.5283 -25.4828 -25.4541 -25.4504 -25.3725 -25.3574
   -14.9279 -14.6075 -14.3935 -14.3284 -14.3250 -14.1550 -14.0238 -13.9764
   -13.9583 -13.7929 -13.7520 -13.7301 -13.7068 -13.6294 -13.5889 -13.5338
   -13.5107 -13.5036 -13.4799 -13.3596 -13.3275 -13.3213 -13.2659 -13.2479
   -13.2354 -13.2284 -13.1708 -13.0286 -13.0276 -12.8678 -12.8542 -12.7182
   -12.6515 -12.5822 -12.4964 -12.4545  -2.9920  -2.8761  -2.7255  -2.5345
    -2.5226  -2.5013  -2.3646  -2.3592  -2.2743  -2.2311  -2.2053  -2.0567
    -2.0424  -2.0014  -1.9178  -1.8661  -1.8194  -1.7947  -1.7146  -1.7044
    -1.6564  -1.6331  -1.6155  -1.5556  -1.5290  -1.4929  -1.4733  -1.4076
    -1.3918  -1.3255  -1.2380  -1.2340  -1.2031  -1.0032  -0.9377  -0.9099
    -0.8395  -0.7128  -0.6753  -0.6665  -0.6133  -0.5617  -0.4175  -0.3851
    -0.3423  -0.2194  -0.1913  -0.0985  -0.0259   0.0228   0.0709   0.0841
     0.1695   0.1736   0.3414   0.3570   0.4001   0.4071   0.4178   0.5350
     0.5813   0.6438   0.6882   0.7404   0.7846   0.8044   0.8566   0.9393
     0.9541   1.0288   1.0638   1.1489   1.1554   1.1785   1.2270   1.2852
     1.3306   1.3397   1.3483   1.4184   1.4761   1.4976   1.5048   1.5237
     1.5389   1.6147   1.6726   1.7071   1.7337   1.7463   1.8523   1.8851
     1.8933   1.8936   1.9407   2.0424   2.0636   2.1714   2.2170   2.2997
     2.3589   2.4461   2.5777   2.6090   2.7498   2.8717   2.9349   3.0841
     5.5050   5.8117   6.3575   6.4194   6.8903   7.0100   7.1661   7.1761
     7.2332   7.2799   7.4283   7.6123   7.6878   7.7752   7.7913   7.8265
     7.9261   7.9650   8.0347   8.1041   8.1627   8.2404   8.2833   8.4142
     8.5517   8.5914   8.6951   8.7661   8.8347   8.9027   8.9159   8.9507
     9.1681   9.2125   9.2584   9.3168   9.3544   9.4910   9.5129   9.6803
     9.7338   9.7345   9.7603   9.7609   9.8433   9.9819   9.9890  10.0058
    10.0735  10.2143

     occupation numbers 
     1.0000   1.0000   1.0000   1.0000   1.0000   1.0000   1.0000   1.0000
     1.0000   1.0000   1.0000   1.0000   1.0000   1.0000   1.0000   1.0000
     1.0000   1.0000   1.0000   1.0000   1.0000   1.0000   1.0000   1.0000
     1.0000   1.0000   1.0000   1.0000   1.0000   1.0000   1.0000   1.0000
     1.0000   1.0000   1.0000   1.0000   1.0000   1.0000   1.0000   1.0000
     1.0000   1.0000   1.0000   1.0000   1.0000   1.0000   1.0000   1.0000
     1.0000   1.0000   1.0000   1.0000   1.0000   1.0000   1.0000   1.0000
     1.0000   1.0000   1.0000   1.0000   1.0000   1.0000   1.0000   1.0000
     1.0000   1.0000   1.0000   1.0000   1.0000   1.0000   1.0000   1.0000
     1.0000   1.0000   1.0000   1.0000   1.0000   1.0000   1.0000   1.0000
     1.0000   1.0000   1.0000   1.0000   1.0000   1.0000   1.0000   1.0000
     1.0000   1.0000   1.0000   1.0000   1.0000   1.0000   1.0000   1.0000
     1.0000   1.0000   1.0000   1.0000   1.0000   1.0000   1.0000   1.0000
     1.0000   1.0000   1.0000   1.0000   1.0000   1.0000   1.0000   1.0000
     1.0000   1.0000   1.0000   1.0000   1.0000   1.0000   1.0000   1.0000
     1.0000   1.0000   1.0000   1.0000   1.0000   1.0000   1.0000   1.0000
     1.0000   1.0000   1.0000   1.0000   1.0000   1.0000   1.0000   1.0000
     1.0000   1.0000   1.0000   1.0000   1.0000   1.0000   1.0000   1.0000
     1.0000   1.0000   1.0000   1.0000   1.0000   1.0000   1.0000   1.0000
     1.0000   1.0000   1.0000   1.0000   1.0000   1.0000   1.0000   1.0000
     1.0000   1.0000   1.0000   1.0000   1.0000   1.0000   1.0000   1.0000
     1.0000   1.0000   1.0000   1.0000   1.0000   1.0000   1.0000   1.0000
     1.0000   1.0000   1.0000   1.0000   1.0000   1.0000   1.0000   1.0000
     1.0000   1.0000   1.0000   1.0000   1.0000   1.0000   1.0000   1.0000
     1.0000   1.0000   1.0000   1.0000   1.0000   1.0000   1.0000   1.0000
     1.0000   1.0000   1.0000   1.0000   1.0000   1.0000   1.0000   1.0000
     1.0000   1.0000   1.0000   1.0000   1.0000   1.0000   1.0000   1.0000
     1.0000   1.0000   1.0000   1.0000   1.0000   1.0000   1.0000   1.0000
     1.0000   1.0000   1.0118   1.0407   0.0049   0.0000   0.0000   0.0000
     0.0000   0.0000   0.0000   0.0000   0.0000   0.0000   0.0000   0.0000
     0.0000   0.0000   0.0000   0.0000   0.0000   0.0000   0.0000   0.0000
     0.0000   0.0000   0.0000   0.0000   0.0000   0.0000   0.0000   0.0000
     0.0000   0.0000   0.0000   0.0000   0.0000   0.0000   0.0000   0.0000
     0.0000   0.0000   0.0000   0.0000   0.0000   0.0000   0.0000   0.0000
     0.0000   0.0000

          k = 0.2500 0.0000 0.0000 ( 45654 PWs)   bands (ev):

   -56.8544 -56.8434 -56.5930 -56.5822 -56.5592 -56.5494 -56.4204 -56.4095
   -56.3387 -56.3305 -56.2672 -56.2563 -56.1262 -56.1152 -56.0112 -55.9995
   -55.9619 -55.9509 -55.9172 -55.9076 -26.7595 -26.7496 -26.7199 -26.6155
   -26.4969 -26.4680 -26.4464 -26.4225 -26.3712 -26.3334 -26.2926 -26.2856
   -26.2559 -26.1992 -26.1916 -26.1719 -26.1714 -26.1578 -26.1563 -26.1420
   -26.1317 -26.1053 -26.0765 -26.0472 -26.0199 -26.0132 -26.0063 -25.9972
   -25.9873 -25.9817 -25.9580 -25.9479 -25.9331 -25.9172 -25.9157 -25.8524
   -25.8435 -25.8379 -25.8169 -25.8025 -25.7731 -25.7296 -25.7290 -25.7065
   -25.6999 -25.6776 -25.6526 -25.6241 -25.6193 -25.6062 -25.5764 -25.5600
   -25.5354 -25.5160 -25.5047 -25.4927 -25.4380 -25.4336 -25.4002 -25.3594
   -15.3300 -14.9410 -14.7600 -14.5855 -14.4506 -14.3057 -14.1276 -14.0251
   -13.9289 -13.7950 -13.7738 -13.7658 -13.6479 -13.6329 -13.6218 -13.5870
   -13.5391 -13.4725 -13.3726 -13.3720 -13.3400 -13.3343 -13.1505 -13.1286
   -13.1273 -13.0508 -12.9537 -12.9515 -12.8040 -12.7967 -12.6769 -12.6667
   -12.5610 -12.5490 -12.4249 -12.4225  -3.0531  -2.8119  -2.7787  -2.6393
    -2.5414  -2.4357  -2.3795  -2.3789  -2.2690  -2.1947  -2.1643  -2.0870
    -2.0618  -2.0507  -1.9556  -1.8872  -1.8612  -1.7935  -1.7934  -1.7417
    -1.6329  -1.6091  -1.5862  -1.4730  -1.4133  -1.3956  -1.3748  -1.3227
    -1.2787  -1.2652  -1.2087  -1.1803  -1.0236  -0.9637  -0.9578  -0.8489
    -0.8267  -0.7400  -0.7039  -0.5803  -0.5775  -0.4931  -0.4730  -0.4466
    -0.2893  -0.2519  -0.2337  -0.1710  -0.1208  -0.1112  -0.0120   0.0464
     0.1659   0.1841   0.3146   0.3570   0.3832   0.4163   0.4523   0.4635
     0.5283   0.5313   0.5807   0.6679   0.6708   0.7213   0.7401   0.8698
     0.8908   0.8955   0.9421   0.9702   1.0469   1.0619   1.1034   1.1445
     1.2044   1.2457   1.2766   1.3201   1.3909   1.4170   1.4770   1.5383
     1.5979   1.6056   1.6373   1.7384   1.7750   1.8116   1.9060   1.9482
     2.0090   2.0326   2.0927   2.1811   2.2332   2.2748   2.2974   2.3901
     2.4142   2.5350   2.5567   2.6720   2.6842   2.7623   2.8227   2.8309
     5.1285   5.8785   5.9544   6.8469   6.8967   6.9638   7.1644   7.2203
     7.3744   7.5738   7.6461   7.9017   7.9958   8.0890   8.1977   8.3494
     8.3644   8.3809   8.5248   8.5774   8.6245   8.6734   8.6848   8.7591
     8.8284   8.8584   8.8940   8.9813   9.0109   9.0143   9.0438   9.1451
     9.1937   9.1938   9.2939   9.3433   9.3643   9.3685   9.4273   9.4799
     9.5354   9.5923   9.6526   9.7292   9.7608   9.7655   9.8057   9.9672
     9.9809   9.9923

     occupation numbers 
     1.0000   1.0000   1.0000   1.0000   1.0000   1.0000   1.0000   1.0000
     1.0000   1.0000   1.0000   1.0000   1.0000   1.0000   1.0000   1.0000
     1.0000   1.0000   1.0000   1.0000   1.0000   1.0000   1.0000   1.0000
     1.0000   1.0000   1.0000   1.0000   1.0000   1.0000   1.0000   1.0000
     1.0000   1.0000   1.0000   1.0000   1.0000   1.0000   1.0000   1.0000
     1.0000   1.0000   1.0000   1.0000   1.0000   1.0000   1.0000   1.0000
     1.0000   1.0000   1.0000   1.0000   1.0000   1.0000   1.0000   1.0000
     1.0000   1.0000   1.0000   1.0000   1.0000   1.0000   1.0000   1.0000
     1.0000   1.0000   1.0000   1.0000   1.0000   1.0000   1.0000   1.0000
     1.0000   1.0000   1.0000   1.0000   1.0000   1.0000   1.0000   1.0000
     1.0000   1.0000   1.0000   1.0000   1.0000   1.0000   1.0000   1.0000
     1.0000   1.0000   1.0000   1.0000   1.0000   1.0000   1.0000   1.0000
     1.0000   1.0000   1.0000   1.0000   1.0000   1.0000   1.0000   1.0000
     1.0000   1.0000   1.0000   1.0000   1.0000   1.0000   1.0000   1.0000
     1.0000   1.0000   1.0000   1.0000   1.0000   1.0000   1.0000   1.0000
     1.0000   1.0000   1.0000   1.0000   1.0000   1.0000   1.0000   1.0000
     1.0000   1.0000   1.0000   1.0000   1.0000   1.0000   1.0000   1.0000
     1.0000   1.0000   1.0000   1.0000   1.0000   1.0000   1.0000   1.0000
     1.0000   1.0000   1.0000   1.0000   1.0000   1.0000   1.0000   1.0000
     1.0000   1.0000   1.0000   1.0000   1.0000   1.0000   1.0000   1.0000
     1.0000   1.0000   1.0000   1.0000   1.0000   1.0000   1.0000   1.0000
     1.0000   1.0000   1.0000   1.0000   1.0000   1.0000   1.0000   1.0000
     1.0000   1.0000   1.0000   1.0000   1.0000   1.0000   1.0000   1.0000
     1.0000   1.0000   1.0000   1.0000   1.0000   1.0000   1.0000   1.0000
     1.0000   1.0000   1.0000   1.0000   1.0000   1.0000   1.0000   1.0000
     1.0000   1.0000   1.0000   1.0000   1.0000   1.0000   1.0000   1.0000
     1.0000   1.0000   1.0000   1.0000   1.0000   1.0000   1.0000   1.0000
     1.0000   1.0000   1.0000   1.0000   1.0000   1.0000   1.0000   1.0000
     1.0000   1.0000   1.0000   0.0180   0.0039   0.0003   0.0000   0.0000
     0.0000   0.0000   0.0000   0.0000   0.0000   0.0000   0.0000   0.0000
     0.0000   0.0000   0.0000   0.0000   0.0000   0.0000   0.0000   0.0000
     0.0000   0.0000   0.0000   0.0000   0.0000   0.0000   0.0000   0.0000
     0.0000   0.0000   0.0000   0.0000   0.0000   0.0000   0.0000   0.0000
     0.0000   0.0000   0.0000   0.0000   0.0000   0.0000   0.0000   0.0000
     0.0000   0.0000

          k = 0.2500 0.2600 0.0000 ( 45558 PWs)   bands (ev):

   -56.8530 -56.8446 -56.5917 -56.5834 -56.5579 -56.5508 -56.4191 -56.4107
   -56.3375 -56.3315 -56.2659 -56.2575 -56.1249 -56.1165 -56.0098 -56.0007
   -55.9606 -55.9522 -55.9164 -55.9088 -26.7962 -26.7402 -26.6914 -26.6444
   -26.5788 -26.4631 -26.4165 -26.3930 -26.3760 -26.3215 -26.3114 -26.2831
   -26.2388 -26.2221 -26.2043 -26.2016 -26.1932 -26.1771 -26.1640 -26.1384
   -26.1036 -26.0909 -26.0838 -26.0404 -26.0317 -26.0216 -26.0049 -25.9884
   -25.9851 -25.9811 -25.9719 -25.9493 -25.9280 -25.9183 -25.8903 -25.8819
   -25.8675 -25.8345 -25.8050 -25.7782 -25.7587 -25.7486 -25.7355 -25.7029
   -25.6885 -25.6772 -25.6526 -25.6235 -25.6122 -25.5896 -25.5755 -25.5527
   -25.5469 -25.5076 -25.4962 -25.4738 -25.4561 -25.4169 -25.3903 -25.3606
   -15.1382 -14.7888 -14.5880 -14.5105 -14.4559 -14.2736 -14.1478 -14.0479
   -13.9522 -13.8359 -13.7976 -13.7714 -13.7053 -13.6458 -13.6068 -13.5858
   -13.5426 -13.4771 -13.4492 -13.3806 -13.3251 -13.3091 -13.2760 -13.2051
   -13.0996 -13.0143 -12.9979 -12.9403 -12.8396 -12.8011 -12.7138 -12.6788
   -12.5958 -12.5548 -12.4371 -12.3855  -2.9592  -2.8156  -2.5974  -2.5314
    -2.5053  -2.4101  -2.3755  -2.2651  -2.1791  -2.1419  -2.1022  -2.0717
    -2.0289  -1.9610  -1.9369  -1.8525  -1.8040  -1.7921  -1.7236  -1.6879
    -1.6059  -1.5602  -1.5206  -1.4462  -1.4050  -1.3811  -1.3495  -1.3001
    -1.2541  -1.1935  -1.1302  -1.0604  -0.9865  -0.9654  -0.8849  -0.8640
    -0.8213  -0.7652  -0.7086  -0.6459  -0.5694  -0.5363  -0.5070  -0.4125
    -0.3935  -0.2642  -0.2322  -0.1582  -0.1436  -0.0783  -0.0414   0.0480
     0.1056   0.1456   0.2334   0.2907   0.3419   0.3903   0.4485   0.4913
     0.5202   0.5542   0.5945   0.6335   0.6713   0.7213   0.7515   0.8146
     0.8419   0.8810   0.9213   0.9577   1.0193   1.0367   1.1265   1.1445
     1.2033   1.2409   1.2773   1.2884   1.3334   1.3966   1.4551   1.5006
     1.5723   1.6083   1.6277   1.6699   1.7363   1.7721   1.8041   1.8421
     1.9118   2.0072   2.0601   2.1134   2.1632   2.1873   2.2641   2.3148
     2.3513   2.3971   2.4693   2.5135   2.6114   2.7247   2.8045   2.8902
     5.3123   5.9624   6.0767   6.6801   6.6859   6.8906   7.0378   7.2737
     7.3925   7.5451   7.6779   7.6874   7.7983   7.9364   8.0490   8.1135
     8.1358   8.1881   8.3005   8.3330   8.3866   8.4861   8.5053   8.5363
     8.5885   8.6205   8.6990   8.7165   8.8281   8.9174   8.9398   9.0278
     9.1247   9.1917   9.2244   9.3008   9.3323   9.3898   9.4186   9.4952
     9.5180   9.6131   9.6310   9.6803   9.7457   9.8291   9.9098   9.9625
     9.9952  10.0863

     occupation numbers 
     1.0000   1.0000   1.0000   1.0000   1.0000   1.0000   1.0000   1.0000
     1.0000   1.0000   1.0000   1.0000   1.0000   1.0000   1.0000   1.0000
     1.0000   1.0000   1.0000   1.0000   1.0000   1.0000   1.0000   1.0000
     1.0000   1.0000   1.0000   1.0000   1.0000   1.0000   1.0000   1.0000
     1.0000   1.0000   1.0000   1.0000   1.0000   1.0000   1.0000   1.0000
     1.0000   1.0000   1.0000   1.0000   1.0000   1.0000   1.0000   1.0000
     1.0000   1.0000   1.0000   1.0000   1.0000   1.0000   1.0000   1.0000
     1.0000   1.0000   1.0000   1.0000   1.0000   1.0000   1.0000   1.0000
     1.0000   1.0000   1.0000   1.0000   1.0000   1.0000   1.0000   1.0000
     1.0000   1.0000   1.0000   1.0000   1.0000   1.0000   1.0000   1.0000
     1.0000   1.0000   1.0000   1.0000   1.0000   1.0000   1.0000   1.0000
     1.0000   1.0000   1.0000   1.0000   1.0000   1.0000   1.0000   1.0000
     1.0000   1.0000   1.0000   1.0000   1.0000   1.0000   1.0000   1.0000
     1.0000   1.0000   1.0000   1.0000   1.0000   1.0000   1.0000   1.0000
     1.0000   1.0000   1.0000   1.0000   1.0000   1.0000   1.0000   1.0000
     1.0000   1.0000   1.0000   1.0000   1.0000   1.0000   1.0000   1.0000
     1.0000   1.0000   1.0000   1.0000   1.0000   1.0000   1.0000   1.0000
     1.0000   1.0000   1.0000   1.0000   1.0000   1.0000   1.0000   1.0000
     1.0000   1.0000   1.0000   1.0000   1.0000   1.0000   1.0000   1.0000
     1.0000   1.0000   1.0000   1.0000   1.0000   1.0000   1.0000   1.0000
     1.0000   1.0000   1.0000   1.0000   1.0000   1.0000   1.0000   1.0000
     1.0000   1.0000   1.0000   1.0000   1.0000   1.0000   1.0000   1.0000
     1.0000   1.0000   1.0000   1.0000   1.0000   1.0000   1.0000   1.0000
     1.0000   1.0000   1.0000   1.0000   1.0000   1.0000   1.0000   1.0000
     1.0000   1.0000   1.0000   1.0000   1.0000   1.0000   1.0000   1.0000
     1.0000   1.0000   1.0000   1.0000   1.0000   1.0000   1.0000   1.0000
     1.0000   1.0000   1.0000   1.0000   1.0000   1.0000   1.0000   1.0000
     1.0000   1.0000   1.0000   1.0000   1.0000   1.0000   1.0000   1.0000
     1.0000   1.0000   1.0000   0.4643   0.4341   0.0048   0.0000   0.0000
     0.0000   0.0000   0.0000   0.0000   0.0000   0.0000   0.0000   0.0000
     0.0000   0.0000   0.0000   0.0000   0.0000   0.0000   0.0000   0.0000
     0.0000   0.0000   0.0000   0.0000   0.0000   0.0000   0.0000   0.0000
     0.0000   0.0000   0.0000   0.0000   0.0000   0.0000   0.0000   0.0000
     0.0000   0.0000   0.0000   0.0000   0.0000   0.0000   0.0000   0.0000
     0.0000   0.0000

          k = 0.2500-0.5200 0.0000 ( 45398 PWs)   bands (ev):

   -56.8509 -56.8466 -56.5899 -56.5852 -56.5554 -56.5533 -56.4173 -56.4125
   -56.3354 -56.3335 -56.2641 -56.2592 -56.1231 -56.1182 -56.0078 -56.0025
   -55.9587 -55.9540 -55.9154 -55.9103 -26.7696 -26.7658 -26.7394 -26.6679
   -26.5118 -26.5016 -26.4355 -26.4090 -26.3694 -26.3555 -26.2970 -26.2955
   -26.2222 -26.2212 -26.2148 -26.2049 -26.1843 -26.1705 -26.1465 -26.1395
   -26.1280 -26.1178 -26.0720 -26.0666 -26.0331 -26.0078 -26.0013 -25.9959
   -25.9859 -25.9727 -25.9517 -25.9489 -25.9406 -25.9377 -25.8930 -25.8900
   -25.8427 -25.8418 -25.8002 -25.7950 -25.7598 -25.7596 -25.7263 -25.7075
   -25.6678 -25.6607 -25.6531 -25.6452 -25.5949 -25.5748 -25.5536 -25.5450
   -25.5257 -25.5072 -25.4906 -25.4716 -25.4517 -25.4428 -25.3744 -25.3646
   -14.8744 -14.5960 -14.5060 -14.3743 -14.2880 -14.2339 -14.1768 -14.0585
   -13.9978 -13.9255 -13.8892 -13.8172 -13.8055 -13.6979 -13.6125 -13.5967
   -13.5849 -13.5256 -13.5162 -13.4557 -13.3483 -13.3085 -13.2547 -13.1835
   -13.1224 -13.0834 -13.0259 -12.9401 -12.8603 -12.7946 -12.7100 -12.6447
   -12.5788 -12.5085 -12.4626 -12.4130  -2.7975  -2.7861  -2.5502  -2.4597
    -2.3564  -2.3382  -2.3120  -2.2117  -2.1885  -2.1703  -2.0268  -1.9835
    -1.9506  -1.9056  -1.8510  -1.7612  -1.7567  -1.6706  -1.6218  -1.5925
    -1.5777  -1.5684  -1.4847  -1.4716  -1.4481  -1.3861  -1.3029  -1.3014
    -1.2101  -1.2032  -1.1084  -1.0717  -1.0597  -0.9597  -0.8967  -0.8736
    -0.8553  -0.7874  -0.7182  -0.6723  -0.5657  -0.4976  -0.4219  -0.3258
    -0.2959  -0.2196  -0.1809  -0.0981  -0.0868  -0.0264   0.0176   0.0459
     0.0946   0.1092   0.1166   0.2145   0.2382   0.3028   0.3448   0.3478
     0.4217   0.4792   0.5073   0.5908   0.6218   0.6669   0.7336   0.7547
     0.7718   0.8646   0.9237   0.9768   0.9914   1.0779   1.1077   1.1109
     1.1905   1.2164   1.2692   1.2869   1.3901   1.4259   1.4342   1.4861
     1.5210   1.5917   1.6036   1.6644   1.6810   1.7240   1.7768   1.8519
     1.9281   1.9408   1.9739   1.9748   2.0859   2.1479   2.1622   2.2375
     2.2766   2.3933   2.4106   2.5355   2.5696   2.6401   2.7421   2.9231
     5.5505   5.9141   6.3042   6.4135   6.6524   6.9030   7.1252   7.1347
     7.1473   7.3326   7.4695   7.5253   7.6833   7.6839   7.8587   7.8725
     7.9218   7.9399   8.0033   8.1407   8.1416   8.2376   8.3140   8.3308
     8.3719   8.5173   8.5691   8.6090   8.7658   8.7950   8.9054   9.0055
     9.0229   9.0467   9.2033   9.2921   9.3543   9.4024   9.4477   9.5097
     9.5486   9.6556   9.6609   9.7545   9.8814   9.8985   9.9526  10.0258
    10.0837  10.1325

     occupation numbers 
     1.0000   1.0000   1.0000   1.0000   1.0000   1.0000   1.0000   1.0000
     1.0000   1.0000   1.0000   1.0000   1.0000   1.0000   1.0000   1.0000
     1.0000   1.0000   1.0000   1.0000   1.0000   1.0000   1.0000   1.0000
     1.0000   1.0000   1.0000   1.0000   1.0000   1.0000   1.0000   1.0000
     1.0000   1.0000   1.0000   1.0000   1.0000   1.0000   1.0000   1.0000
     1.0000   1.0000   1.0000   1.0000   1.0000   1.0000   1.0000   1.0000
     1.0000   1.0000   1.0000   1.0000   1.0000   1.0000   1.0000   1.0000
     1.0000   1.0000   1.0000   1.0000   1.0000   1.0000   1.0000   1.0000
     1.0000   1.0000   1.0000   1.0000   1.0000   1.0000   1.0000   1.0000
     1.0000   1.0000   1.0000   1.0000   1.0000   1.0000   1.0000   1.0000
     1.0000   1.0000   1.0000   1.0000   1.0000   1.0000   1.0000   1.0000
     1.0000   1.0000   1.0000   1.0000   1.0000   1.0000   1.0000   1.0000
     1.0000   1.0000   1.0000   1.0000   1.0000   1.0000   1.0000   1.0000
     1.0000   1.0000   1.0000   1.0000   1.0000   1.0000   1.0000   1.0000
     1.0000   1.0000   1.0000   1.0000   1.0000   1.0000   1.0000   1.0000
     1.0000   1.0000   1.0000   1.0000   1.0000   1.0000   1.0000   1.0000
     1.0000   1.0000   1.0000   1.0000   1.0000   1.0000   1.0000   1.0000
     1.0000   1.0000   1.0000   1.0000   1.0000   1.0000   1.0000   1.0000
     1.0000   1.0000   1.0000   1.0000   1.0000   1.0000   1.0000   1.0000
     1.0000   1.0000   1.0000   1.0000   1.0000   1.0000   1.0000   1.0000
     1.0000   1.0000   1.0000   1.0000   1.0000   1.0000   1.0000   1.0000
     1.0000   1.0000   1.0000   1.0000   1.0000   1.0000   1.0000   1.0000
     1.0000   1.0000   1.0000   1.0000   1.0000   1.0000   1.0000   1.0000
     1.0000   1.0000   1.0000   1.0000   1.0000   1.0000   1.0000   1.0000
     1.0000   1.0000   1.0000   1.0000   1.0000   1.0000   1.0000   1.0000
     1.0000   1.0000   1.0000   1.0000   1.0000   1.0000   1.0000   1.0000
     1.0000   1.0000   1.0000   1.0000   1.0000   1.0000   1.0000   1.0000
     1.0000   1.0000   1.0000   1.0000   1.0000   1.0000   1.0000   1.0000
     1.0000   1.0000   1.0028   1.0370   0.6158   0.0032   0.0000   0.0000
     0.0000   0.0000   0.0000   0.0000   0.0000   0.0000   0.0000   0.0000
     0.0000   0.0000   0.0000   0.0000   0.0000   0.0000   0.0000   0.0000
     0.0000   0.0000   0.0000   0.0000   0.0000   0.0000   0.0000   0.0000
     0.0000   0.0000   0.0000   0.0000   0.0000   0.0000   0.0000   0.0000
     0.0000   0.0000   0.0000   0.0000   0.0000   0.0000   0.0000   0.0000
     0.0000   0.0000

          k = 0.2500-0.2600 0.0000 ( 45558 PWs)   bands (ev):

   -56.8530 -56.8446 -56.5917 -56.5834 -56.5579 -56.5508 -56.4191 -56.4107
   -56.3375 -56.3315 -56.2659 -56.2575 -56.1249 -56.1165 -56.0098 -56.0007
   -55.9606 -55.9522 -55.9164 -55.9088 -26.7962 -26.7402 -26.6914 -26.6444
   -26.5788 -26.4631 -26.4165 -26.3930 -26.3760 -26.3215 -26.3114 -26.2831
   -26.2388 -26.2221 -26.2043 -26.2016 -26.1932 -26.1771 -26.1640 -26.1384
   -26.1036 -26.0909 -26.0838 -26.0404 -26.0317 -26.0216 -26.0049 -25.9884
   -25.9851 -25.9811 -25.9719 -25.9493 -25.9280 -25.9183 -25.8903 -25.8819
   -25.8675 -25.8345 -25.8050 -25.7782 -25.7587 -25.7486 -25.7355 -25.7029
   -25.6885 -25.6772 -25.6526 -25.6235 -25.6122 -25.5896 -25.5755 -25.5527
   -25.5469 -25.5076 -25.4962 -25.4738 -25.4561 -25.4169 -25.3903 -25.3606
   -15.1382 -14.7888 -14.5880 -14.5105 -14.4559 -14.2736 -14.1478 -14.0479
   -13.9522 -13.8359 -13.7976 -13.7714 -13.7053 -13.6458 -13.6068 -13.5858
   -13.5426 -13.4770 -13.4492 -13.3806 -13.3251 -13.3091 -13.2760 -13.2051
   -13.0996 -13.0144 -12.9979 -12.9403 -12.8396 -12.8011 -12.7138 -12.6789
   -12.5958 -12.5548 -12.4371 -12.3855  -2.9592  -2.8156  -2.5974  -2.5314
    -2.5053  -2.4101  -2.3755  -2.2651  -2.1791  -2.1419  -2.1022  -2.0717
    -2.0289  -1.9610  -1.9369  -1.8525  -1.8040  -1.7921  -1.7236  -1.6879
    -1.6059  -1.5602  -1.5206  -1.4462  -1.4050  -1.3811  -1.3495  -1.3001
    -1.2541  -1.1935  -1.1302  -1.0604  -0.9865  -0.9654  -0.8849  -0.8640
    -0.8213  -0.7652  -0.7086  -0.6459  -0.5694  -0.5363  -0.5070  -0.4125
    -0.3935  -0.2642  -0.2322  -0.1582  -0.1436  -0.0783  -0.0414   0.0480
     0.1056   0.1456   0.2334   0.2907   0.3419   0.3903   0.4485   0.4913
     0.5202   0.5542   0.5945   0.6335   0.6713   0.7213   0.7515   0.8146
     0.8419   0.8810   0.9213   0.9577   1.0193   1.0367   1.1265   1.1445
     1.2033   1.2409   1.2773   1.2884   1.3334   1.3966   1.4551   1.5006
     1.5723   1.6083   1.6277   1.6699   1.7363   1.7721   1.8041   1.8421
     1.9118   2.0072   2.0601   2.1134   2.1632   2.1873   2.2641   2.3148
     2.3513   2.3971   2.4693   2.5135   2.6114   2.7247   2.8045   2.8902
     5.3123   5.9624   6.0767   6.6801   6.6859   6.8905   7.0378   7.2737
     7.3925   7.5451   7.6779   7.6875   7.7983   7.9364   8.0490   8.1135
     8.1358   8.1881   8.3005   8.3330   8.3866   8.4861   8.5053   8.5363
     8.5885   8.6205   8.6990   8.7165   8.8281   8.9174   8.9398   9.0278
     9.1247   9.1917   9.2244   9.3008   9.3323   9.3898   9.4186   9.4952
     9.5180   9.6131   9.6310   9.6803   9.7457   9.8291   9.9098   9.9626
     9.9953  10.0837

     occupation numbers 
     1.0000   1.0000   1.0000   1.0000   1.0000   1.0000   1.0000   1.0000
     1.0000   1.0000   1.0000   1.0000   1.0000   1.0000   1.0000   1.0000
     1.0000   1.0000   1.0000   1.0000   1.0000   1.0000   1.0000   1.0000
     1.0000   1.0000   1.0000   1.0000   1.0000   1.0000   1.0000   1.0000
     1.0000   1.0000   1.0000   1.0000   1.0000   1.0000   1.0000   1.0000
     1.0000   1.0000   1.0000   1.0000   1.0000   1.0000   1.0000   1.0000
     1.0000   1.0000   1.0000   1.0000   1.0000   1.0000   1.0000   1.0000
     1.0000   1.0000   1.0000   1.0000   1.0000   1.0000   1.0000   1.0000
     1.0000   1.0000   1.0000   1.0000   1.0000   1.0000   1.0000   1.0000
     1.0000   1.0000   1.0000   1.0000   1.0000   1.0000   1.0000   1.0000
     1.0000   1.0000   1.0000   1.0000   1.0000   1.0000   1.0000   1.0000
     1.0000   1.0000   1.0000   1.0000   1.0000   1.0000   1.0000   1.0000
     1.0000   1.0000   1.0000   1.0000   1.0000   1.0000   1.0000   1.0000
     1.0000   1.0000   1.0000   1.0000   1.0000   1.0000   1.0000   1.0000
     1.0000   1.0000   1.0000   1.0000   1.0000   1.0000   1.0000   1.0000
     1.0000   1.0000   1.0000   1.0000   1.0000   1.0000   1.0000   1.0000
     1.0000   1.0000   1.0000   1.0000   1.0000   1.0000   1.0000   1.0000
     1.0000   1.0000   1.0000   1.0000   1.0000   1.0000   1.0000   1.0000
     1.0000   1.0000   1.0000   1.0000   1.0000   1.0000   1.0000   1.0000
     1.0000   1.0000   1.0000   1.0000   1.0000   1.0000   1.0000   1.0000
     1.0000   1.0000   1.0000   1.0000   1.0000   1.0000   1.0000   1.0000
     1.0000   1.0000   1.0000   1.0000   1.0000   1.0000   1.0000   1.0000
     1.0000   1.0000   1.0000   1.0000   1.0000   1.0000   1.0000   1.0000
     1.0000   1.0000   1.0000   1.0000   1.0000   1.0000   1.0000   1.0000
     1.0000   1.0000   1.0000   1.0000   1.0000   1.0000   1.0000   1.0000
     1.0000   1.0000   1.0000   1.0000   1.0000   1.0000   1.0000   1.0000
     1.0000   1.0000   1.0000   1.0000   1.0000   1.0000   1.0000   1.0000
     1.0000   1.0000   1.0000   1.0000   1.0000   1.0000   1.0000   1.0000
     1.0000   1.0000   1.0000   0.4642   0.4341   0.0048   0.0000   0.0000
     0.0000   0.0000   0.0000   0.0000   0.0000   0.0000   0.0000   0.0000
     0.0000   0.0000   0.0000   0.0000   0.0000   0.0000   0.0000   0.0000
     0.0000   0.0000   0.0000   0.0000   0.0000   0.0000   0.0000   0.0000
     0.0000   0.0000   0.0000   0.0000   0.0000   0.0000   0.0000   0.0000
     0.0000   0.0000   0.0000   0.0000   0.0000   0.0000   0.0000   0.0000
     0.0000   0.0000

          k =-0.5000 0.0000 0.0000 ( 45630 PWs)   bands (ev):

   -56.8489 -56.8489 -56.5876 -56.5876 -56.5544 -56.5543 -56.4149 -56.4149
   -56.3346 -56.3346 -56.2617 -56.2617 -56.1207 -56.1207 -56.0053 -56.0053
   -55.9564 -55.9564 -55.9125 -55.9125 -26.6785 -26.6785 -26.6609 -26.6609
   -26.5530 -26.5530 -26.4058 -26.4058 -26.3092 -26.3092 -26.2644 -26.2644
   -26.2418 -26.2418 -26.2042 -26.2042 -26.1581 -26.1581 -26.1543 -26.1543
   -26.1243 -26.1243 -26.0641 -26.0641 -25.9976 -25.9975 -25.9926 -25.9926
   -25.9758 -25.9758 -25.9213 -25.9213 -25.9163 -25.9163 -25.8849 -25.8849
   -25.8640 -25.8640 -25.8286 -25.8286 -25.7755 -25.7755 -25.7634 -25.7634
   -25.7039 -25.7039 -25.6716 -25.6716 -25.6030 -25.6030 -25.5811 -25.5811
   -25.5416 -25.5416 -25.4997 -25.4997 -25.4571 -25.4571 -25.3729 -25.3729
   -14.7164 -14.7164 -14.4002 -14.4002 -14.1805 -14.1804 -14.1203 -14.1203
   -13.9905 -13.9905 -13.8287 -13.8287 -13.6816 -13.6816 -13.6382 -13.6382
   -13.4906 -13.4906 -13.3995 -13.3995 -13.3292 -13.3292 -13.2451 -13.2451
   -13.1774 -13.1774 -13.0155 -13.0155 -12.8673 -12.8673 -12.7396 -12.7396
   -12.6532 -12.6532 -12.5525 -12.5525  -2.6004  -2.6004  -2.4199  -2.4199
    -2.2196  -2.2196  -2.1400  -2.1400  -2.0598  -2.0598  -1.9423  -1.9423
    -1.8310  -1.8310  -1.7607  -1.7607  -1.7348  -1.7348  -1.6713  -1.6713
    -1.6012  -1.6012  -1.4999  -1.4999  -1.4090  -1.4090  -1.2776  -1.2776
    -1.2271  -1.2271  -1.1839  -1.1839  -1.0905  -1.0905  -0.9412  -0.9412
    -0.9207  -0.9207  -0.8668  -0.8668  -0.7112  -0.7111  -0.6694  -0.6694
    -0.5346  -0.5346  -0.4203  -0.4203  -0.1709  -0.1708  -0.1286  -0.1286
    -0.0156  -0.0156   0.1175   0.1175   0.2857   0.2857   0.3999   0.3999
     0.4228   0.4228   0.5662   0.5662   0.7052   0.7052   0.7720   0.7720
     0.8924   0.8924   0.9776   0.9776   1.0436   1.0436   1.1727   1.1727
     1.2053   1.2053   1.3566   1.3566   1.4252   1.4252   1.5064   1.5064
     1.5529   1.5529   1.6801   1.6801   1.7830   1.7830   1.8083   1.8083
     1.9291   1.9291   2.0174   2.0174   2.1671   2.1671   2.2602   2.2602
     2.3445   2.3445   2.3907   2.3907   2.5444   2.5444   2.6802   2.6802
     5.6417   5.6417   6.5841   6.5841   6.7509   6.7509   7.5357   7.5357
     7.6271   7.6271   7.8024   7.8024   8.1615   8.1615   8.2985   8.2985
     8.3297   8.3297   8.3943   8.3943   8.5478   8.5478   8.7024   8.7024
     8.8318   8.8318   8.8883   8.8883   8.9837   8.9837   9.0641   9.0641
     9.1728   9.1728   9.2635   9.2635   9.3721   9.3721   9.4979   9.4979
     9.5940   9.5941   9.6787   9.6787   9.7578   9.7578   9.7901   9.7901
     9.9904   9.9904

     occupation numbers 
     1.0000   1.0000   1.0000   1.0000   1.0000   1.0000   1.0000   1.0000
     1.0000   1.0000   1.0000   1.0000   1.0000   1.0000   1.0000   1.0000
     1.0000   1.0000   1.0000   1.0000   1.0000   1.0000   1.0000   1.0000
     1.0000   1.0000   1.0000   1.0000   1.0000   1.0000   1.0000   1.0000
     1.0000   1.0000   1.0000   1.0000   1.0000   1.0000   1.0000   1.0000
     1.0000   1.0000   1.0000   1.0000   1.0000   1.0000   1.0000   1.0000
     1.0000   1.0000   1.0000   1.0000   1.0000   1.0000   1.0000   1.0000
     1.0000   1.0000   1.0000   1.0000   1.0000   1.0000   1.0000   1.0000
     1.0000   1.0000   1.0000   1.0000   1.0000   1.0000   1.0000   1.0000
     1.0000   1.0000   1.0000   1.0000   1.0000   1.0000   1.0000   1.0000
     1.0000   1.0000   1.0000   1.0000   1.0000   1.0000   1.0000   1.0000
     1.0000   1.0000   1.0000   1.0000   1.0000   1.0000   1.0000   1.0000
     1.0000   1.0000   1.0000   1.0000   1.0000   1.0000   1.0000   1.0000
     1.0000   1.0000   1.0000   1.0000   1.0000   1.0000   1.0000   1.0000
     1.0000   1.0000   1.0000   1.0000   1.0000   1.0000   1.0000   1.0000
     1.0000   1.0000   1.0000   1.0000   1.0000   1.0000   1.0000   1.0000
     1.0000   1.0000   1.0000   1.0000   1.0000   1.0000   1.0000   1.0000
     1.0000   1.0000   1.0000   1.0000   1.0000   1.0000   1.0000   1.0000
     1.0000   1.0000   1.0000   1.0000   1.0000   1.0000   1.0000   1.0000
     1.0000   1.0000   1.0000   1.0000   1.0000   1.0000   1.0000   1.0000
     1.0000   1.0000   1.0000   1.0000   1.0000   1.0000   1.0000   1.0000
     1.0000   1.0000   1.0000   1.0000   1.0000   1.0000   1.0000   1.0000
     1.0000   1.0000   1.0000   1.0000   1.0000   1.0000   1.0000   1.0000
     1.0000   1.0000   1.0000   1.0000   1.0000   1.0000   1.0000   1.0000
     1.0000   1.0000   1.0000   1.0000   1.0000   1.0000   1.0000   1.0000
     1.0000   1.0000   1.0000   1.0000   1.0000   1.0000   1.0000   1.0000
     1.0000   1.0000   1.0000   1.0000   1.0000   1.0000   1.0000   1.0000
     1.0000   1.0000   1.0000   1.0000   1.0000   1.0000   1.0000   1.0000
     1.0000   1.0000   0.9458   0.9457   0.1634   0.1634   0.0000   0.0000
     0.0000   0.0000   0.0000   0.0000   0.0000   0.0000   0.0000   0.0000
     0.0000   0.0000   0.0000   0.0000   0.0000   0.0000   0.0000   0.0000
     0.0000   0.0000   0.0000   0.0000   0.0000   0.0000   0.0000   0.0000
     0.0000   0.0000   0.0000   0.0000   0.0000   0.0000   0.0000   0.0000
     0.0000   0.0000   0.0000   0.0000   0.0000   0.0000   0.0000   0.0000
     0.0000   0.0000

          k =-0.5000 0.2600 0.0000 ( 45606 PWs)   bands (ev):

   -56.8488 -56.8488 -56.5875 -56.5875 -56.5544 -56.5544 -56.4149 -56.4149
   -56.3345 -56.3345 -56.2617 -56.2617 -56.1207 -56.1207 -56.0052 -56.0052
   -55.9564 -55.9564 -55.9128 -55.9128 -26.7644 -26.7644 -26.7008 -26.7008
   -26.5066 -26.5066 -26.4247 -26.4247 -26.3577 -26.3577 -26.2922 -26.2922
   -26.2257 -26.2257 -26.2031 -26.2031 -26.1765 -26.1765 -26.1419 -26.1419
   -26.1215 -26.1215 -26.0683 -26.0683 -26.0214 -26.0214 -25.9948 -25.9948
   -25.9766 -25.9766 -25.9491 -25.9491 -25.9356 -25.9356 -25.8923 -25.8923
   -25.8489 -25.8489 -25.7981 -25.7981 -25.7736 -25.7736 -25.7190 -25.7190
   -25.6637 -25.6637 -25.6448 -25.6448 -25.5836 -25.5836 -25.5465 -25.5465
   -25.5125 -25.5125 -25.4828 -25.4828 -25.4487 -25.4486 -25.3747 -25.3747
   -14.7213 -14.7213 -14.4506 -14.4506 -14.2360 -14.2360 -14.1199 -14.1199
   -14.0557 -14.0557 -13.9038 -13.9038 -13.7624 -13.7624 -13.6514 -13.6514
   -13.5734 -13.5734 -13.3993 -13.3993 -13.3464 -13.3464 -13.1585 -13.1585
   -13.1213 -13.1213 -12.9593 -12.9593 -12.8118 -12.8118 -12.6792 -12.6792
   -12.5597 -12.5597 -12.4490 -12.4490  -2.6430  -2.6430  -2.3666  -2.3666
    -2.2340  -2.2340  -2.1346  -2.1346  -2.0414  -2.0414  -1.9307  -1.9307
    -1.8022  -1.8022  -1.7016  -1.7016  -1.6559  -1.6559  -1.5826  -1.5826
    -1.5468  -1.5468  -1.4783  -1.4783  -1.3873  -1.3873  -1.2843  -1.2843
    -1.1777  -1.1777  -1.0729  -1.0729  -0.9983  -0.9983  -0.8827  -0.8827
    -0.7679  -0.7679  -0.6880  -0.6880  -0.6205  -0.6205  -0.5266  -0.5266
    -0.4227  -0.4227  -0.3257  -0.3257  -0.1819  -0.1819  -0.0854  -0.0854
    -0.0022  -0.0022   0.1048   0.1048   0.2017   0.2017   0.3228   0.3228
     0.3869   0.3869   0.4675   0.4675   0.5687   0.5687   0.6764   0.6764
     0.7747   0.7747   0.8975   0.8975   0.9954   0.9954   1.0812   1.0812
     1.1898   1.1898   1.2474   1.2474   1.3279   1.3279   1.4184   1.4184
     1.4816   1.4816   1.6222   1.6222   1.6732   1.6732   1.7720   1.7720
     1.8973   1.8973   1.9965   1.9965   2.1041   2.1041   2.2308   2.2309
     2.3286   2.3286   2.4068   2.4068   2.5194   2.5194   2.6972   2.6972
     5.6853   5.6853   6.4691   6.4692   6.7106   6.7106   7.2942   7.2942
     7.5063   7.5063   7.5352   7.5352   7.9225   7.9226   8.1253   8.1253
     8.1724   8.1724   8.2533   8.2534   8.4023   8.4024   8.4633   8.4633
     8.5920   8.5920   8.7401   8.7401   8.7980   8.7980   8.9623   8.9623
     9.0236   9.0236   9.1610   9.1610   9.2556   9.2556   9.3716   9.3717
     9.4975   9.4975   9.6750   9.6750   9.7553   9.7553   9.9195   9.9195
    10.0584  10.0585

     occupation numbers 
     1.0000   1.0000   1.0000   1.0000   1.0000   1.0000   1.0000   1.0000
     1.0000   1.0000   1.0000   1.0000   1.0000   1.0000   1.0000   1.0000
     1.0000   1.0000   1.0000   1.0000   1.0000   1.0000   1.0000   1.0000
     1.0000   1.0000   1.0000   1.0000   1.0000   1.0000   1.0000   1.0000
     1.0000   1.0000   1.0000   1.0000   1.0000   1.0000   1.0000   1.0000
     1.0000   1.0000   1.0000   1.0000   1.0000   1.0000   1.0000   1.0000
     1.0000   1.0000   1.0000   1.0000   1.0000   1.0000   1.0000   1.0000
     1.0000   1.0000   1.0000   1.0000   1.0000   1.0000   1.0000   1.0000
     1.0000   1.0000   1.0000   1.0000   1.0000   1.0000   1.0000   1.0000
     1.0000   1.0000   1.0000   1.0000   1.0000   1.0000   1.0000   1.0000
     1.0000   1.0000   1.0000   1.0000   1.0000   1.0000   1.0000   1.0000
     1.0000   1.0000   1.0000   1.0000   1.0000   1.0000   1.0000   1.0000
     1.0000   1.0000   1.0000   1.0000   1.0000   1.0000   1.0000   1.0000
     1.0000   1.0000   1.0000   1.0000   1.0000   1.0000   1.0000   1.0000
     1.0000   1.0000   1.0000   1.0000   1.0000   1.0000   1.0000   1.0000
     1.0000   1.0000   1.0000   1.0000   1.0000   1.0000   1.0000   1.0000
     1.0000   1.0000   1.0000   1.0000   1.0000   1.0000   1.0000   1.0000
     1.0000   1.0000   1.0000   1.0000   1.0000   1.0000   1.0000   1.0000
     1.0000   1.0000   1.0000   1.0000   1.0000   1.0000   1.0000   1.0000
     1.0000   1.0000   1.0000   1.0000   1.0000   1.0000   1.0000   1.0000
     1.0000   1.0000   1.0000   1.0000   1.0000   1.0000   1.0000   1.0000
     1.0000   1.0000   1.0000   1.0000   1.0000   1.0000   1.0000   1.0000
     1.0000   1.0000   1.0000   1.0000   1.0000   1.0000   1.0000   1.0000
     1.0000   1.0000   1.0000   1.0000   1.0000   1.0000   1.0000   1.0000
     1.0000   1.0000   1.0000   1.0000   1.0000   1.0000   1.0000   1.0000
     1.0000   1.0000   1.0000   1.0000   1.0000   1.0000   1.0000   1.0000
     1.0000   1.0000   1.0000   1.0000   1.0000   1.0000   1.0000   1.0000
     1.0000   1.0000   1.0000   1.0000   1.0000   1.0000   1.0000   1.0000
     1.0000   1.0000   1.0735   1.0735   0.3139   0.3139   0.0000   0.0000
     0.0000   0.0000   0.0000   0.0000   0.0000   0.0000   0.0000   0.0000
     0.0000   0.0000   0.0000   0.0000   0.0000   0.0000   0.0000   0.0000
     0.0000   0.0000   0.0000   0.0000   0.0000   0.0000   0.0000   0.0000
     0.0000   0.0000   0.0000   0.0000   0.0000   0.0000   0.0000   0.0000
     0.0000   0.0000   0.0000   0.0000   0.0000   0.0000   0.0000   0.0000
     0.0000   0.0000

          k =-0.5000-0.5200 0.0000 ( 45488 PWs)   bands (ev):

   -56.8487 -56.8487 -56.5875 -56.5875 -56.5544 -56.5544 -56.4149 -56.4149
   -56.3344 -56.3344 -56.2617 -56.2617 -56.1207 -56.1206 -56.0051 -56.0051
   -55.9563 -55.9563 -55.9130 -55.9130 -26.8137 -26.8137 -26.7407 -26.7407
   -26.5291 -26.5291 -26.4209 -26.4209 -26.3582 -26.3582 -26.3097 -26.3097
   -26.2513 -26.2513 -26.2419 -26.2419 -26.1845 -26.1845 -26.1124 -26.1124
   -26.1012 -26.1012 -26.0800 -26.0800 -26.0408 -26.0408 -26.0066 -26.0066
   -25.9908 -25.9908 -25.9648 -25.9648 -25.9104 -25.9104 -25.9034 -25.9034
   -25.8388 -25.8388 -25.7786 -25.7786 -25.7524 -25.7524 -25.6927 -25.6927
   -25.6439 -25.6438 -25.6125 -25.6125 -25.5772 -25.5772 -25.5055 -25.5055
   -25.4929 -25.4929 -25.4739 -25.4739 -25.4264 -25.4264 -25.3758 -25.3758
   -14.7342 -14.7342 -14.4923 -14.4922 -14.2806 -14.2805 -14.1220 -14.1220
   -14.1037 -14.1037 -13.9593 -13.9593 -13.8448 -13.8448 -13.7109 -13.7109
   -13.6117 -13.6117 -13.4379 -13.4379 -13.3019 -13.3019 -13.1176 -13.1176
   -13.0539 -13.0539 -12.9029 -12.9029 -12.7514 -12.7514 -12.6109 -12.6109
   -12.4694 -12.4694 -12.3864 -12.3864  -2.4653  -2.4653  -2.2865  -2.2865
    -2.1665  -2.1665  -2.0860  -2.0860  -1.9812  -1.9812  -1.9114  -1.9114
    -1.8596  -1.8596  -1.7883  -1.7883  -1.6923  -1.6923  -1.6003  -1.6003
    -1.5685  -1.5685  -1.5021  -1.5021  -1.3785  -1.3785  -1.2524  -1.2524
    -1.1869  -1.1869  -1.0091  -1.0091  -0.8448  -0.8448  -0.7865  -0.7865
    -0.6676  -0.6676  -0.6126  -0.6126  -0.5338  -0.5338  -0.4444  -0.4444
    -0.3664  -0.3664  -0.2287  -0.2287  -0.1463  -0.1463  -0.0605  -0.0605
     0.0411   0.0411   0.1131   0.1131   0.2306   0.2307   0.2591   0.2591
     0.4006   0.4006   0.4714   0.4714   0.5596   0.5596   0.6605   0.6605
     0.7955   0.7955   0.8287   0.8287   0.8891   0.8891   0.9839   0.9839
     1.0604   1.0604   1.2102   1.2103   1.2965   1.2965   1.4049   1.4049
     1.4363   1.4363   1.5323   1.5324   1.5909   1.5909   1.7321   1.7321
     1.8698   1.8698   1.9645   1.9645   2.0663   2.0663   2.1326   2.1326
     2.2223   2.2224   2.3729   2.3729   2.4391   2.4391   2.6097   2.6097
     5.8000   5.8000   6.4453   6.4453   6.5968   6.5969   6.8406   6.8407
     7.3587   7.3587   7.4486   7.4486   7.7029   7.7029   7.9112   7.9112
     8.0633   8.0633   8.1180   8.1180   8.2115   8.2115   8.2844   8.2844
     8.3949   8.3949   8.5273   8.5273   8.6677   8.6677   8.8006   8.8006
     8.9394   8.9394   9.0089   9.0089   9.1875   9.1875   9.3983   9.3983
     9.5525   9.5525   9.7175   9.7175   9.8089   9.8089   9.9396   9.9396
    10.0532  10.0536

     occupation numbers 
     1.0000   1.0000   1.0000   1.0000   1.0000   1.0000   1.0000   1.0000
     1.0000   1.0000   1.0000   1.0000   1.0000   1.0000   1.0000   1.0000
     1.0000   1.0000   1.0000   1.0000   1.0000   1.0000   1.0000   1.0000
     1.0000   1.0000   1.0000   1.0000   1.0000   1.0000   1.0000   1.0000
     1.0000   1.0000   1.0000   1.0000   1.0000   1.0000   1.0000   1.0000
     1.0000   1.0000   1.0000   1.0000   1.0000   1.0000   1.0000   1.0000
     1.0000   1.0000   1.0000   1.0000   1.0000   1.0000   1.0000   1.0000
     1.0000   1.0000   1.0000   1.0000   1.0000   1.0000   1.0000   1.0000
     1.0000   1.0000   1.0000   1.0000   1.0000   1.0000   1.0000   1.0000
     1.0000   1.0000   1.0000   1.0000   1.0000   1.0000   1.0000   1.0000
     1.0000   1.0000   1.0000   1.0000   1.0000   1.0000   1.0000   1.0000
     1.0000   1.0000   1.0000   1.0000   1.0000   1.0000   1.0000   1.0000
     1.0000   1.0000   1.0000   1.0000   1.0000   1.0000   1.0000   1.0000
     1.0000   1.0000   1.0000   1.0000   1.0000   1.0000   1.0000   1.0000
     1.0000   1.0000   1.0000   1.0000   1.0000   1.0000   1.0000   1.0000
     1.0000   1.0000   1.0000   1.0000   1.0000   1.0000   1.0000   1.0000
     1.0000   1.0000   1.0000   1.0000   1.0000   1.0000   1.0000   1.0000
     1.0000   1.0000   1.0000   1.0000   1.0000   1.0000   1.0000   1.0000
     1.0000   1.0000   1.0000   1.0000   1.0000   1.0000   1.0000   1.0000
     1.0000   1.0000   1.0000   1.0000   1.0000   1.0000   1.0000   1.0000
     1.0000   1.0000   1.0000   1.0000   1.0000   1.0000   1.0000   1.0000
     1.0000   1.0000   1.0000   1.0000   1.0000   1.0000   1.0000   1.0000
     1.0000   1.0000   1.0000   1.0000   1.0000   1.0000   1.0000   1.0000
     1.0000   1.0000   1.0000   1.0000   1.0000   1.0000   1.0000   1.0000
     1.0000   1.0000   1.0000   1.0000   1.0000   1.0000   1.0000   1.0000
     1.0000   1.0000   1.0000   1.0000   1.0000   1.0000   1.0000   1.0000
     1.0000   1.0000   1.0000   1.0000   1.0000   1.0000   1.0000   1.0000
     1.0000   1.0000   1.0000   1.0000   1.0000   1.0000   1.0000   1.0000
     1.0000   1.0000   1.0582   1.0582   0.8964   0.8963   0.0214   0.0213
     0.0000   0.0000   0.0000   0.0000   0.0000   0.0000   0.0000   0.0000
     0.0000   0.0000   0.0000   0.0000   0.0000   0.0000   0.0000   0.0000
     0.0000   0.0000   0.0000   0.0000   0.0000   0.0000   0.0000   0.0000
     0.0000   0.0000   0.0000   0.0000   0.0000   0.0000   0.0000   0.0000
     0.0000   0.0000   0.0000   0.0000   0.0000   0.0000   0.0000   0.0000
     0.0000   0.0000

     the Fermi energy is     6.6924 ev

!    total energy              =   -3121.43985361 Ry
     estimated scf accuracy    <          5.4E-12 Ry
     smearing contrib. (-TS)   =      -0.00211698 Ry
     internal energy E=F+TS    =   -3121.43773662 Ry

     The total energy is F=E-TS. E is the sum of the following terms:
     one-electron contribution =  -97174.05137987 Ry
     hartree contribution      =   48676.91701034 Ry
     xc contribution           =    -490.49086583 Ry
     ewald contribution        =   45866.18810082 Ry
     electric field correction =      -0.00060209 Ry

     convergence has been achieved in  32 iterations

     Forces acting on atoms (cartesian axes, Ry/au):

     atom    1 type  1   force =     0.00000917   -0.00000081    0.00000532
     atom    2 type  1   force =     0.00000558    0.00000233   -0.00000249
     atom    3 type  1   force =    -0.00000354   -0.00000421    0.00000150
     atom    4 type  1   force =    -0.00001052    0.00000453   -0.00000089
     atom    5 type  1   force =     0.00000686    0.00000645    0.00000308
     atom    6 type  1   force =     0.00000928    0.00000081    0.00000527
     atom    7 type  1   force =     0.00000550   -0.00000268   -0.00000240
     atom    8 type  1   force =    -0.00000365    0.00000382    0.00000156
     atom    9 type  1   force =    -0.00001053   -0.00000455   -0.00000078
     atom   10 type  1   force =     0.00000686   -0.00000638    0.00000328
     atom   11 type  1   force =     0.00001452    0.00000127   -0.00000392
     atom   12 type  1   force =    -0.00000026   -0.00000254    0.00000274
     atom   13 type  1   force =    -0.00000721    0.00000059    0.00000401
     atom   14 type  1   force =    -0.00000858    0.00000349    0.00000136
     atom   15 type  1   force =    -0.00000716    0.00000304   -0.00000067
     atom   16 type  1   force =     0.00001447   -0.00000137   -0.00000398
     atom   17 type  1   force =    -0.00000024    0.00000273    0.00000277
     atom   18 type  1   force =    -0.00000720   -0.00000030    0.00000405
     atom   19 type  1   force =    -0.00000862   -0.00000360    0.00000151
     atom   20 type  1   force =    -0.00000761   -0.00000288   -0.00000051
     atom   21 type  2   force =     0.00000069   -0.00000306   -0.00000796
     atom   22 type  2   force =    -0.00001475    0.00000169    0.00000192
     atom   23 type  2   force =     0.00000286   -0.00000504   -0.00000085
     atom   24 type  2   force =     0.00000745   -0.00000157    0.00000123
     atom   25 type  2   force =     0.00000242    0.00001456   -0.00000506
     atom   26 type  2   force =     0.00000069    0.00000313   -0.00000820
     atom   27 type  2   force =    -0.00001446   -0.00000164    0.00000169
     atom   28 type  2   force =     0.00000316    0.00000511   -0.00000128
     atom   29 type  2   force =     0.00000755    0.00000158    0.00000105
     atom   30 type  2   force =     0.00000260   -0.00001432   -0.00000518
     atom   31 type  2   force =    -0.00000108    0.00000231    0.00000373
     atom   32 type  2   force =    -0.00000163    0.00000477    0.00001168
     atom   33 type  2   force =     0.00000323   -0.00000035   -0.00000005
     atom   34 type  2   force =     0.00000651    0.00000535   -0.00000419
     atom   35 type  2   force =     0.00000156   -0.00000565   -0.00000744
     atom   36 type  2   force =    -0.00000718   -0.00000335    0.00000257
     atom   37 type  2   force =     0.00000077    0.00000564   -0.00000713
     atom   38 type  2   force =     0.00001159   -0.00000044   -0.00000268
     atom   39 type  2   force =     0.00000018    0.00000342    0.00000734
     atom   40 type  2   force =    -0.00000715    0.00000320    0.00000278
     atom   41 type  2   force =     0.00000086   -0.00000561   -0.00000660
     atom   42 type  2   force =     0.00001184    0.00000045   -0.00000235
     atom   43 type  2   force =     0.00000010   -0.00000343    0.00000746
     atom   44 type  2   force =    -0.00000110   -0.00000231    0.00000370
     atom   45 type  2   force =    -0.00000875   -0.00000007   -0.00000907
     atom   46 type  2   force =    -0.00000155   -0.00000504    0.00001164
     atom   47 type  2   force =    -0.00000350   -0.00000139   -0.00000383
     atom   48 type  2   force =     0.00000330    0.00000002   -0.00000023
     atom   49 type  2   force =     0.00000388   -0.00000422    0.00000202
     atom   50 type  2   force =     0.00000655   -0.00000584   -0.00000422
     atom   51 type  2   force =    -0.00000342    0.00000172    0.00000740
     atom   52 type  2   force =     0.00000156    0.00000566   -0.00000744
     atom   53 type  2   force =    -0.00000873   -0.00000002   -0.00000905
     atom   54 type  2   force =    -0.00000356    0.00000179   -0.00000384
     atom   55 type  2   force =     0.00000378    0.00000460    0.00000219
     atom   56 type  2   force =    -0.00000339   -0.00000141    0.00000741
     The non-local contrib.  to forces
     atom    1 type  1   force =    -0.01911312    0.01974723   -0.06897092
     atom    2 type  1   force =    -0.03050491    0.07125548    0.01776086
     atom    3 type  1   force =    -0.02863271    0.06461221    0.02417988
     atom    4 type  1   force =    -0.02883123    0.06451838    0.03147282
     atom    5 type  1   force =    -0.04823924    0.04600496    0.06616982
     atom    6 type  1   force =    -0.01911347   -0.01974710   -0.06897131
     atom    7 type  1   force =    -0.03050491   -0.07125565    0.01775912
     atom    8 type  1   force =    -0.02863344   -0.06461157    0.02417799
     atom    9 type  1   force =    -0.02883229   -0.06451708    0.03147087
     atom   10 type  1   force =    -0.04824076   -0.04600405    0.06617287
     atom   11 type  1   force =     0.03007774   -0.08231964   -0.01153341
     atom   12 type  1   force =     0.02911945   -0.06668636    0.02270556
     atom   13 type  1   force =     0.02894179   -0.06458716    0.02625878
     atom   14 type  1   force =     0.03151945   -0.07439137    0.05027692
     atom   15 type  1   force =     0.03189091   -0.06096243    0.24612893
     atom   16 type  1   force =     0.03007800    0.08231867   -0.01153418
     atom   17 type  1   force =     0.02911937    0.06668694    0.02270804
     atom   18 type  1   force =     0.02894091    0.06458802    0.02626118
     atom   19 type  1   force =     0.03151878    0.07439187    0.05027764
     atom   20 type  1   force =     0.03189474    0.06096165    0.24612764
     atom   21 type  2   force =    -0.08868705    0.04649511    0.05274851
     atom   22 type  2   force =    -0.07253100    0.06607117    0.02403425
     atom   23 type  2   force =    -0.08060564    0.07180707    0.02508101
     atom   24 type  2   force =    -0.09185528    0.07589977    0.04065902
     atom   25 type  2   force =    -0.10345259    0.10185479    0.27573619
     atom   26 type  2   force =    -0.08868694   -0.04649608    0.05275260
     atom   27 type  2   force =    -0.07253187   -0.06606943    0.02402453
     atom   28 type  2   force =    -0.08061164   -0.07180409    0.02506724
     atom   29 type  2   force =    -0.09186476   -0.07589819    0.04065069
     atom   30 type  2   force =    -0.10345766   -0.10185409    0.27573273
     atom   31 type  2   force =    -0.02472756   -0.17308572   -0.02787232
     atom   32 type  2   force =    -0.04167791   -0.14910738   -0.00994858
     atom   33 type  2   force =    -0.03951380   -0.14730555   -0.00337452
     atom   34 type  2   force =    -0.03445150   -0.14939558    0.00232194
     atom   35 type  2   force =    -0.09908128   -0.06981445   -0.04611183
     atom   36 type  2   force =     0.05458050    0.05987396    0.01596427
     atom   37 type  2   force =     0.07812261    0.06981438    0.02390413
     atom   38 type  2   force =     0.08472318    0.07354128    0.02635570
     atom   39 type  2   force =     0.12780998    0.08756900    0.03935627
     atom   40 type  2   force =     0.05457761   -0.05987512    0.01595954
     atom   41 type  2   force =     0.07813136   -0.06981355    0.02389388
     atom   42 type  2   force =     0.08473450   -0.07353900    0.02634495
     atom   43 type  2   force =     0.12781613   -0.08756911    0.03934757
     atom   44 type  2   force =    -0.02472452    0.17308699   -0.02787108
     atom   45 type  2   force =     0.04639640    0.15142005   -0.02090687
     atom   46 type  2   force =    -0.04168596    0.14910590   -0.00994909
     atom   47 type  2   force =     0.04015963    0.14812970   -0.00515384
     atom   48 type  2   force =    -0.03952626    0.14730405   -0.00337684
     atom   49 type  2   force =     0.03833012    0.14849921    0.00112815
     atom   50 type  2   force =    -0.03446036    0.14939532    0.00232079
     atom   51 type  2   force =     0.02179852    0.15196097    0.05486021
     atom   52 type  2   force =    -0.09908757    0.06981191   -0.04611563
     atom   53 type  2   force =     0.04639411   -0.15142271   -0.02090495
     atom   54 type  2   force =     0.04014717   -0.14813245   -0.00515174
     atom   55 type  2   force =     0.03831638   -0.14850123    0.00112938
     atom   56 type  2   force =     0.02179455   -0.15195926    0.05486096
     The ionic contribution  to forces
     atom    1 type  1   force =    -1.62553270    1.06543773 -342.68945203
     atom    2 type  1   force =    -1.84466752   -2.36141194 -189.08860390
     atom    3 type  1   force =    -1.80240731   -2.80492540  -33.78481263
     atom    4 type  1   force =    -1.85691280   -2.78844082  121.85836013
     atom    5 type  1   force =    -2.42742924   -3.35816835  282.33262269
     atom    6 type  1   force =    -1.62552764   -1.06544821 -342.68947396
     atom    7 type  1   force =    -1.84463706    2.36141860 -189.08868656
     atom    8 type  1   force =    -1.80240996    2.80493611  -33.78496342
     atom    9 type  1   force =    -1.85694202    2.78845667  121.85818442
     atom   10 type  1   force =    -2.42743767    3.35816985  282.33246704
     atom   11 type  1   force =     1.90001937    1.60015639 -267.11674887
     atom   12 type  1   force =     1.81392022    2.68369416 -111.43497533
     atom   13 type  1   force =     1.81594131    2.82848603   43.91357838
     atom   14 type  1   force =     1.98830004    2.53388975  200.30150937
     atom   15 type  1   force =     0.27485651    5.32254198  347.01542852
     atom   16 type  1   force =     1.89999751   -1.60015561 -267.11676699
     atom   17 type  1   force =     1.81394291   -2.68367647 -111.43479021
     atom   18 type  1   force =     1.81593752   -2.82847198   43.91379471
     atom   19 type  1   force =     1.98826472   -2.53388940  200.30163157
     atom   20 type  1   force =     0.27488221   -5.32257811  347.01540395
     atom   21 type  2   force =     1.02715306    0.30609202 -162.40705265
     atom   22 type  2   force =     1.02250785    0.62686784  -85.53496247
     atom   23 type  2   force =     1.08055665    0.64490642   -8.23620535
     atom   24 type  2   force =     1.18293979    0.61938381   69.07602896
     atom   25 type  2   force =     1.18849533    0.95763247  144.37041328
     atom   26 type  2   force =     1.02712895   -0.30608755 -162.40712439
     atom   27 type  2   force =     1.02255173   -0.62686184  -85.53476969
     atom   28 type  2   force =     1.08063071   -0.64491900   -8.23600226
     atom   29 type  2   force =     1.18299933   -0.61941266   69.07610296
     atom   30 type  2   force =     1.18852556   -0.95764187  144.37036810
     atom   31 type  2   force =     0.16583324    2.38563674 -155.02651848
     atom   32 type  2   force =     0.28855258    2.44789519  -75.60313720
     atom   33 type  2   force =     0.28545210    2.46952158    2.20693216
     atom   34 type  2   force =     0.26787934    2.52705089   80.33472003
     atom   35 type  2   force =     0.80082457    1.78101643  162.24269525
     atom   36 type  2   force =    -0.87067754    0.58224683 -123.71570477
     atom   37 type  2   force =    -1.06211019    0.64312676  -46.93820719
     atom   38 type  2   force =    -1.11542048    0.63865776   30.49522209
     atom   39 type  2   force =    -1.47220198    0.51775227  107.71272105
     atom   40 type  2   force =    -0.87066307   -0.58222069 -123.71563248
     atom   41 type  2   force =    -1.06218339   -0.64312876  -46.93808273
     atom   42 type  2   force =    -1.11550360   -0.63868442   30.49536761
     atom   43 type  2   force =    -1.47225181   -0.51775047  107.71280202
     atom   44 type  2   force =     0.16581988   -2.38564285 -155.02652032
     atom   45 type  2   force =    -0.30578239   -2.38314990 -114.69882609
     atom   46 type  2   force =     0.28861697   -2.44791006  -75.60311509
     atom   47 type  2   force =    -0.28622316   -2.46474128  -36.67736423
     atom   48 type  2   force =     0.28554664   -2.46952980    2.20699346
     atom   49 type  2   force =    -0.28088803   -2.49269135   41.11520017
     atom   50 type  2   force =     0.26795450   -2.52704629   80.33477271
     atom   51 type  2   force =    -0.15321020   -2.67357580  119.97678253
     atom   52 type  2   force =     0.80086393   -1.78098680  162.24277098
     atom   53 type  2   force =    -0.30576085    2.38314057 -114.69884918
     atom   54 type  2   force =    -0.28612310    2.46475029  -36.67740856
     atom   55 type  2   force =    -0.28078734    2.49271499   41.11514582
     atom   56 type  2   force =    -0.15320397    2.67356758  119.97673706
     The local contribution  to forces
     atom    1 type  1   force =     1.64466134   -1.08518533  342.76054132
     atom    2 type  1   force =     1.87518433    2.29015880  189.07295338
     atom    3 type  1   force =     1.83104285    2.74030890   33.76274292
     atom    4 type  1   force =     1.88573986    2.72392685 -121.88772206
     atom    5 type  1   force =     2.47568162    3.31216986 -282.39668140
     atom    6 type  1   force =     1.64465674    1.08519547  342.76056359
     atom    7 type  1   force =     1.87515378   -2.29016586  189.07303788
     atom    8 type  1   force =     1.83104611   -2.74032088   33.76289566
     atom    9 type  1   force =     1.88577013   -2.72394424 -121.88754429
     atom   10 type  1   force =     2.47569157   -3.31217241 -282.39652861
     atom   11 type  1   force =    -1.93007620   -1.51783578  267.13039016
     atom   12 type  1   force =    -1.84303360   -2.61701050  111.41438319
     atom   13 type  1   force =    -1.84488399   -2.76389832  -43.93772155
     atom   14 type  1   force =    -2.01982172   -2.45949511 -200.34967421
     atom   15 type  1   force =    -0.30674824   -5.26157650 -347.25944634
     atom   16 type  1   force =    -1.93005465    1.51783565  267.13040901
     atom   17 type  1   force =    -1.84305619    2.61699219  111.41419562
     atom   18 type  1   force =    -1.84487931    2.76388348  -43.93794024
     atom   19 type  1   force =    -2.01978578    2.45949394 -200.34979699
     atom   20 type  1   force =    -0.30677822    5.26161334 -347.25942032
     atom   21 type  2   force =    -0.93845901   -0.35259040  162.35535138
     atom   22 type  2   force =    -0.94998526   -0.69293750   85.51198518
     atom   23 type  2   force =    -0.99994180   -0.71671868    8.21217617
     atom   24 type  2   force =    -1.09107076   -0.69528527  -69.11563235
     atom   25 type  2   force =    -1.08503393   -1.05947286 -144.64510240
     atom   26 type  2   force =    -0.93843499    0.35258675  162.35541878
     atom   27 type  2   force =    -0.95002799    0.69292958   85.51180190
     atom   28 type  2   force =    -1.00000956    0.71672812    8.21198641
     atom   29 type  2   force =    -1.09112071    0.69531233  -69.11569820
     atom   30 type  2   force =    -1.08505891    1.05948158 -144.64505388
     atom   31 type  2   force =    -0.14110046   -2.21254889  155.05544939
     atom   32 type  2   force =    -0.24686997   -2.29878320   75.61415226
     atom   33 type  2   force =    -0.24592874   -2.32221649   -2.20250450
     atom   34 type  2   force =    -0.23341499   -2.37765010  -80.33599183
     atom   35 type  2   force =    -0.70173548   -1.71120772 -162.19553796
     atom   36 type  2   force =     0.81609617   -0.64212429  123.70079790
     atom   37 type  2   force =     0.98399471   -0.71293557   46.91534877
     atom   38 type  2   force =     1.03071525   -0.71219956  -30.52052611
     atom   39 type  2   force =     1.34439855   -0.60531799 -107.75101684
     atom   40 type  2   force =     0.81608461    0.64209894  123.70073057
     atom   41 type  2   force =     0.98405925    0.71293654   46.91523508
     atom   42 type  2   force =     1.03078731    0.71222373  -30.52066056
     atom   43 type  2   force =     1.34444216    0.60531607 -107.75108900
     atom   44 type  2   force =    -0.14109016    2.21255350  155.05544997
     atom   45 type  2   force =     0.25938360    2.23172967  114.72077886
     atom   46 type  2   force =    -0.24692623    2.29879907   75.61413062
     atom   47 type  2   force =     0.24606636    2.31661011   36.68356646
     atom   48 type  2   force =    -0.24601075    2.32222565   -2.20256367
     atom   49 type  2   force =     0.24256813    2.34418784  -41.11527182
     atom   50 type  2   force =    -0.23348124    2.37764507  -80.33604340
     atom   51 type  2   force =     0.13141459    2.52161649 -120.03058279
     atom   52 type  2   force =    -0.70176855    1.71118044 -162.19560989
     atom   53 type  2   force =     0.25936437   -2.23171799  114.72080004
     atom   54 type  2   force =     0.24597870   -2.31661619   36.68360867
     atom   55 type  2   force =     0.24248107   -2.34420930  -41.11521854
     atom   56 type  2   force =     0.13141235   -2.52160990 -120.03053807
     The core correction contribution to forces
     atom    1 type  1   force =     0.00000000    0.00000000    0.00000000
     atom    2 type  1   force =     0.00000000    0.00000000    0.00000000
     atom    3 type  1   force =     0.00000000    0.00000000    0.00000000
     atom    4 type  1   force =     0.00000000    0.00000000    0.00000000
     atom    5 type  1   force =     0.00000000    0.00000000    0.00000000
     atom    6 type  1   force =     0.00000000    0.00000000    0.00000000
     atom    7 type  1   force =     0.00000000    0.00000000    0.00000000
     atom    8 type  1   force =     0.00000000    0.00000000    0.00000000
     atom    9 type  1   force =     0.00000000    0.00000000    0.00000000
     atom   10 type  1   force =     0.00000000    0.00000000    0.00000000
     atom   11 type  1   force =     0.00000000    0.00000000    0.00000000
     atom   12 type  1   force =     0.00000000    0.00000000    0.00000000
     atom   13 type  1   force =     0.00000000    0.00000000    0.00000000
     atom   14 type  1   force =     0.00000000    0.00000000    0.00000000
     atom   15 type  1   force =     0.00000000    0.00000000    0.00000000
     atom   16 type  1   force =     0.00000000    0.00000000    0.00000000
     atom   17 type  1   force =     0.00000000    0.00000000    0.00000000
     atom   18 type  1   force =     0.00000000    0.00000000    0.00000000
     atom   19 type  1   force =     0.00000000    0.00000000    0.00000000
     atom   20 type  1   force =     0.00000000    0.00000000    0.00000000
     atom   21 type  2   force =     0.00000000    0.00000000    0.00000000
     atom   22 type  2   force =     0.00000000    0.00000000    0.00000000
     atom   23 type  2   force =     0.00000000    0.00000000    0.00000000
     atom   24 type  2   force =     0.00000000    0.00000000    0.00000000
     atom   25 type  2   force =     0.00000000    0.00000000    0.00000000
     atom   26 type  2   force =     0.00000000    0.00000000    0.00000000
     atom   27 type  2   force =     0.00000000    0.00000000    0.00000000
     atom   28 type  2   force =     0.00000000    0.00000000    0.00000000
     atom   29 type  2   force =     0.00000000    0.00000000    0.00000000
     atom   30 type  2   force =     0.00000000    0.00000000    0.00000000
     atom   31 type  2   force =     0.00000000    0.00000000    0.00000000
     atom   32 type  2   force =     0.00000000    0.00000000    0.00000000
     atom   33 type  2   force =     0.00000000    0.00000000    0.00000000
     atom   34 type  2   force =     0.00000000    0.00000000    0.00000000
     atom   35 type  2   force =     0.00000000    0.00000000    0.00000000
     atom   36 type  2   force =     0.00000000    0.00000000    0.00000000
     atom   37 type  2   force =     0.00000000    0.00000000    0.00000000
     atom   38 type  2   force =     0.00000000    0.00000000    0.00000000
     atom   39 type  2   force =     0.00000000    0.00000000    0.00000000
     atom   40 type  2   force =     0.00000000    0.00000000    0.00000000
     atom   41 type  2   force =     0.00000000    0.00000000    0.00000000
     atom   42 type  2   force =     0.00000000    0.00000000    0.00000000
     atom   43 type  2   force =     0.00000000    0.00000000    0.00000000
     atom   44 type  2   force =     0.00000000    0.00000000    0.00000000
     atom   45 type  2   force =     0.00000000    0.00000000    0.00000000
     atom   46 type  2   force =     0.00000000    0.00000000    0.00000000
     atom   47 type  2   force =     0.00000000    0.00000000    0.00000000
     atom   48 type  2   force =     0.00000000    0.00000000    0.00000000
     atom   49 type  2   force =     0.00000000    0.00000000    0.00000000
     atom   50 type  2   force =     0.00000000    0.00000000    0.00000000
     atom   51 type  2   force =     0.00000000    0.00000000    0.00000000
     atom   52 type  2   force =     0.00000000    0.00000000    0.00000000
     atom   53 type  2   force =     0.00000000    0.00000000    0.00000000
     atom   54 type  2   force =     0.00000000    0.00000000    0.00000000
     atom   55 type  2   force =     0.00000000    0.00000000    0.00000000
     atom   56 type  2   force =     0.00000000    0.00000000    0.00000000
     The Hubbard contrib.    to forces
     atom    1 type  1   force =     0.00000000    0.00000000    0.00000000
     atom    2 type  1   force =     0.00000000    0.00000000    0.00000000
     atom    3 type  1   force =     0.00000000    0.00000000    0.00000000
     atom    4 type  1   force =     0.00000000    0.00000000    0.00000000
     atom    5 type  1   force =     0.00000000    0.00000000    0.00000000
     atom    6 type  1   force =     0.00000000    0.00000000    0.00000000
     atom    7 type  1   force =     0.00000000    0.00000000    0.00000000
     atom    8 type  1   force =     0.00000000    0.00000000    0.00000000
     atom    9 type  1   force =     0.00000000    0.00000000    0.00000000
     atom   10 type  1   force =     0.00000000    0.00000000    0.00000000
     atom   11 type  1   force =     0.00000000    0.00000000    0.00000000
     atom   12 type  1   force =     0.00000000    0.00000000    0.00000000
     atom   13 type  1   force =     0.00000000    0.00000000    0.00000000
     atom   14 type  1   force =     0.00000000    0.00000000    0.00000000
     atom   15 type  1   force =     0.00000000    0.00000000    0.00000000
     atom   16 type  1   force =     0.00000000    0.00000000    0.00000000
     atom   17 type  1   force =     0.00000000    0.00000000    0.00000000
     atom   18 type  1   force =     0.00000000    0.00000000    0.00000000
     atom   19 type  1   force =     0.00000000    0.00000000    0.00000000
     atom   20 type  1   force =     0.00000000    0.00000000    0.00000000
     atom   21 type  2   force =     0.00000000    0.00000000    0.00000000
     atom   22 type  2   force =     0.00000000    0.00000000    0.00000000
     atom   23 type  2   force =     0.00000000    0.00000000    0.00000000
     atom   24 type  2   force =     0.00000000    0.00000000    0.00000000
     atom   25 type  2   force =     0.00000000    0.00000000    0.00000000
     atom   26 type  2   force =     0.00000000    0.00000000    0.00000000
     atom   27 type  2   force =     0.00000000    0.00000000    0.00000000
     atom   28 type  2   force =     0.00000000    0.00000000    0.00000000
     atom   29 type  2   force =     0.00000000    0.00000000    0.00000000
     atom   30 type  2   force =     0.00000000    0.00000000    0.00000000
     atom   31 type  2   force =     0.00000000    0.00000000    0.00000000
     atom   32 type  2   force =     0.00000000    0.00000000    0.00000000
     atom   33 type  2   force =     0.00000000    0.00000000    0.00000000
     atom   34 type  2   force =     0.00000000    0.00000000    0.00000000
     atom   35 type  2   force =     0.00000000    0.00000000    0.00000000
     atom   36 type  2   force =     0.00000000    0.00000000    0.00000000
     atom   37 type  2   force =     0.00000000    0.00000000    0.00000000
     atom   38 type  2   force =     0.00000000    0.00000000    0.00000000
     atom   39 type  2   force =     0.00000000    0.00000000    0.00000000
     atom   40 type  2   force =     0.00000000    0.00000000    0.00000000
     atom   41 type  2   force =     0.00000000    0.00000000    0.00000000
     atom   42 type  2   force =     0.00000000    0.00000000    0.00000000
     atom   43 type  2   force =     0.00000000    0.00000000    0.00000000
     atom   44 type  2   force =     0.00000000    0.00000000    0.00000000
     atom   45 type  2   force =     0.00000000    0.00000000    0.00000000
     atom   46 type  2   force =     0.00000000    0.00000000    0.00000000
     atom   47 type  2   force =     0.00000000    0.00000000    0.00000000
     atom   48 type  2   force =     0.00000000    0.00000000    0.00000000
     atom   49 type  2   force =     0.00000000    0.00000000    0.00000000
     atom   50 type  2   force =     0.00000000    0.00000000    0.00000000
     atom   51 type  2   force =     0.00000000    0.00000000    0.00000000
     atom   52 type  2   force =     0.00000000    0.00000000    0.00000000
     atom   53 type  2   force =     0.00000000    0.00000000    0.00000000
     atom   54 type  2   force =     0.00000000    0.00000000    0.00000000
     atom   55 type  2   force =     0.00000000    0.00000000    0.00000000
     atom   56 type  2   force =     0.00000000    0.00000000    0.00000000
     The SCF correction term to forces
     atom    1 type  1   force =    -0.00000001   -0.00000055   -0.00000257
     atom    2 type  1   force =     0.00000001   -0.00000013   -0.00000236
     atom    3 type  1   force =    -0.00000003   -0.00000004    0.00000181
     atom    4 type  1   force =    -0.00000002    0.00000001   -0.00000129
     atom    5 type  1   force =     0.00000005   -0.00000013    0.00000245
     atom    6 type  1   force =    -0.00000001    0.00000055   -0.00000257
     atom    7 type  1   force =     0.00000001    0.00000013   -0.00000236
     atom    8 type  1   force =    -0.00000003    0.00000004    0.00000181
     atom    9 type  1   force =    -0.00000002   -0.00000001   -0.00000130
     atom   10 type  1   force =     0.00000006    0.00000013    0.00000246
     atom   11 type  1   force =    -0.00000006    0.00000019   -0.00000133
     atom   12 type  1   force =     0.00000000    0.00000004   -0.00000019
     atom   13 type  1   force =     0.00000002   -0.00000007   -0.00000112
     atom   14 type  1   force =    -0.00000001    0.00000011   -0.00000023
     atom   15 type  1   force =    -0.00000001   -0.00000013   -0.00000130
     atom   16 type  1   force =    -0.00000005   -0.00000019   -0.00000133
     atom   17 type  1   force =     0.00000001   -0.00000004   -0.00000019
     atom   18 type  1   force =     0.00000002    0.00000007   -0.00000112
     atom   19 type  1   force =    -0.00000000   -0.00000011   -0.00000023
     atom   20 type  1   force =    -0.00000000    0.00000013   -0.00000130
     atom   21 type  2   force =     0.00000001    0.00000010   -0.00000172
     atom   22 type  2   force =    -0.00000000    0.00000007   -0.00000158
     atom   23 type  2   force =    -0.00000001    0.00000003    0.00000080
     atom   24 type  2   force =     0.00000003    0.00000001   -0.00000093
     atom   25 type  2   force =    -0.00000006    0.00000005    0.00000135
     atom   26 type  2   force =     0.00000001   -0.00000010   -0.00000173
     atom   27 type  2   force =     0.00000000   -0.00000006   -0.00000158
     atom   28 type  2   force =    -0.00000002   -0.00000003    0.00000080
     atom   29 type  2   force =     0.00000003   -0.00000001   -0.00000093
     atom   30 type  2   force =    -0.00000005   -0.00000006    0.00000135
     atom   31 type  2   force =     0.00000003    0.00000007   -0.00000138
     atom   32 type  2   force =     0.00000001    0.00000006   -0.00000132
     atom   33 type  2   force =     0.00000000   -0.00000000    0.00000028
     atom   34 type  2   force =    -0.00000000    0.00000004   -0.00000086
     atom   35 type  2   force =     0.00000009   -0.00000001    0.00000058
     atom   36 type  2   force =     0.00000003    0.00000004   -0.00000137
     atom   37 type  2   force =    -0.00000003   -0.00000005    0.00000064
     atom   38 type  2   force =    -0.00000003   -0.00000002   -0.00000088
     atom   39 type  2   force =    -0.00000005    0.00000002    0.00000033
     atom   40 type  2   force =     0.00000003   -0.00000004   -0.00000137
     atom   41 type  2   force =    -0.00000003    0.00000005    0.00000064
     atom   42 type  2   force =    -0.00000003    0.00000002   -0.00000088
     atom   43 type  2   force =    -0.00000005   -0.00000002    0.00000033
     atom   44 type  2   force =     0.00000003   -0.00000007   -0.00000138
     atom   45 type  2   force =    -0.00000002   -0.00000000   -0.00000150
     atom   46 type  2   force =     0.00000001   -0.00000006   -0.00000132
     atom   47 type  2   force =     0.00000001   -0.00000003    0.00000126
     atom   48 type  2   force =     0.00000001    0.00000000    0.00000028
     atom   49 type  2   force =    -0.00000000   -0.00000003   -0.00000100
     atom   50 type  2   force =    -0.00000000   -0.00000004   -0.00000085
     atom   51 type  2   force =     0.00000002   -0.00000006    0.00000093
     atom   52 type  2   force =     0.00000008    0.00000001    0.00000057
     atom   53 type  2   force =    -0.00000003    0.00000001   -0.00000149
     atom   54 type  2   force =     0.00000001    0.00000003    0.00000126
     atom   55 type  2   force =    -0.00000000    0.00000003   -0.00000100
     atom   56 type  2   force =     0.00000002    0.00000006    0.00000093

     Total force =     0.000071     Total SCF correction =     0.000010
     SCF correction compared to forces is large: reduce conv_thr to get better values
     Energy error            =      5.2E-09 Ry
     Gradient error          =      1.5E-05 Ry/Bohr

     number of scf cycles    =  78
     number of bfgs steps    =  77

     energy             old  =   -3121.4398536009 Ry
     energy             new  =   -3121.4398536061 Ry

     CASE: energy            _new < energy            _old

     small trust_radius: resetting bfgs history

     new trust radius        =       0.0000155982 bohr
     new conv_thr            =            1.0E-10 Ry


ATOMIC_POSITIONS (angstrom)
Hf               4.0163676396        3.7492960394        6.2863422156
Hf               4.0010356227        3.7804663988       11.1221105909
Hf               4.0011834441        3.7836467856       16.0432886732
Hf               4.0042637250        3.7847203992       20.9599242938
Hf               4.0165352300        3.8015902236       25.8385607044
Hf               1.4612042767        1.1639555208        6.2863418273
Hf               1.4458698500        1.1327828943       11.1221091047
Hf               1.4460182853        1.1296464509       16.0432855006
Hf               1.4490990634        1.1286301262       20.9599205665
Hf               1.4613710335        1.1117958411       25.8385559181
Hf               3.6490478261        1.1408148852        8.6549586655
Hf               3.6475072127        1.1308507525       13.5830789380
Hf               3.6477765814        1.1300783241       18.5024322457
Hf               3.6401268454        1.1376485850       23.4067674608
Hf               3.7312779482        1.3170349410       28.0553715478
Hf               1.0938848202        3.7724286724        8.6549581005
Hf               1.0923419998        3.7824163217       13.5830830918
Hf               1.0926106449        3.7832426943       18.5024377452
Hf               1.0849622963        3.7757221147       23.4067712793
Hf               1.1761088202        3.5963624030       28.0553697267
O                3.1118958397        2.1123135247        6.8718489212
O                3.1706081162        2.0752548862       11.7390254402
O                3.1786471081        2.0671074427       16.6426342293
O                3.1943808454        2.0526871184       21.5341563580
O                3.3309697721        1.9451230754       26.1983256596
O                0.5567332031        2.8009396188        6.8718460057
O                0.6154430567        2.8379918287       11.7390333166
O                0.6234832717        2.8461867662       16.6426399349
O                0.6392208335        2.8606694241       21.5341556847
O                0.7758112495        2.9682672235       26.1983196488
O                5.0395470576        0.2287792181        7.3356225903
O                5.0492036226        0.2154761192       12.3242245564
O                5.0541324202        0.2168709989       17.2542300824
O                5.0608524759        0.2229260614       22.1780416888
O                5.0976210435        0.1691286405       27.1241635708
O                1.9362598395        2.0919655454        9.3046225053
O                1.9178521323        2.0699132097       14.1884913260
O                1.9119419347        2.0628958149       19.0951573827
O                1.8794223061        2.0217398694       23.9359950889
O                4.4914268021        2.8212730515        9.3046257522
O                4.4730134643        2.8433566449       14.1884928129
O                4.4671014096        2.8504303202       19.0951598344
O                4.4345838639        2.8916335952       23.9359948714
O                2.4843820177       -0.2290599003        7.3356234675
O                2.6086089799       -0.2115017211        9.8454488713
O                2.4940398192       -0.2157560886       12.3242253972
O                2.5962359651       -0.2165774726       14.7912150066
O                2.4989692309       -0.2171016192       17.2542321651
O                2.5942487503       -0.2185512532       19.7158670437
O                2.5056889599       -0.2230974171       22.1780437174
O                2.5679136730       -0.2390408733       24.6464527894
O                2.5424572002       -0.1692652988       27.1241658141
O                5.1637726298        0.2112085774        9.8454490569
O                5.1514010347        0.2163205094       14.7912140586
O                5.1494140824        0.2183520785       19.7158650418
O                5.1230778233        0.2388881073       24.6464511125



     Writing config-only to output data dir ./hfo2.save/ :
     XML data file
     NEW-OLD atomic charge density approx. for the potential
 
     Adding external electric field

     Computed dipole along edir(3) : 
        Elec. dipole         -2.8831 Ry au,         -7.3282 Debye
        Ion. dipole          -2.8820 Ry au,         -7.3254 Debye
        Dipole                0.6603 Ry au,          1.6784 Debye
        Dipole field          0.0011 Ry au, 
 
        E field amplitude [Ha a.u.]:  1.0000E-03
        Potential amp.       -0.0143 Ry
        Total length         80.7858 bohr
 

     total cpu time spent up to now is      328.6 secs

     Self-consistent Calculation

     iteration #  1     ecut=    50.00 Ry     beta= 0.30
     Davidson diagonalization with overlap

---- Real-time Memory Report at c_bands before calling an iterative solver
           216 MiB given to the printing process from OS
             0 MiB allocation reported by mallinfo(arena+hblkhd)
        350280 MiB available memory on the node where the printing process lives
------------------
     ethr =  1.00E-06,  avg # of iterations =  1.0

     Threshold (ethr) on eigenvalues was too large:
     Diagonalizing with lowered threshold

     Davidson diagonalization with overlap

---- Real-time Memory Report at c_bands before calling an iterative solver
           216 MiB given to the printing process from OS
             0 MiB allocation reported by mallinfo(arena+hblkhd)
        350277 MiB available memory on the node where the printing process lives
------------------
     ethr =  3.99E-10,  avg # of iterations =  1.0
 
     Adding external electric field

     Computed dipole along edir(3) : 
        Elec. dipole         -2.8831 Ry au,         -7.3282 Debye
        Ion. dipole          -2.8820 Ry au,         -7.3254 Debye
        Dipole                0.6603 Ry au,          1.6783 Debye
        Dipole field          0.0011 Ry au, 
 
        E field amplitude [Ha a.u.]:  1.0000E-03
        Potential amp.       -0.0142 Ry
        Total length         80.7858 bohr
 

     total cpu time spent up to now is      338.5 secs

     total energy              =   -3121.43985361 Ry
     estimated scf accuracy    <       0.00000183 Ry

     iteration #  2     ecut=    50.00 Ry     beta= 0.30
     Davidson diagonalization with overlap

---- Real-time Memory Report at c_bands before calling an iterative solver
           216 MiB given to the printing process from OS
             0 MiB allocation reported by mallinfo(arena+hblkhd)
        350282 MiB available memory on the node where the printing process lives
------------------
     ethr =  4.01E-10,  avg # of iterations =  1.0
 
     Adding external electric field

     Computed dipole along edir(3) : 
        Elec. dipole         -2.8831 Ry au,         -7.3282 Debye
        Ion. dipole          -2.8820 Ry au,         -7.3254 Debye
        Dipole                0.6603 Ry au,          1.6783 Debye
        Dipole field          0.0011 Ry au, 
 
        E field amplitude [Ha a.u.]:  1.0000E-03
        Potential amp.       -0.0142 Ry
        Total length         80.7858 bohr
 

     total cpu time spent up to now is      343.7 secs

     total energy              =   -3121.43985361 Ry
     estimated scf accuracy    <       0.00000003 Ry

     iteration #  3     ecut=    50.00 Ry     beta= 0.30
     Davidson diagonalization with overlap

---- Real-time Memory Report at c_bands before calling an iterative solver
           216 MiB given to the printing process from OS
             0 MiB allocation reported by mallinfo(arena+hblkhd)
        350282 MiB available memory on the node where the printing process lives
------------------
     ethr =  7.57E-12,  avg # of iterations =  1.0
 
     Adding external electric field

     Computed dipole along edir(3) : 
        Elec. dipole         -2.8831 Ry au,         -7.3282 Debye
        Ion. dipole          -2.8820 Ry au,         -7.3254 Debye
        Dipole                0.6603 Ry au,          1.6782 Debye
        Dipole field          0.0011 Ry au, 
 
        E field amplitude [Ha a.u.]:  1.0000E-03
        Potential amp.       -0.0142 Ry
        Total length         80.7858 bohr
 

     total cpu time spent up to now is      348.9 secs

     total energy              =   -3121.43985361 Ry
     estimated scf accuracy    <          2.2E-09 Ry

     iteration #  4     ecut=    50.00 Ry     beta= 0.30
     Davidson diagonalization with overlap

---- Real-time Memory Report at c_bands before calling an iterative solver
           216 MiB given to the printing process from OS
             0 MiB allocation reported by mallinfo(arena+hblkhd)
        350291 MiB available memory on the node where the printing process lives
------------------
     ethr =  4.85E-13,  avg # of iterations =  2.0
 
     Adding external electric field

     Computed dipole along edir(3) : 
        Elec. dipole         -2.8831 Ry au,         -7.3282 Debye
        Ion. dipole          -2.8820 Ry au,         -7.3254 Debye
        Dipole                0.6603 Ry au,          1.6782 Debye
        Dipole field          0.0011 Ry au, 
 
        E field amplitude [Ha a.u.]:  1.0000E-03
        Potential amp.       -0.0142 Ry
        Total length         80.7858 bohr
 

     total cpu time spent up to now is      354.7 secs

     total energy              =   -3121.43985361 Ry
     estimated scf accuracy    <          1.8E-09 Ry

     iteration #  5     ecut=    50.00 Ry     beta= 0.30
     Davidson diagonalization with overlap

---- Real-time Memory Report at c_bands before calling an iterative solver
           216 MiB given to the printing process from OS
             0 MiB allocation reported by mallinfo(arena+hblkhd)
        350289 MiB available memory on the node where the printing process lives
------------------
     ethr =  3.88E-13,  avg # of iterations =  1.0
 
     Adding external electric field

     Computed dipole along edir(3) : 
        Elec. dipole         -2.8831 Ry au,         -7.3282 Debye
        Ion. dipole          -2.8820 Ry au,         -7.3254 Debye
        Dipole                0.6602 Ry au,          1.6782 Debye
        Dipole field          0.0011 Ry au, 
 
        E field amplitude [Ha a.u.]:  1.0000E-03
        Potential amp.       -0.0142 Ry
        Total length         80.7858 bohr
 

     total cpu time spent up to now is      359.8 secs

     total energy              =   -3121.43985361 Ry
     estimated scf accuracy    <          1.0E-09 Ry

     iteration #  6     ecut=    50.00 Ry     beta= 0.30
     Davidson diagonalization with overlap

---- Real-time Memory Report at c_bands before calling an iterative solver
           216 MiB given to the printing process from OS
             0 MiB allocation reported by mallinfo(arena+hblkhd)
        350286 MiB available memory on the node where the printing process lives
------------------
     ethr =  2.21E-13,  avg # of iterations =  2.2
 
     Adding external electric field

     Computed dipole along edir(3) : 
        Elec. dipole         -2.8831 Ry au,         -7.3282 Debye
        Ion. dipole          -2.8820 Ry au,         -7.3254 Debye
        Dipole                0.6602 Ry au,          1.6782 Debye
        Dipole field          0.0011 Ry au, 
 
        E field amplitude [Ha a.u.]:  1.0000E-03
        Potential amp.       -0.0142 Ry
        Total length         80.7858 bohr
 

     total cpu time spent up to now is      365.5 secs

     total energy              =   -3121.43985361 Ry
     estimated scf accuracy    <          1.4E-09 Ry

     iteration #  7     ecut=    50.00 Ry     beta= 0.30
     Davidson diagonalization with overlap

---- Real-time Memory Report at c_bands before calling an iterative solver
           216 MiB given to the printing process from OS
             0 MiB allocation reported by mallinfo(arena+hblkhd)
        350288 MiB available memory on the node where the printing process lives
------------------
     ethr =  2.21E-13,  avg # of iterations =  1.0
 
     Adding external electric field

     Computed dipole along edir(3) : 
        Elec. dipole         -2.8831 Ry au,         -7.3282 Debye
        Ion. dipole          -2.8820 Ry au,         -7.3254 Debye
        Dipole                0.6602 Ry au,          1.6782 Debye
        Dipole field          0.0011 Ry au, 
 
        E field amplitude [Ha a.u.]:  1.0000E-03
        Potential amp.       -0.0142 Ry
        Total length         80.7858 bohr
 

     total cpu time spent up to now is      370.6 secs

     total energy              =   -3121.43985361 Ry
     estimated scf accuracy    <          9.9E-10 Ry

     iteration #  8     ecut=    50.00 Ry     beta= 0.30
     Davidson diagonalization with overlap

---- Real-time Memory Report at c_bands before calling an iterative solver
           216 MiB given to the printing process from OS
             0 MiB allocation reported by mallinfo(arena+hblkhd)
        350298 MiB available memory on the node where the printing process lives
------------------
     ethr =  2.17E-13,  avg # of iterations =  1.4
 
     Adding external electric field

     Computed dipole along edir(3) : 
        Elec. dipole         -2.8831 Ry au,         -7.3282 Debye
        Ion. dipole          -2.8820 Ry au,         -7.3254 Debye
        Dipole                0.6602 Ry au,          1.6782 Debye
        Dipole field          0.0011 Ry au, 
 
        E field amplitude [Ha a.u.]:  1.0000E-03
        Potential amp.       -0.0142 Ry
        Total length         80.7858 bohr
 

     total cpu time spent up to now is      375.9 secs

     total energy              =   -3121.43985361 Ry
     estimated scf accuracy    <          2.3E-09 Ry

     iteration #  9     ecut=    50.00 Ry     beta= 0.30
     Davidson diagonalization with overlap

---- Real-time Memory Report at c_bands before calling an iterative solver
           216 MiB given to the printing process from OS
             0 MiB allocation reported by mallinfo(arena+hblkhd)
        350296 MiB available memory on the node where the printing process lives
------------------
     ethr =  2.17E-13,  avg # of iterations =  1.0
 
     Adding external electric field

     Computed dipole along edir(3) : 
        Elec. dipole         -2.8831 Ry au,         -7.3282 Debye
        Ion. dipole          -2.8820 Ry au,         -7.3254 Debye
        Dipole                0.6603 Ry au,          1.6782 Debye
        Dipole field          0.0011 Ry au, 
 
        E field amplitude [Ha a.u.]:  1.0000E-03
        Potential amp.       -0.0142 Ry
        Total length         80.7858 bohr
 

     total cpu time spent up to now is      381.1 secs

     total energy              =   -3121.43985361 Ry
     estimated scf accuracy    <          2.5E-09 Ry

     iteration # 10     ecut=    50.00 Ry     beta= 0.30
     Davidson diagonalization with overlap

---- Real-time Memory Report at c_bands before calling an iterative solver
           216 MiB given to the printing process from OS
             0 MiB allocation reported by mallinfo(arena+hblkhd)
        350302 MiB available memory on the node where the printing process lives
------------------
     ethr =  2.17E-13,  avg # of iterations =  1.0
 
     Adding external electric field

     Computed dipole along edir(3) : 
        Elec. dipole         -2.8831 Ry au,         -7.3282 Debye
        Ion. dipole          -2.8820 Ry au,         -7.3254 Debye
        Dipole                0.6603 Ry au,          1.6782 Debye
        Dipole field          0.0011 Ry au, 
 
        E field amplitude [Ha a.u.]:  1.0000E-03
        Potential amp.       -0.0142 Ry
        Total length         80.7858 bohr
 

     total cpu time spent up to now is      386.2 secs

     total energy              =   -3121.43985361 Ry
     estimated scf accuracy    <          5.1E-10 Ry

     iteration # 11     ecut=    50.00 Ry     beta= 0.30
     Davidson diagonalization with overlap

---- Real-time Memory Report at c_bands before calling an iterative solver
           216 MiB given to the printing process from OS
             0 MiB allocation reported by mallinfo(arena+hblkhd)
        350308 MiB available memory on the node where the printing process lives
------------------
     ethr =  1.12E-13,  avg # of iterations =  2.0
 
     Adding external electric field

     Computed dipole along edir(3) : 
        Elec. dipole         -2.8831 Ry au,         -7.3282 Debye
        Ion. dipole          -2.8820 Ry au,         -7.3254 Debye
        Dipole                0.6603 Ry au,          1.6784 Debye
        Dipole field          0.0011 Ry au, 
 
        E field amplitude [Ha a.u.]:  1.0000E-03
        Potential amp.       -0.0143 Ry
        Total length         80.7858 bohr
 

     total cpu time spent up to now is      391.8 secs

     End of self-consistent calculation

          k = 0.0000 0.0000 0.0000 ( 45443 PWs)   bands (ev):

   -56.8567 -56.8412 -56.5952 -56.5799 -56.5612 -56.5474 -56.4225 -56.4072
   -56.3405 -56.3288 -56.2694 -56.2540 -56.1284 -56.1130 -56.0137 -55.9972
   -55.9642 -55.9487 -55.9189 -55.9054 -26.8063 -26.8005 -26.7479 -26.5890
   -26.4999 -26.4680 -26.4260 -26.4197 -26.3756 -26.3633 -26.3206 -26.3070
   -26.2824 -26.2095 -26.1932 -26.1827 -26.1643 -26.1507 -26.1378 -26.1204
   -26.1139 -26.0879 -26.0782 -26.0704 -26.0548 -26.0361 -26.0137 -26.0028
   -25.9814 -25.9743 -25.9729 -25.9512 -25.9361 -25.9199 -25.9016 -25.8514
   -25.8445 -25.8021 -25.7938 -25.7884 -25.7469 -25.7120 -25.7092 -25.6956
   -25.6828 -25.6634 -25.6398 -25.6131 -25.5998 -25.5949 -25.5826 -25.5592
   -25.5375 -25.4945 -25.4741 -25.4708 -25.4324 -25.4044 -25.4019 -25.3700
   -15.6027 -15.2004 -15.0215 -14.7808 -14.4931 -14.4463 -14.1141 -14.1103
   -13.9302 -13.8201 -13.8158 -13.7705 -13.6654 -13.6337 -13.6002 -13.5744
   -13.5654 -13.4920 -13.3927 -13.3689 -13.3286 -13.2535 -13.1002 -13.0010
   -12.9707 -12.9468 -12.9070 -12.8263 -12.7512 -12.6705 -12.6309 -12.5306
   -12.4875 -12.4351 -12.3556 -12.2898  -3.3640  -3.2009  -2.9954  -2.9334
    -2.8280  -2.6987  -2.6464  -2.5458  -2.4566  -2.4220  -2.3679  -2.3238
    -2.1923  -2.1143  -2.0736  -1.9269  -1.8531  -1.7920  -1.7828  -1.7530
    -1.6712  -1.5751  -1.5343  -1.4772  -1.4617  -1.3841  -1.2990  -1.2201
    -1.2171  -1.1467  -1.0075  -0.9563  -0.9514  -0.8356  -0.7451  -0.6951
    -0.6842  -0.6726  -0.5797  -0.5598  -0.4757  -0.4721  -0.3769  -0.3521
    -0.3340  -0.2926  -0.2646  -0.1334  -0.0912  -0.0320   0.0930   0.1134
     0.1378   0.2030   0.2362   0.2775   0.3488   0.3858   0.4133   0.5083
     0.5273   0.6051   0.6114   0.6439   0.7015   0.8183   0.8211   0.8621
     0.8726   0.9376   0.9413   0.9905   1.0429   1.1104   1.1253   1.1979
     1.2377   1.3643   1.3685   1.3820   1.4356   1.5658   1.5665   1.5869
     1.6007   1.7150   1.7332   1.8257   1.8741   1.8801   2.0160   2.0235
     2.0793   2.1329   2.1527   2.2831   2.2882   2.3081   2.4653   2.5117
     2.6383   2.6754   2.7928   2.8226   2.9254   2.9529   3.0537   3.0826
     4.8013   5.5399   6.1259   6.8911   6.8975   7.0796   7.0816   7.1034
     7.1879   7.4573   7.4662   7.8475   7.8653   8.0578   8.0731   8.2395
     8.2507   8.3944   8.4566   8.5852   8.6242   8.6271   8.7377   8.7547
     8.8304   8.8371   8.9401   8.9636   8.9678   8.9875   9.0638   9.1319
     9.1969   9.2226   9.2991   9.3983   9.4477   9.4590   9.5601   9.5688
     9.5955   9.6500   9.6524   9.7716   9.7852   9.8405   9.8560   9.8565
     9.9420  10.1403

     occupation numbers 
     1.0000   1.0000   1.0000   1.0000   1.0000   1.0000   1.0000   1.0000
     1.0000   1.0000   1.0000   1.0000   1.0000   1.0000   1.0000   1.0000
     1.0000   1.0000   1.0000   1.0000   1.0000   1.0000   1.0000   1.0000
     1.0000   1.0000   1.0000   1.0000   1.0000   1.0000   1.0000   1.0000
     1.0000   1.0000   1.0000   1.0000   1.0000   1.0000   1.0000   1.0000
     1.0000   1.0000   1.0000   1.0000   1.0000   1.0000   1.0000   1.0000
     1.0000   1.0000   1.0000   1.0000   1.0000   1.0000   1.0000   1.0000
     1.0000   1.0000   1.0000   1.0000   1.0000   1.0000   1.0000   1.0000
     1.0000   1.0000   1.0000   1.0000   1.0000   1.0000   1.0000   1.0000
     1.0000   1.0000   1.0000   1.0000   1.0000   1.0000   1.0000   1.0000
     1.0000   1.0000   1.0000   1.0000   1.0000   1.0000   1.0000   1.0000
     1.0000   1.0000   1.0000   1.0000   1.0000   1.0000   1.0000   1.0000
     1.0000   1.0000   1.0000   1.0000   1.0000   1.0000   1.0000   1.0000
     1.0000   1.0000   1.0000   1.0000   1.0000   1.0000   1.0000   1.0000
     1.0000   1.0000   1.0000   1.0000   1.0000   1.0000   1.0000   1.0000
     1.0000   1.0000   1.0000   1.0000   1.0000   1.0000   1.0000   1.0000
     1.0000   1.0000   1.0000   1.0000   1.0000   1.0000   1.0000   1.0000
     1.0000   1.0000   1.0000   1.0000   1.0000   1.0000   1.0000   1.0000
     1.0000   1.0000   1.0000   1.0000   1.0000   1.0000   1.0000   1.0000
     1.0000   1.0000   1.0000   1.0000   1.0000   1.0000   1.0000   1.0000
     1.0000   1.0000   1.0000   1.0000   1.0000   1.0000   1.0000   1.0000
     1.0000   1.0000   1.0000   1.0000   1.0000   1.0000   1.0000   1.0000
     1.0000   1.0000   1.0000   1.0000   1.0000   1.0000   1.0000   1.0000
     1.0000   1.0000   1.0000   1.0000   1.0000   1.0000   1.0000   1.0000
     1.0000   1.0000   1.0000   1.0000   1.0000   1.0000   1.0000   1.0000
     1.0000   1.0000   1.0000   1.0000   1.0000   1.0000   1.0000   1.0000
     1.0000   1.0000   1.0000   1.0000   1.0000   1.0000   1.0000   1.0000
     1.0000   1.0000   1.0000   1.0000   1.0000   1.0000   1.0000   1.0000
     1.0000   1.0000   1.0000   0.0047   0.0038   0.0000   0.0000   0.0000
     0.0000   0.0000   0.0000   0.0000   0.0000   0.0000   0.0000   0.0000
     0.0000   0.0000   0.0000   0.0000   0.0000   0.0000   0.0000   0.0000
     0.0000   0.0000   0.0000   0.0000   0.0000   0.0000   0.0000   0.0000
     0.0000   0.0000   0.0000   0.0000   0.0000   0.0000   0.0000   0.0000
     0.0000   0.0000   0.0000   0.0000   0.0000   0.0000   0.0000   0.0000
     0.0000   0.0000

          k = 0.0000 0.2600 0.0000 ( 45481 PWs)   bands (ev):

   -56.8548 -56.8430 -56.5934 -56.5816 -56.5593 -56.5493 -56.4208 -56.4089
   -56.3388 -56.3303 -56.2676 -56.2557 -56.1267 -56.1147 -56.0117 -55.9989
   -55.9624 -55.9505 -55.9178 -55.9070 -26.7781 -26.7417 -26.7270 -26.6022
   -26.5212 -26.4701 -26.4273 -26.4166 -26.3847 -26.3227 -26.3131 -26.2792
   -26.2340 -26.2191 -26.1953 -26.1839 -26.1818 -26.1625 -26.1538 -26.1259
   -26.1228 -26.1135 -26.0734 -26.0637 -26.0313 -26.0217 -26.0105 -25.9906
   -25.9800 -25.9785 -25.9544 -25.9454 -25.9298 -25.9226 -25.9081 -25.8644
   -25.8449 -25.8314 -25.8047 -25.7919 -25.7812 -25.7474 -25.7196 -25.7001
   -25.6821 -25.6691 -25.6611 -25.6353 -25.6234 -25.5872 -25.5757 -25.5613
   -25.5459 -25.5317 -25.5027 -25.4833 -25.4454 -25.4252 -25.3965 -25.3548
   -15.3334 -14.9511 -14.7692 -14.5987 -14.4146 -14.3213 -14.0543 -14.0449
   -13.8651 -13.8014 -13.7330 -13.7281 -13.7032 -13.6099 -13.5830 -13.5532
   -13.5363 -13.4550 -13.4269 -13.3655 -13.3261 -13.3133 -13.1793 -13.1281
   -13.1179 -13.0368 -12.9780 -12.9569 -12.8282 -12.7978 -12.7150 -12.6541
   -12.6167 -12.5188 -12.4423 -12.3695  -3.1914  -3.0137  -2.8547  -2.7603
    -2.6721  -2.5997  -2.5344  -2.4504  -2.3879  -2.3577  -2.2965  -2.1963
    -2.1372  -2.1086  -2.0324  -1.9442  -1.8395  -1.7966  -1.7478  -1.6589
    -1.6530  -1.5961  -1.5924  -1.5111  -1.4599  -1.3501  -1.3054  -1.2592
    -1.2080  -1.1655  -1.0934  -1.0515  -1.0309  -0.9650  -0.8937  -0.8399
    -0.8180  -0.7498  -0.6944  -0.6021  -0.5898  -0.5284  -0.5024  -0.3352
    -0.3224  -0.2368  -0.2076  -0.1145  -0.0955  -0.0439  -0.0214   0.0778
     0.1560   0.1719   0.2938   0.3386   0.3611   0.3933   0.4504   0.4773
     0.5178   0.5944   0.6404   0.6966   0.7693   0.8307   0.8464   0.8848
     0.9465   0.9595   0.9884   1.0803   1.1404   1.1842   1.2183   1.2285
     1.2948   1.3539   1.4065   1.4310   1.4769   1.5313   1.5582   1.6338
     1.6601   1.6807   1.7252   1.7950   1.8559   1.8594   1.9041   1.9554
     1.9914   2.0316   2.1028   2.1274   2.2281   2.2638   2.3108   2.3908
     2.4730   2.4769   2.5077   2.6442   2.7904   2.9026   2.9976   3.0323
     5.1334   5.8911   6.0012   6.7738   6.8576   6.9231   7.0108   7.1965
     7.3331   7.4098   7.4947   7.6878   7.8504   7.9073   8.0405   8.0696
     8.1049   8.1500   8.2397   8.3056   8.3698   8.4266   8.5271   8.5953
     8.6210   8.7063   8.7964   8.8720   8.9277   8.9502   9.0208   9.1526
     9.1831   9.2057   9.2221   9.3315   9.4238   9.4573   9.5222   9.5635
     9.6051   9.6683   9.7249   9.7526   9.8381   9.9532   9.9685   9.9819
    10.0840  10.1244

     occupation numbers 
     1.0000   1.0000   1.0000   1.0000   1.0000   1.0000   1.0000   1.0000
     1.0000   1.0000   1.0000   1.0000   1.0000   1.0000   1.0000   1.0000
     1.0000   1.0000   1.0000   1.0000   1.0000   1.0000   1.0000   1.0000
     1.0000   1.0000   1.0000   1.0000   1.0000   1.0000   1.0000   1.0000
     1.0000   1.0000   1.0000   1.0000   1.0000   1.0000   1.0000   1.0000
     1.0000   1.0000   1.0000   1.0000   1.0000   1.0000   1.0000   1.0000
     1.0000   1.0000   1.0000   1.0000   1.0000   1.0000   1.0000   1.0000
     1.0000   1.0000   1.0000   1.0000   1.0000   1.0000   1.0000   1.0000
     1.0000   1.0000   1.0000   1.0000   1.0000   1.0000   1.0000   1.0000
     1.0000   1.0000   1.0000   1.0000   1.0000   1.0000   1.0000   1.0000
     1.0000   1.0000   1.0000   1.0000   1.0000   1.0000   1.0000   1.0000
     1.0000   1.0000   1.0000   1.0000   1.0000   1.0000   1.0000   1.0000
     1.0000   1.0000   1.0000   1.0000   1.0000   1.0000   1.0000   1.0000
     1.0000   1.0000   1.0000   1.0000   1.0000   1.0000   1.0000   1.0000
     1.0000   1.0000   1.0000   1.0000   1.0000   1.0000   1.0000   1.0000
     1.0000   1.0000   1.0000   1.0000   1.0000   1.0000   1.0000   1.0000
     1.0000   1.0000   1.0000   1.0000   1.0000   1.0000   1.0000   1.0000
     1.0000   1.0000   1.0000   1.0000   1.0000   1.0000   1.0000   1.0000
     1.0000   1.0000   1.0000   1.0000   1.0000   1.0000   1.0000   1.0000
     1.0000   1.0000   1.0000   1.0000   1.0000   1.0000   1.0000   1.0000
     1.0000   1.0000   1.0000   1.0000   1.0000   1.0000   1.0000   1.0000
     1.0000   1.0000   1.0000   1.0000   1.0000   1.0000   1.0000   1.0000
     1.0000   1.0000   1.0000   1.0000   1.0000   1.0000   1.0000   1.0000
     1.0000   1.0000   1.0000   1.0000   1.0000   1.0000   1.0000   1.0000
     1.0000   1.0000   1.0000   1.0000   1.0000   1.0000   1.0000   1.0000
     1.0000   1.0000   1.0000   1.0000   1.0000   1.0000   1.0000   1.0000
     1.0000   1.0000   1.0000   1.0000   1.0000   1.0000   1.0000   1.0000
     1.0000   1.0000   1.0000   1.0000   1.0000   1.0000   1.0000   1.0000
     1.0000   1.0000   1.0000   0.1050   0.0133   0.0016   0.0000   0.0000
     0.0000   0.0000   0.0000   0.0000   0.0000   0.0000   0.0000   0.0000
     0.0000   0.0000   0.0000   0.0000   0.0000   0.0000   0.0000   0.0000
     0.0000   0.0000   0.0000   0.0000   0.0000   0.0000   0.0000   0.0000
     0.0000   0.0000   0.0000   0.0000   0.0000   0.0000   0.0000   0.0000
     0.0000   0.0000   0.0000   0.0000   0.0000   0.0000   0.0000   0.0000
     0.0000   0.0000

          k = 0.0000-0.5200 0.0000 ( 45480 PWs)   bands (ev):

   -56.8519 -56.8457 -56.5908 -56.5842 -56.5559 -56.5529 -56.4182 -56.4114
   -56.3359 -56.3331 -56.2651 -56.2582 -56.1241 -56.1172 -56.0089 -56.0015
   -55.9597 -55.9531 -55.9163 -55.9091 -26.7482 -26.6714 -26.6637 -26.6175
   -26.5717 -26.5292 -26.4387 -26.3806 -26.3295 -26.2987 -26.2842 -26.2754
   -26.2323 -26.2224 -26.2061 -26.1936 -26.1890 -26.1650 -26.1633 -26.1550
   -26.1385 -26.1141 -26.0638 -26.0453 -26.0140 -26.0094 -26.0050 -25.9973
   -25.9863 -25.9589 -25.9456 -25.9438 -25.9197 -25.9035 -25.8889 -25.8842
   -25.8551 -25.8372 -25.8297 -25.8089 -25.7836 -25.7598 -25.7382 -25.7301
   -25.7173 -25.6988 -25.6654 -25.6627 -25.6445 -25.6075 -25.5855 -25.5791
   -25.5405 -25.5373 -25.5283 -25.4828 -25.4541 -25.4504 -25.3725 -25.3573
   -14.9279 -14.6074 -14.3934 -14.3284 -14.3250 -14.1550 -14.0238 -13.9764
   -13.9582 -13.7928 -13.7519 -13.7301 -13.7068 -13.6294 -13.5889 -13.5338
   -13.5106 -13.5036 -13.4799 -13.3596 -13.3275 -13.3213 -13.2659 -13.2478
   -13.2354 -13.2283 -13.1708 -13.0286 -13.0275 -12.8677 -12.8542 -12.7182
   -12.6515 -12.5822 -12.4964 -12.4545  -2.9920  -2.8760  -2.7255  -2.5345
    -2.5226  -2.5012  -2.3645  -2.3592  -2.2742  -2.2311  -2.2053  -2.0567
    -2.0424  -2.0014  -1.9177  -1.8661  -1.8193  -1.7947  -1.7146  -1.7043
    -1.6564  -1.6331  -1.6155  -1.5556  -1.5290  -1.4929  -1.4733  -1.4076
    -1.3918  -1.3255  -1.2379  -1.2340  -1.2031  -1.0031  -0.9377  -0.9099
    -0.8395  -0.7128  -0.6752  -0.6665  -0.6133  -0.5617  -0.4175  -0.3851
    -0.3423  -0.2194  -0.1913  -0.0985  -0.0259   0.0229   0.0709   0.0841
     0.1695   0.1736   0.3414   0.3570   0.4001   0.4071   0.4178   0.5350
     0.5813   0.6437   0.6882   0.7404   0.7846   0.8044   0.8566   0.9393
     0.9542   1.0288   1.0638   1.1489   1.1554   1.1785   1.2270   1.2852
     1.3307   1.3397   1.3483   1.4185   1.4761   1.4977   1.5048   1.5237
     1.5389   1.6147   1.6726   1.7071   1.7338   1.7464   1.8522   1.8851
     1.8933   1.8936   1.9407   2.0424   2.0636   2.1714   2.2170   2.2997
     2.3589   2.4462   2.5778   2.6091   2.7498   2.8717   2.9349   3.0841
     5.5050   5.8117   6.3575   6.4194   6.8903   7.0099   7.1661   7.1761
     7.2332   7.2799   7.4283   7.6124   7.6878   7.7752   7.7913   7.8265
     7.9261   7.9650   8.0348   8.1041   8.1627   8.2404   8.2833   8.4142
     8.5517   8.5914   8.6951   8.7661   8.8347   8.9028   8.9158   8.9507
     9.1681   9.2125   9.2584   9.3168   9.3545   9.4910   9.5130   9.6804
     9.7338   9.7345   9.7603   9.7609   9.8433   9.9819   9.9890  10.0058
    10.0735  10.2144

     occupation numbers 
     1.0000   1.0000   1.0000   1.0000   1.0000   1.0000   1.0000   1.0000
     1.0000   1.0000   1.0000   1.0000   1.0000   1.0000   1.0000   1.0000
     1.0000   1.0000   1.0000   1.0000   1.0000   1.0000   1.0000   1.0000
     1.0000   1.0000   1.0000   1.0000   1.0000   1.0000   1.0000   1.0000
     1.0000   1.0000   1.0000   1.0000   1.0000   1.0000   1.0000   1.0000
     1.0000   1.0000   1.0000   1.0000   1.0000   1.0000   1.0000   1.0000
     1.0000   1.0000   1.0000   1.0000   1.0000   1.0000   1.0000   1.0000
     1.0000   1.0000   1.0000   1.0000   1.0000   1.0000   1.0000   1.0000
     1.0000   1.0000   1.0000   1.0000   1.0000   1.0000   1.0000   1.0000
     1.0000   1.0000   1.0000   1.0000   1.0000   1.0000   1.0000   1.0000
     1.0000   1.0000   1.0000   1.0000   1.0000   1.0000   1.0000   1.0000
     1.0000   1.0000   1.0000   1.0000   1.0000   1.0000   1.0000   1.0000
     1.0000   1.0000   1.0000   1.0000   1.0000   1.0000   1.0000   1.0000
     1.0000   1.0000   1.0000   1.0000   1.0000   1.0000   1.0000   1.0000
     1.0000   1.0000   1.0000   1.0000   1.0000   1.0000   1.0000   1.0000
     1.0000   1.0000   1.0000   1.0000   1.0000   1.0000   1.0000   1.0000
     1.0000   1.0000   1.0000   1.0000   1.0000   1.0000   1.0000   1.0000
     1.0000   1.0000   1.0000   1.0000   1.0000   1.0000   1.0000   1.0000
     1.0000   1.0000   1.0000   1.0000   1.0000   1.0000   1.0000   1.0000
     1.0000   1.0000   1.0000   1.0000   1.0000   1.0000   1.0000   1.0000
     1.0000   1.0000   1.0000   1.0000   1.0000   1.0000   1.0000   1.0000
     1.0000   1.0000   1.0000   1.0000   1.0000   1.0000   1.0000   1.0000
     1.0000   1.0000   1.0000   1.0000   1.0000   1.0000   1.0000   1.0000
     1.0000   1.0000   1.0000   1.0000   1.0000   1.0000   1.0000   1.0000
     1.0000   1.0000   1.0000   1.0000   1.0000   1.0000   1.0000   1.0000
     1.0000   1.0000   1.0000   1.0000   1.0000   1.0000   1.0000   1.0000
     1.0000   1.0000   1.0000   1.0000   1.0000   1.0000   1.0000   1.0000
     1.0000   1.0000   1.0000   1.0000   1.0000   1.0000   1.0000   1.0000
     1.0000   1.0000   1.0118   1.0407   0.0049   0.0000   0.0000   0.0000
     0.0000   0.0000   0.0000   0.0000   0.0000   0.0000   0.0000   0.0000
     0.0000   0.0000   0.0000   0.0000   0.0000   0.0000   0.0000   0.0000
     0.0000   0.0000   0.0000   0.0000   0.0000   0.0000   0.0000   0.0000
     0.0000   0.0000   0.0000   0.0000   0.0000   0.0000   0.0000   0.0000
     0.0000   0.0000   0.0000   0.0000   0.0000   0.0000   0.0000   0.0000
     0.0000   0.0000

          k = 0.2500 0.0000 0.0000 ( 45654 PWs)   bands (ev):

   -56.8544 -56.8434 -56.5930 -56.5821 -56.5592 -56.5494 -56.4203 -56.4095
   -56.3387 -56.3305 -56.2671 -56.2562 -56.1262 -56.1152 -56.0112 -55.9995
   -55.9619 -55.9509 -55.9171 -55.9076 -26.7595 -26.7496 -26.7199 -26.6155
   -26.4969 -26.4680 -26.4463 -26.4225 -26.3712 -26.3334 -26.2925 -26.2856
   -26.2559 -26.1992 -26.1915 -26.1719 -26.1714 -26.1578 -26.1563 -26.1420
   -26.1316 -26.1053 -26.0765 -26.0471 -26.0199 -26.0132 -26.0063 -25.9972
   -25.9872 -25.9817 -25.9579 -25.9479 -25.9331 -25.9171 -25.9157 -25.8523
   -25.8435 -25.8378 -25.8169 -25.8025 -25.7731 -25.7296 -25.7290 -25.7064
   -25.6999 -25.6776 -25.6526 -25.6241 -25.6193 -25.6062 -25.5764 -25.5600
   -25.5354 -25.5160 -25.5046 -25.4927 -25.4380 -25.4336 -25.4002 -25.3594
   -15.3300 -14.9409 -14.7600 -14.5855 -14.4506 -14.3057 -14.1276 -14.0251
   -13.9289 -13.7949 -13.7738 -13.7658 -13.6479 -13.6329 -13.6218 -13.5869
   -13.5391 -13.4725 -13.3726 -13.3720 -13.3400 -13.3343 -13.1505 -13.1285
   -13.1272 -13.0508 -12.9536 -12.9515 -12.8039 -12.7967 -12.6769 -12.6667
   -12.5610 -12.5489 -12.4249 -12.4225  -3.0531  -2.8119  -2.7787  -2.6393
    -2.5413  -2.4357  -2.3795  -2.3789  -2.2690  -2.1947  -2.1642  -2.0869
    -2.0618  -2.0506  -1.9555  -1.8872  -1.8612  -1.7935  -1.7934  -1.7417
    -1.6328  -1.6091  -1.5862  -1.4730  -1.4133  -1.3956  -1.3748  -1.3227
    -1.2787  -1.2652  -1.2087  -1.1803  -1.0235  -0.9637  -0.9577  -0.8489
    -0.8267  -0.7400  -0.7039  -0.5803  -0.5774  -0.4931  -0.4730  -0.4466
    -0.2893  -0.2519  -0.2337  -0.1710  -0.1208  -0.1112  -0.0120   0.0465
     0.1659   0.1842   0.3146   0.3570   0.3832   0.4163   0.4523   0.4635
     0.5283   0.5313   0.5807   0.6680   0.6708   0.7213   0.7401   0.8699
     0.8908   0.8955   0.9421   0.9703   1.0469   1.0619   1.1034   1.1445
     1.2044   1.2458   1.2767   1.3201   1.3909   1.4171   1.4770   1.5383
     1.5979   1.6057   1.6373   1.7384   1.7751   1.8116   1.9060   1.9482
     2.0090   2.0326   2.0927   2.1811   2.2333   2.2748   2.2974   2.3901
     2.4143   2.5351   2.5567   2.6720   2.6842   2.7623   2.8227   2.8309
     5.1285   5.8785   5.9544   6.8469   6.8967   6.9637   7.1644   7.2203
     7.3744   7.5738   7.6461   7.9017   7.9958   8.0890   8.1977   8.3494
     8.3644   8.3809   8.5248   8.5774   8.6245   8.6734   8.6849   8.7591
     8.8284   8.8584   8.8940   8.9813   9.0109   9.0143   9.0438   9.1451
     9.1937   9.1938   9.2940   9.3433   9.3643   9.3685   9.4273   9.4799
     9.5354   9.5923   9.6526   9.7292   9.7608   9.7655   9.8057   9.9672
     9.9809   9.9923

     occupation numbers 
     1.0000   1.0000   1.0000   1.0000   1.0000   1.0000   1.0000   1.0000
     1.0000   1.0000   1.0000   1.0000   1.0000   1.0000   1.0000   1.0000
     1.0000   1.0000   1.0000   1.0000   1.0000   1.0000   1.0000   1.0000
     1.0000   1.0000   1.0000   1.0000   1.0000   1.0000   1.0000   1.0000
     1.0000   1.0000   1.0000   1.0000   1.0000   1.0000   1.0000   1.0000
     1.0000   1.0000   1.0000   1.0000   1.0000   1.0000   1.0000   1.0000
     1.0000   1.0000   1.0000   1.0000   1.0000   1.0000   1.0000   1.0000
     1.0000   1.0000   1.0000   1.0000   1.0000   1.0000   1.0000   1.0000
     1.0000   1.0000   1.0000   1.0000   1.0000   1.0000   1.0000   1.0000
     1.0000   1.0000   1.0000   1.0000   1.0000   1.0000   1.0000   1.0000
     1.0000   1.0000   1.0000   1.0000   1.0000   1.0000   1.0000   1.0000
     1.0000   1.0000   1.0000   1.0000   1.0000   1.0000   1.0000   1.0000
     1.0000   1.0000   1.0000   1.0000   1.0000   1.0000   1.0000   1.0000
     1.0000   1.0000   1.0000   1.0000   1.0000   1.0000   1.0000   1.0000
     1.0000   1.0000   1.0000   1.0000   1.0000   1.0000   1.0000   1.0000
     1.0000   1.0000   1.0000   1.0000   1.0000   1.0000   1.0000   1.0000
     1.0000   1.0000   1.0000   1.0000   1.0000   1.0000   1.0000   1.0000
     1.0000   1.0000   1.0000   1.0000   1.0000   1.0000   1.0000   1.0000
     1.0000   1.0000   1.0000   1.0000   1.0000   1.0000   1.0000   1.0000
     1.0000   1.0000   1.0000   1.0000   1.0000   1.0000   1.0000   1.0000
     1.0000   1.0000   1.0000   1.0000   1.0000   1.0000   1.0000   1.0000
     1.0000   1.0000   1.0000   1.0000   1.0000   1.0000   1.0000   1.0000
     1.0000   1.0000   1.0000   1.0000   1.0000   1.0000   1.0000   1.0000
     1.0000   1.0000   1.0000   1.0000   1.0000   1.0000   1.0000   1.0000
     1.0000   1.0000   1.0000   1.0000   1.0000   1.0000   1.0000   1.0000
     1.0000   1.0000   1.0000   1.0000   1.0000   1.0000   1.0000   1.0000
     1.0000   1.0000   1.0000   1.0000   1.0000   1.0000   1.0000   1.0000
     1.0000   1.0000   1.0000   1.0000   1.0000   1.0000   1.0000   1.0000
     1.0000   1.0000   1.0000   0.0180   0.0039   0.0003   0.0000   0.0000
     0.0000   0.0000   0.0000   0.0000   0.0000   0.0000   0.0000   0.0000
     0.0000   0.0000   0.0000   0.0000   0.0000   0.0000   0.0000   0.0000
     0.0000   0.0000   0.0000   0.0000   0.0000   0.0000   0.0000   0.0000
     0.0000   0.0000   0.0000   0.0000   0.0000   0.0000   0.0000   0.0000
     0.0000   0.0000   0.0000   0.0000   0.0000   0.0000   0.0000   0.0000
     0.0000   0.0000

          k = 0.2500 0.2600 0.0000 ( 45558 PWs)   bands (ev):

   -56.8530 -56.8446 -56.5917 -56.5833 -56.5579 -56.5508 -56.4190 -56.4107
   -56.3375 -56.3315 -56.2659 -56.2574 -56.1249 -56.1164 -56.0098 -56.0007
   -55.9606 -55.9522 -55.9164 -55.9088 -26.7962 -26.7402 -26.6914 -26.6444
   -26.5788 -26.4631 -26.4164 -26.3930 -26.3760 -26.3215 -26.3114 -26.2830
   -26.2388 -26.2221 -26.2043 -26.2016 -26.1931 -26.1771 -26.1640 -26.1384
   -26.1036 -26.0908 -26.0837 -26.0404 -26.0316 -26.0216 -26.0049 -25.9884
   -25.9850 -25.9811 -25.9719 -25.9493 -25.9280 -25.9183 -25.8903 -25.8819
   -25.8675 -25.8345 -25.8050 -25.7781 -25.7587 -25.7485 -25.7355 -25.7029
   -25.6885 -25.6772 -25.6526 -25.6234 -25.6122 -25.5896 -25.5755 -25.5527
   -25.5469 -25.5076 -25.4962 -25.4738 -25.4561 -25.4169 -25.3903 -25.3605
   -15.1382 -14.7887 -14.5880 -14.5105 -14.4559 -14.2736 -14.1478 -14.0479
   -13.9521 -13.8359 -13.7976 -13.7714 -13.7053 -13.6457 -13.6068 -13.5858
   -13.5426 -13.4770 -13.4492 -13.3805 -13.3251 -13.3091 -13.2760 -13.2051
   -13.0996 -13.0143 -12.9979 -12.9403 -12.8396 -12.8010 -12.7138 -12.6788
   -12.5958 -12.5548 -12.4371 -12.3855  -2.9592  -2.8156  -2.5974  -2.5314
    -2.5053  -2.4101  -2.3754  -2.2651  -2.1791  -2.1419  -2.1021  -2.0717
    -2.0289  -1.9610  -1.9369  -1.8525  -1.8039  -1.7920  -1.7236  -1.6878
    -1.6059  -1.5601  -1.5206  -1.4462  -1.4050  -1.3811  -1.3495  -1.3001
    -1.2541  -1.1935  -1.1302  -1.0604  -0.9865  -0.9654  -0.8849  -0.8640
    -0.8213  -0.7652  -0.7086  -0.6459  -0.5694  -0.5363  -0.5070  -0.4125
    -0.3935  -0.2641  -0.2321  -0.1582  -0.1436  -0.0783  -0.0413   0.0480
     0.1056   0.1456   0.2335   0.2907   0.3419   0.3903   0.4485   0.4914
     0.5202   0.5542   0.5945   0.6335   0.6713   0.7213   0.7515   0.8146
     0.8419   0.8811   0.9213   0.9577   1.0193   1.0368   1.1265   1.1445
     1.2033   1.2409   1.2773   1.2885   1.3334   1.3967   1.4551   1.5006
     1.5724   1.6083   1.6277   1.6699   1.7363   1.7722   1.8042   1.8421
     1.9119   2.0073   2.0601   2.1134   2.1632   2.1873   2.2641   2.3148
     2.3513   2.3971   2.4694   2.5135   2.6114   2.7248   2.8045   2.8902
     5.3123   5.9624   6.0767   6.6801   6.6859   6.8906   7.0378   7.2736
     7.3925   7.5451   7.6779   7.6875   7.7983   7.9365   8.0490   8.1135
     8.1358   8.1881   8.3005   8.3330   8.3866   8.4861   8.5053   8.5363
     8.5886   8.6206   8.6990   8.7165   8.8281   8.9174   8.9398   9.0278
     9.1247   9.1917   9.2244   9.3009   9.3323   9.3898   9.4186   9.4952
     9.5180   9.6131   9.6310   9.6804   9.7457   9.8292   9.9098   9.9625
     9.9951  10.0862

     occupation numbers 
     1.0000   1.0000   1.0000   1.0000   1.0000   1.0000   1.0000   1.0000
     1.0000   1.0000   1.0000   1.0000   1.0000   1.0000   1.0000   1.0000
     1.0000   1.0000   1.0000   1.0000   1.0000   1.0000   1.0000   1.0000
     1.0000   1.0000   1.0000   1.0000   1.0000   1.0000   1.0000   1.0000
     1.0000   1.0000   1.0000   1.0000   1.0000   1.0000   1.0000   1.0000
     1.0000   1.0000   1.0000   1.0000   1.0000   1.0000   1.0000   1.0000
     1.0000   1.0000   1.0000   1.0000   1.0000   1.0000   1.0000   1.0000
     1.0000   1.0000   1.0000   1.0000   1.0000   1.0000   1.0000   1.0000
     1.0000   1.0000   1.0000   1.0000   1.0000   1.0000   1.0000   1.0000
     1.0000   1.0000   1.0000   1.0000   1.0000   1.0000   1.0000   1.0000
     1.0000   1.0000   1.0000   1.0000   1.0000   1.0000   1.0000   1.0000
     1.0000   1.0000   1.0000   1.0000   1.0000   1.0000   1.0000   1.0000
     1.0000   1.0000   1.0000   1.0000   1.0000   1.0000   1.0000   1.0000
     1.0000   1.0000   1.0000   1.0000   1.0000   1.0000   1.0000   1.0000
     1.0000   1.0000   1.0000   1.0000   1.0000   1.0000   1.0000   1.0000
     1.0000   1.0000   1.0000   1.0000   1.0000   1.0000   1.0000   1.0000
     1.0000   1.0000   1.0000   1.0000   1.0000   1.0000   1.0000   1.0000
     1.0000   1.0000   1.0000   1.0000   1.0000   1.0000   1.0000   1.0000
     1.0000   1.0000   1.0000   1.0000   1.0000   1.0000   1.0000   1.0000
     1.0000   1.0000   1.0000   1.0000   1.0000   1.0000   1.0000   1.0000
     1.0000   1.0000   1.0000   1.0000   1.0000   1.0000   1.0000   1.0000
     1.0000   1.0000   1.0000   1.0000   1.0000   1.0000   1.0000   1.0000
     1.0000   1.0000   1.0000   1.0000   1.0000   1.0000   1.0000   1.0000
     1.0000   1.0000   1.0000   1.0000   1.0000   1.0000   1.0000   1.0000
     1.0000   1.0000   1.0000   1.0000   1.0000   1.0000   1.0000   1.0000
     1.0000   1.0000   1.0000   1.0000   1.0000   1.0000   1.0000   1.0000
     1.0000   1.0000   1.0000   1.0000   1.0000   1.0000   1.0000   1.0000
     1.0000   1.0000   1.0000   1.0000   1.0000   1.0000   1.0000   1.0000
     1.0000   1.0000   1.0000   0.4643   0.4341   0.0048   0.0000   0.0000
     0.0000   0.0000   0.0000   0.0000   0.0000   0.0000   0.0000   0.0000
     0.0000   0.0000   0.0000   0.0000   0.0000   0.0000   0.0000   0.0000
     0.0000   0.0000   0.0000   0.0000   0.0000   0.0000   0.0000   0.0000
     0.0000   0.0000   0.0000   0.0000   0.0000   0.0000   0.0000   0.0000
     0.0000   0.0000   0.0000   0.0000   0.0000   0.0000   0.0000   0.0000
     0.0000   0.0000

          k = 0.2500-0.5200 0.0000 ( 45398 PWs)   bands (ev):

   -56.8509 -56.8466 -56.5898 -56.5851 -56.5554 -56.5533 -56.4172 -56.4124
   -56.3354 -56.3335 -56.2641 -56.2592 -56.1231 -56.1182 -56.0078 -56.0025
   -55.9587 -55.9540 -55.9154 -55.9103 -26.7696 -26.7658 -26.7394 -26.6679
   -26.5118 -26.5016 -26.4354 -26.4090 -26.3694 -26.3554 -26.2970 -26.2955
   -26.2222 -26.2211 -26.2148 -26.2049 -26.1843 -26.1705 -26.1465 -26.1395
   -26.1280 -26.1178 -26.0720 -26.0666 -26.0330 -26.0078 -26.0013 -25.9959
   -25.9859 -25.9726 -25.9516 -25.9488 -25.9406 -25.9377 -25.8930 -25.8900
   -25.8427 -25.8418 -25.8002 -25.7949 -25.7598 -25.7596 -25.7263 -25.7075
   -25.6678 -25.6607 -25.6531 -25.6451 -25.5949 -25.5748 -25.5536 -25.5450
   -25.5257 -25.5072 -25.4906 -25.4716 -25.4517 -25.4428 -25.3744 -25.3646
   -14.8745 -14.5960 -14.5060 -14.3742 -14.2880 -14.2339 -14.1768 -14.0585
   -13.9978 -13.9255 -13.8892 -13.8172 -13.8055 -13.6978 -13.6125 -13.5966
   -13.5849 -13.5256 -13.5162 -13.4557 -13.3483 -13.3085 -13.2547 -13.1835
   -13.1224 -13.0834 -13.0259 -12.9401 -12.8602 -12.7946 -12.7099 -12.6447
   -12.5788 -12.5085 -12.4626 -12.4130  -2.7975  -2.7861  -2.5501  -2.4596
    -2.3564  -2.3382  -2.3119  -2.2117  -2.1885  -2.1702  -2.0268  -1.9835
    -1.9505  -1.9056  -1.8509  -1.7612  -1.7567  -1.6706  -1.6218  -1.5925
    -1.5777  -1.5684  -1.4847  -1.4716  -1.4481  -1.3860  -1.3029  -1.3014
    -1.2101  -1.2032  -1.1084  -1.0717  -1.0597  -0.9597  -0.8967  -0.8736
    -0.8553  -0.7874  -0.7182  -0.6723  -0.5657  -0.4976  -0.4219  -0.3258
    -0.2959  -0.2196  -0.1809  -0.0980  -0.0868  -0.0264   0.0176   0.0459
     0.0946   0.1093   0.1166   0.2145   0.2383   0.3029   0.3448   0.3478
     0.4217   0.4793   0.5073   0.5908   0.6218   0.6669   0.7336   0.7547
     0.7718   0.8646   0.9237   0.9769   0.9915   1.0779   1.1077   1.1109
     1.1905   1.2164   1.2692   1.2869   1.3901   1.4259   1.4342   1.4861
     1.5210   1.5917   1.6036   1.6644   1.6810   1.7240   1.7768   1.8519
     1.9281   1.9409   1.9739   1.9748   2.0860   2.1479   2.1622   2.2375
     2.2766   2.3934   2.4106   2.5355   2.5696   2.6401   2.7421   2.9231
     5.5505   5.9141   6.3041   6.4135   6.6524   6.9030   7.1252   7.1347
     7.1473   7.3326   7.4695   7.5253   7.6833   7.6839   7.8588   7.8725
     7.9218   7.9399   8.0033   8.1407   8.1416   8.2376   8.3140   8.3309
     8.3719   8.5173   8.5691   8.6091   8.7658   8.7950   8.9054   9.0055
     9.0229   9.0468   9.2033   9.2922   9.3543   9.4024   9.4477   9.5097
     9.5486   9.6556   9.6609   9.7545   9.8814   9.8985   9.9526  10.0256
    10.0836  10.1323

     occupation numbers 
     1.0000   1.0000   1.0000   1.0000   1.0000   1.0000   1.0000   1.0000
     1.0000   1.0000   1.0000   1.0000   1.0000   1.0000   1.0000   1.0000
     1.0000   1.0000   1.0000   1.0000   1.0000   1.0000   1.0000   1.0000
     1.0000   1.0000   1.0000   1.0000   1.0000   1.0000   1.0000   1.0000
     1.0000   1.0000   1.0000   1.0000   1.0000   1.0000   1.0000   1.0000
     1.0000   1.0000   1.0000   1.0000   1.0000   1.0000   1.0000   1.0000
     1.0000   1.0000   1.0000   1.0000   1.0000   1.0000   1.0000   1.0000
     1.0000   1.0000   1.0000   1.0000   1.0000   1.0000   1.0000   1.0000
     1.0000   1.0000   1.0000   1.0000   1.0000   1.0000   1.0000   1.0000
     1.0000   1.0000   1.0000   1.0000   1.0000   1.0000   1.0000   1.0000
     1.0000   1.0000   1.0000   1.0000   1.0000   1.0000   1.0000   1.0000
     1.0000   1.0000   1.0000   1.0000   1.0000   1.0000   1.0000   1.0000
     1.0000   1.0000   1.0000   1.0000   1.0000   1.0000   1.0000   1.0000
     1.0000   1.0000   1.0000   1.0000   1.0000   1.0000   1.0000   1.0000
     1.0000   1.0000   1.0000   1.0000   1.0000   1.0000   1.0000   1.0000
     1.0000   1.0000   1.0000   1.0000   1.0000   1.0000   1.0000   1.0000
     1.0000   1.0000   1.0000   1.0000   1.0000   1.0000   1.0000   1.0000
     1.0000   1.0000   1.0000   1.0000   1.0000   1.0000   1.0000   1.0000
     1.0000   1.0000   1.0000   1.0000   1.0000   1.0000   1.0000   1.0000
     1.0000   1.0000   1.0000   1.0000   1.0000   1.0000   1.0000   1.0000
     1.0000   1.0000   1.0000   1.0000   1.0000   1.0000   1.0000   1.0000
     1.0000   1.0000   1.0000   1.0000   1.0000   1.0000   1.0000   1.0000
     1.0000   1.0000   1.0000   1.0000   1.0000   1.0000   1.0000   1.0000
     1.0000   1.0000   1.0000   1.0000   1.0000   1.0000   1.0000   1.0000
     1.0000   1.0000   1.0000   1.0000   1.0000   1.0000   1.0000   1.0000
     1.0000   1.0000   1.0000   1.0000   1.0000   1.0000   1.0000   1.0000
     1.0000   1.0000   1.0000   1.0000   1.0000   1.0000   1.0000   1.0000
     1.0000   1.0000   1.0000   1.0000   1.0000   1.0000   1.0000   1.0000
     1.0000   1.0000   1.0028   1.0370   0.6158   0.0032   0.0000   0.0000
     0.0000   0.0000   0.0000   0.0000   0.0000   0.0000   0.0000   0.0000
     0.0000   0.0000   0.0000   0.0000   0.0000   0.0000   0.0000   0.0000
     0.0000   0.0000   0.0000   0.0000   0.0000   0.0000   0.0000   0.0000
     0.0000   0.0000   0.0000   0.0000   0.0000   0.0000   0.0000   0.0000
     0.0000   0.0000   0.0000   0.0000   0.0000   0.0000   0.0000   0.0000
     0.0000   0.0000

          k = 0.2500-0.2600 0.0000 ( 45558 PWs)   bands (ev):

   -56.8530 -56.8446 -56.5917 -56.5833 -56.5579 -56.5508 -56.4190 -56.4107
   -56.3375 -56.3315 -56.2659 -56.2574 -56.1249 -56.1164 -56.0098 -56.0007
   -55.9606 -55.9522 -55.9164 -55.9088 -26.7962 -26.7402 -26.6914 -26.6444
   -26.5788 -26.4631 -26.4164 -26.3930 -26.3760 -26.3215 -26.3114 -26.2830
   -26.2388 -26.2221 -26.2043 -26.2016 -26.1931 -26.1771 -26.1640 -26.1384
   -26.1036 -26.0908 -26.0837 -26.0404 -26.0316 -26.0216 -26.0049 -25.9884
   -25.9851 -25.9811 -25.9719 -25.9493 -25.9280 -25.9183 -25.8903 -25.8819
   -25.8675 -25.8345 -25.8050 -25.7781 -25.7587 -25.7485 -25.7355 -25.7029
   -25.6885 -25.6772 -25.6526 -25.6234 -25.6122 -25.5896 -25.5755 -25.5527
   -25.5469 -25.5076 -25.4962 -25.4738 -25.4561 -25.4169 -25.3903 -25.3605
   -15.1382 -14.7887 -14.5880 -14.5105 -14.4559 -14.2736 -14.1478 -14.0479
   -13.9521 -13.8359 -13.7976 -13.7714 -13.7053 -13.6457 -13.6068 -13.5858
   -13.5426 -13.4770 -13.4492 -13.3805 -13.3251 -13.3091 -13.2760 -13.2051
   -13.0996 -13.0143 -12.9979 -12.9403 -12.8396 -12.8010 -12.7138 -12.6788
   -12.5958 -12.5548 -12.4371 -12.3855  -2.9592  -2.8156  -2.5974  -2.5314
    -2.5053  -2.4101  -2.3754  -2.2651  -2.1791  -2.1419  -2.1021  -2.0717
    -2.0289  -1.9610  -1.9369  -1.8525  -1.8040  -1.7920  -1.7236  -1.6878
    -1.6059  -1.5601  -1.5206  -1.4462  -1.4050  -1.3811  -1.3495  -1.3001
    -1.2541  -1.1935  -1.1302  -1.0604  -0.9865  -0.9654  -0.8849  -0.8640
    -0.8213  -0.7652  -0.7086  -0.6459  -0.5694  -0.5363  -0.5070  -0.4125
    -0.3935  -0.2641  -0.2321  -0.1582  -0.1436  -0.0783  -0.0413   0.0480
     0.1056   0.1456   0.2335   0.2907   0.3419   0.3903   0.4485   0.4913
     0.5202   0.5542   0.5945   0.6335   0.6713   0.7213   0.7515   0.8146
     0.8419   0.8811   0.9213   0.9577   1.0193   1.0368   1.1265   1.1445
     1.2033   1.2409   1.2773   1.2885   1.3334   1.3967   1.4551   1.5006
     1.5724   1.6083   1.6277   1.6699   1.7363   1.7722   1.8042   1.8421
     1.9119   2.0073   2.0601   2.1134   2.1632   2.1873   2.2641   2.3148
     2.3513   2.3971   2.4694   2.5135   2.6114   2.7248   2.8045   2.8902
     5.3123   5.9624   6.0767   6.6801   6.6859   6.8905   7.0378   7.2736
     7.3925   7.5451   7.6779   7.6875   7.7983   7.9365   8.0490   8.1135
     8.1358   8.1881   8.3005   8.3330   8.3866   8.4861   8.5053   8.5363
     8.5885   8.6206   8.6990   8.7165   8.8281   8.9174   8.9398   9.0278
     9.1247   9.1917   9.2244   9.3009   9.3323   9.3898   9.4186   9.4952
     9.5180   9.6131   9.6310   9.6804   9.7457   9.8292   9.9098   9.9625
     9.9953  10.0837

     occupation numbers 
     1.0000   1.0000   1.0000   1.0000   1.0000   1.0000   1.0000   1.0000
     1.0000   1.0000   1.0000   1.0000   1.0000   1.0000   1.0000   1.0000
     1.0000   1.0000   1.0000   1.0000   1.0000   1.0000   1.0000   1.0000
     1.0000   1.0000   1.0000   1.0000   1.0000   1.0000   1.0000   1.0000
     1.0000   1.0000   1.0000   1.0000   1.0000   1.0000   1.0000   1.0000
     1.0000   1.0000   1.0000   1.0000   1.0000   1.0000   1.0000   1.0000
     1.0000   1.0000   1.0000   1.0000   1.0000   1.0000   1.0000   1.0000
     1.0000   1.0000   1.0000   1.0000   1.0000   1.0000   1.0000   1.0000
     1.0000   1.0000   1.0000   1.0000   1.0000   1.0000   1.0000   1.0000
     1.0000   1.0000   1.0000   1.0000   1.0000   1.0000   1.0000   1.0000
     1.0000   1.0000   1.0000   1.0000   1.0000   1.0000   1.0000   1.0000
     1.0000   1.0000   1.0000   1.0000   1.0000   1.0000   1.0000   1.0000
     1.0000   1.0000   1.0000   1.0000   1.0000   1.0000   1.0000   1.0000
     1.0000   1.0000   1.0000   1.0000   1.0000   1.0000   1.0000   1.0000
     1.0000   1.0000   1.0000   1.0000   1.0000   1.0000   1.0000   1.0000
     1.0000   1.0000   1.0000   1.0000   1.0000   1.0000   1.0000   1.0000
     1.0000   1.0000   1.0000   1.0000   1.0000   1.0000   1.0000   1.0000
     1.0000   1.0000   1.0000   1.0000   1.0000   1.0000   1.0000   1.0000
     1.0000   1.0000   1.0000   1.0000   1.0000   1.0000   1.0000   1.0000
     1.0000   1.0000   1.0000   1.0000   1.0000   1.0000   1.0000   1.0000
     1.0000   1.0000   1.0000   1.0000   1.0000   1.0000   1.0000   1.0000
     1.0000   1.0000   1.0000   1.0000   1.0000   1.0000   1.0000   1.0000
     1.0000   1.0000   1.0000   1.0000   1.0000   1.0000   1.0000   1.0000
     1.0000   1.0000   1.0000   1.0000   1.0000   1.0000   1.0000   1.0000
     1.0000   1.0000   1.0000   1.0000   1.0000   1.0000   1.0000   1.0000
     1.0000   1.0000   1.0000   1.0000   1.0000   1.0000   1.0000   1.0000
     1.0000   1.0000   1.0000   1.0000   1.0000   1.0000   1.0000   1.0000
     1.0000   1.0000   1.0000   1.0000   1.0000   1.0000   1.0000   1.0000
     1.0000   1.0000   1.0000   0.4642   0.4341   0.0048   0.0000   0.0000
     0.0000   0.0000   0.0000   0.0000   0.0000   0.0000   0.0000   0.0000
     0.0000   0.0000   0.0000   0.0000   0.0000   0.0000   0.0000   0.0000
     0.0000   0.0000   0.0000   0.0000   0.0000   0.0000   0.0000   0.0000
     0.0000   0.0000   0.0000   0.0000   0.0000   0.0000   0.0000   0.0000
     0.0000   0.0000   0.0000   0.0000   0.0000   0.0000   0.0000   0.0000
     0.0000   0.0000

          k =-0.5000 0.0000 0.0000 ( 45630 PWs)   bands (ev):

   -56.8489 -56.8489 -56.5875 -56.5875 -56.5544 -56.5544 -56.4149 -56.4149
   -56.3346 -56.3346 -56.2617 -56.2617 -56.1207 -56.1207 -56.0053 -56.0053
   -55.9564 -55.9564 -55.9125 -55.9125 -26.6785 -26.6785 -26.6609 -26.6609
   -26.5530 -26.5530 -26.4058 -26.4058 -26.3092 -26.3092 -26.2644 -26.2644
   -26.2418 -26.2418 -26.2041 -26.2041 -26.1581 -26.1580 -26.1542 -26.1542
   -26.1243 -26.1243 -26.0641 -26.0641 -25.9975 -25.9975 -25.9926 -25.9926
   -25.9757 -25.9757 -25.9213 -25.9213 -25.9163 -25.9163 -25.8849 -25.8849
   -25.8640 -25.8640 -25.8285 -25.8285 -25.7755 -25.7755 -25.7634 -25.7634
   -25.7039 -25.7039 -25.6716 -25.6716 -25.6030 -25.6030 -25.5810 -25.5810
   -25.5416 -25.5416 -25.4997 -25.4997 -25.4571 -25.4571 -25.3729 -25.3729
   -14.7164 -14.7164 -14.4002 -14.4002 -14.1804 -14.1804 -14.1203 -14.1203
   -13.9905 -13.9905 -13.8287 -13.8287 -13.6816 -13.6816 -13.6382 -13.6382
   -13.4906 -13.4906 -13.3995 -13.3994 -13.3291 -13.3291 -13.2451 -13.2451
   -13.1774 -13.1774 -13.0154 -13.0154 -12.8673 -12.8673 -12.7396 -12.7396
   -12.6532 -12.6532 -12.5525 -12.5525  -2.6004  -2.6004  -2.4199  -2.4199
    -2.2196  -2.2196  -2.1400  -2.1400  -2.0598  -2.0598  -1.9423  -1.9422
    -1.8310  -1.8310  -1.7607  -1.7607  -1.7347  -1.7347  -1.6713  -1.6713
    -1.6011  -1.6011  -1.4999  -1.4999  -1.4089  -1.4089  -1.2776  -1.2776
    -1.2271  -1.2271  -1.1839  -1.1839  -1.0904  -1.0904  -0.9412  -0.9412
    -0.9207  -0.9207  -0.8668  -0.8668  -0.7111  -0.7111  -0.6693  -0.6693
    -0.5346  -0.5346  -0.4203  -0.4203  -0.1708  -0.1708  -0.1286  -0.1286
    -0.0156  -0.0156   0.1176   0.1176   0.2857   0.2857   0.3999   0.3999
     0.4229   0.4229   0.5663   0.5663   0.7053   0.7053   0.7720   0.7720
     0.8924   0.8924   0.9776   0.9776   1.0436   1.0436   1.1727   1.1727
     1.2054   1.2054   1.3566   1.3566   1.4252   1.4252   1.5064   1.5064
     1.5529   1.5529   1.6801   1.6801   1.7830   1.7830   1.8083   1.8083
     1.9292   1.9292   2.0174   2.0174   2.1672   2.1672   2.2602   2.2603
     2.3445   2.3445   2.3907   2.3907   2.5444   2.5444   2.6802   2.6802
     5.6417   5.6417   6.5841   6.5841   6.7509   6.7509   7.5357   7.5357
     7.6271   7.6271   7.8024   7.8024   8.1615   8.1615   8.2985   8.2985
     8.3298   8.3298   8.3943   8.3943   8.5478   8.5478   8.7024   8.7024
     8.8318   8.8318   8.8883   8.8883   8.9837   8.9837   9.0641   9.0641
     9.1728   9.1729   9.2635   9.2635   9.3721   9.3721   9.4979   9.4979
     9.5940   9.5941   9.6787   9.6787   9.7578   9.7578   9.7901   9.7901
     9.9904   9.9904

     occupation numbers 
     1.0000   1.0000   1.0000   1.0000   1.0000   1.0000   1.0000   1.0000
     1.0000   1.0000   1.0000   1.0000   1.0000   1.0000   1.0000   1.0000
     1.0000   1.0000   1.0000   1.0000   1.0000   1.0000   1.0000   1.0000
     1.0000   1.0000   1.0000   1.0000   1.0000   1.0000   1.0000   1.0000
     1.0000   1.0000   1.0000   1.0000   1.0000   1.0000   1.0000   1.0000
     1.0000   1.0000   1.0000   1.0000   1.0000   1.0000   1.0000   1.0000
     1.0000   1.0000   1.0000   1.0000   1.0000   1.0000   1.0000   1.0000
     1.0000   1.0000   1.0000   1.0000   1.0000   1.0000   1.0000   1.0000
     1.0000   1.0000   1.0000   1.0000   1.0000   1.0000   1.0000   1.0000
     1.0000   1.0000   1.0000   1.0000   1.0000   1.0000   1.0000   1.0000
     1.0000   1.0000   1.0000   1.0000   1.0000   1.0000   1.0000   1.0000
     1.0000   1.0000   1.0000   1.0000   1.0000   1.0000   1.0000   1.0000
     1.0000   1.0000   1.0000   1.0000   1.0000   1.0000   1.0000   1.0000
     1.0000   1.0000   1.0000   1.0000   1.0000   1.0000   1.0000   1.0000
     1.0000   1.0000   1.0000   1.0000   1.0000   1.0000   1.0000   1.0000
     1.0000   1.0000   1.0000   1.0000   1.0000   1.0000   1.0000   1.0000
     1.0000   1.0000   1.0000   1.0000   1.0000   1.0000   1.0000   1.0000
     1.0000   1.0000   1.0000   1.0000   1.0000   1.0000   1.0000   1.0000
     1.0000   1.0000   1.0000   1.0000   1.0000   1.0000   1.0000   1.0000
     1.0000   1.0000   1.0000   1.0000   1.0000   1.0000   1.0000   1.0000
     1.0000   1.0000   1.0000   1.0000   1.0000   1.0000   1.0000   1.0000
     1.0000   1.0000   1.0000   1.0000   1.0000   1.0000   1.0000   1.0000
     1.0000   1.0000   1.0000   1.0000   1.0000   1.0000   1.0000   1.0000
     1.0000   1.0000   1.0000   1.0000   1.0000   1.0000   1.0000   1.0000
     1.0000   1.0000   1.0000   1.0000   1.0000   1.0000   1.0000   1.0000
     1.0000   1.0000   1.0000   1.0000   1.0000   1.0000   1.0000   1.0000
     1.0000   1.0000   1.0000   1.0000   1.0000   1.0000   1.0000   1.0000
     1.0000   1.0000   1.0000   1.0000   1.0000   1.0000   1.0000   1.0000
     1.0000   1.0000   0.9458   0.9458   0.1634   0.1634   0.0000   0.0000
     0.0000   0.0000   0.0000   0.0000   0.0000   0.0000   0.0000   0.0000
     0.0000   0.0000   0.0000   0.0000   0.0000   0.0000   0.0000   0.0000
     0.0000   0.0000   0.0000   0.0000   0.0000   0.0000   0.0000   0.0000
     0.0000   0.0000   0.0000   0.0000   0.0000   0.0000   0.0000   0.0000
     0.0000   0.0000   0.0000   0.0000   0.0000   0.0000   0.0000   0.0000
     0.0000   0.0000

          k =-0.5000 0.2600 0.0000 ( 45606 PWs)   bands (ev):

   -56.8488 -56.8488 -56.5875 -56.5875 -56.5544 -56.5544 -56.4149 -56.4148
   -56.3345 -56.3345 -56.2617 -56.2617 -56.1207 -56.1207 -56.0052 -56.0052
   -55.9564 -55.9564 -55.9128 -55.9128 -26.7644 -26.7644 -26.7008 -26.7008
   -26.5066 -26.5066 -26.4246 -26.4246 -26.3577 -26.3577 -26.2922 -26.2922
   -26.2257 -26.2257 -26.2031 -26.2031 -26.1765 -26.1765 -26.1419 -26.1419
   -26.1215 -26.1215 -26.0683 -26.0683 -26.0213 -26.0213 -25.9948 -25.9948
   -25.9766 -25.9766 -25.9491 -25.9490 -25.9356 -25.9356 -25.8922 -25.8922
   -25.8489 -25.8489 -25.7981 -25.7981 -25.7736 -25.7736 -25.7190 -25.7190
   -25.6637 -25.6637 -25.6448 -25.6448 -25.5836 -25.5836 -25.5465 -25.5465
   -25.5125 -25.5125 -25.4828 -25.4828 -25.4486 -25.4486 -25.3747 -25.3747
   -14.7213 -14.7213 -14.4506 -14.4506 -14.2360 -14.2360 -14.1199 -14.1199
   -14.0557 -14.0557 -13.9038 -13.9038 -13.7624 -13.7624 -13.6514 -13.6514
   -13.5734 -13.5734 -13.3993 -13.3993 -13.3464 -13.3464 -13.1585 -13.1585
   -13.1213 -13.1213 -12.9593 -12.9592 -12.8118 -12.8118 -12.6792 -12.6792
   -12.5597 -12.5597 -12.4490 -12.4490  -2.6430  -2.6430  -2.3666  -2.3666
    -2.2340  -2.2340  -2.1346  -2.1346  -2.0414  -2.0413  -1.9306  -1.9306
    -1.8022  -1.8022  -1.7016  -1.7016  -1.6559  -1.6559  -1.5826  -1.5826
    -1.5468  -1.5468  -1.4783  -1.4783  -1.3873  -1.3873  -1.2842  -1.2842
    -1.1777  -1.1777  -1.0729  -1.0729  -0.9983  -0.9983  -0.8827  -0.8827
    -0.7679  -0.7679  -0.6880  -0.6880  -0.6205  -0.6205  -0.5266  -0.5266
    -0.4227  -0.4227  -0.3257  -0.3257  -0.1818  -0.1818  -0.0854  -0.0854
    -0.0022  -0.0022   0.1048   0.1048   0.2017   0.2017   0.3228   0.3228
     0.3869   0.3869   0.4675   0.4675   0.5687   0.5687   0.6764   0.6764
     0.7747   0.7747   0.8975   0.8975   0.9954   0.9954   1.0812   1.0812
     1.1898   1.1898   1.2474   1.2474   1.3279   1.3279   1.4184   1.4184
     1.4816   1.4816   1.6222   1.6222   1.6732   1.6732   1.7720   1.7720
     1.8973   1.8973   1.9965   1.9965   2.1042   2.1042   2.2309   2.2309
     2.3286   2.3286   2.4068   2.4068   2.5194   2.5194   2.6972   2.6972
     5.6853   5.6853   6.4691   6.4691   6.7106   6.7106   7.2942   7.2942
     7.5063   7.5063   7.5352   7.5352   7.9226   7.9226   8.1253   8.1253
     8.1724   8.1724   8.2534   8.2534   8.4024   8.4024   8.4634   8.4634
     8.5920   8.5920   8.7401   8.7401   8.7980   8.7980   8.9623   8.9624
     9.0236   9.0236   9.1610   9.1610   9.2556   9.2556   9.3717   9.3717
     9.4975   9.4975   9.6751   9.6751   9.7553   9.7553   9.9195   9.9195
    10.0584  10.0584

     occupation numbers 
     1.0000   1.0000   1.0000   1.0000   1.0000   1.0000   1.0000   1.0000
     1.0000   1.0000   1.0000   1.0000   1.0000   1.0000   1.0000   1.0000
     1.0000   1.0000   1.0000   1.0000   1.0000   1.0000   1.0000   1.0000
     1.0000   1.0000   1.0000   1.0000   1.0000   1.0000   1.0000   1.0000
     1.0000   1.0000   1.0000   1.0000   1.0000   1.0000   1.0000   1.0000
     1.0000   1.0000   1.0000   1.0000   1.0000   1.0000   1.0000   1.0000
     1.0000   1.0000   1.0000   1.0000   1.0000   1.0000   1.0000   1.0000
     1.0000   1.0000   1.0000   1.0000   1.0000   1.0000   1.0000   1.0000
     1.0000   1.0000   1.0000   1.0000   1.0000   1.0000   1.0000   1.0000
     1.0000   1.0000   1.0000   1.0000   1.0000   1.0000   1.0000   1.0000
     1.0000   1.0000   1.0000   1.0000   1.0000   1.0000   1.0000   1.0000
     1.0000   1.0000   1.0000   1.0000   1.0000   1.0000   1.0000   1.0000
     1.0000   1.0000   1.0000   1.0000   1.0000   1.0000   1.0000   1.0000
     1.0000   1.0000   1.0000   1.0000   1.0000   1.0000   1.0000   1.0000
     1.0000   1.0000   1.0000   1.0000   1.0000   1.0000   1.0000   1.0000
     1.0000   1.0000   1.0000   1.0000   1.0000   1.0000   1.0000   1.0000
     1.0000   1.0000   1.0000   1.0000   1.0000   1.0000   1.0000   1.0000
     1.0000   1.0000   1.0000   1.0000   1.0000   1.0000   1.0000   1.0000
     1.0000   1.0000   1.0000   1.0000   1.0000   1.0000   1.0000   1.0000
     1.0000   1.0000   1.0000   1.0000   1.0000   1.0000   1.0000   1.0000
     1.0000   1.0000   1.0000   1.0000   1.0000   1.0000   1.0000   1.0000
     1.0000   1.0000   1.0000   1.0000   1.0000   1.0000   1.0000   1.0000
     1.0000   1.0000   1.0000   1.0000   1.0000   1.0000   1.0000   1.0000
     1.0000   1.0000   1.0000   1.0000   1.0000   1.0000   1.0000   1.0000
     1.0000   1.0000   1.0000   1.0000   1.0000   1.0000   1.0000   1.0000
     1.0000   1.0000   1.0000   1.0000   1.0000   1.0000   1.0000   1.0000
     1.0000   1.0000   1.0000   1.0000   1.0000   1.0000   1.0000   1.0000
     1.0000   1.0000   1.0000   1.0000   1.0000   1.0000   1.0000   1.0000
     1.0000   1.0000   1.0735   1.0735   0.3139   0.3139   0.0000   0.0000
     0.0000   0.0000   0.0000   0.0000   0.0000   0.0000   0.0000   0.0000
     0.0000   0.0000   0.0000   0.0000   0.0000   0.0000   0.0000   0.0000
     0.0000   0.0000   0.0000   0.0000   0.0000   0.0000   0.0000   0.0000
     0.0000   0.0000   0.0000   0.0000   0.0000   0.0000   0.0000   0.0000
     0.0000   0.0000   0.0000   0.0000   0.0000   0.0000   0.0000   0.0000
     0.0000   0.0000

          k =-0.5000-0.5200 0.0000 ( 45488 PWs)   bands (ev):

   -56.8487 -56.8487 -56.5875 -56.5875 -56.5544 -56.5544 -56.4148 -56.4148
   -56.3344 -56.3344 -56.2616 -56.2616 -56.1206 -56.1206 -56.0051 -56.0051
   -55.9563 -55.9563 -55.9130 -55.9130 -26.8137 -26.8137 -26.7407 -26.7407
   -26.5291 -26.5291 -26.4209 -26.4209 -26.3582 -26.3582 -26.3097 -26.3097
   -26.2512 -26.2512 -26.2419 -26.2419 -26.1845 -26.1845 -26.1124 -26.1124
   -26.1012 -26.1012 -26.0799 -26.0799 -26.0408 -26.0408 -26.0065 -26.0065
   -25.9908 -25.9908 -25.9648 -25.9648 -25.9104 -25.9104 -25.9034 -25.9034
   -25.8388 -25.8388 -25.7786 -25.7786 -25.7524 -25.7524 -25.6926 -25.6926
   -25.6439 -25.6438 -25.6125 -25.6125 -25.5772 -25.5771 -25.5055 -25.5055
   -25.4929 -25.4929 -25.4739 -25.4739 -25.4264 -25.4264 -25.3758 -25.3758
   -14.7342 -14.7342 -14.4922 -14.4922 -14.2805 -14.2805 -14.1220 -14.1220
   -14.1037 -14.1036 -13.9593 -13.9593 -13.8448 -13.8447 -13.7109 -13.7109
   -13.6117 -13.6117 -13.4379 -13.4379 -13.3019 -13.3019 -13.1176 -13.1176
   -13.0539 -13.0538 -12.9029 -12.9029 -12.7514 -12.7514 -12.6109 -12.6109
   -12.4694 -12.4694 -12.3864 -12.3864  -2.4653  -2.4653  -2.2865  -2.2865
    -2.1665  -2.1665  -2.0860  -2.0860  -1.9812  -1.9812  -1.9113  -1.9113
    -1.8596  -1.8596  -1.7883  -1.7883  -1.6923  -1.6922  -1.6003  -1.6002
    -1.5685  -1.5685  -1.5021  -1.5021  -1.3784  -1.3784  -1.2524  -1.2524
    -1.1869  -1.1869  -1.0091  -1.0091  -0.8448  -0.8448  -0.7865  -0.7865
    -0.6676  -0.6676  -0.6126  -0.6126  -0.5337  -0.5337  -0.4444  -0.4444
    -0.3664  -0.3664  -0.2287  -0.2287  -0.1463  -0.1463  -0.0605  -0.0605
     0.0411   0.0411   0.1131   0.1131   0.2307   0.2307   0.2592   0.2592
     0.4006   0.4006   0.4714   0.4714   0.5596   0.5596   0.6605   0.6605
     0.7955   0.7955   0.8287   0.8287   0.8891   0.8891   0.9839   0.9839
     1.0604   1.0604   1.2103   1.2103   1.2965   1.2965   1.4049   1.4049
     1.4364   1.4364   1.5324   1.5324   1.5909   1.5909   1.7321   1.7321
     1.8698   1.8698   1.9645   1.9645   2.0663   2.0663   2.1326   2.1326
     2.2224   2.2224   2.3729   2.3729   2.4391   2.4392   2.6097   2.6097
     5.8000   5.8000   6.4453   6.4453   6.5968   6.5968   6.8406   6.8407
     7.3587   7.3587   7.4486   7.4486   7.7029   7.7029   7.9113   7.9113
     8.0633   8.0633   8.1180   8.1180   8.2115   8.2115   8.2844   8.2844
     8.3949   8.3949   8.5273   8.5273   8.6677   8.6677   8.8006   8.8006
     8.9394   8.9394   9.0089   9.0089   9.1875   9.1875   9.3983   9.3983
     9.5525   9.5525   9.7175   9.7175   9.8089   9.8089   9.9396   9.9396
    10.0532  10.0535

     occupation numbers 
     1.0000   1.0000   1.0000   1.0000   1.0000   1.0000   1.0000   1.0000
     1.0000   1.0000   1.0000   1.0000   1.0000   1.0000   1.0000   1.0000
     1.0000   1.0000   1.0000   1.0000   1.0000   1.0000   1.0000   1.0000
     1.0000   1.0000   1.0000   1.0000   1.0000   1.0000   1.0000   1.0000
     1.0000   1.0000   1.0000   1.0000   1.0000   1.0000   1.0000   1.0000
     1.0000   1.0000   1.0000   1.0000   1.0000   1.0000   1.0000   1.0000
     1.0000   1.0000   1.0000   1.0000   1.0000   1.0000   1.0000   1.0000
     1.0000   1.0000   1.0000   1.0000   1.0000   1.0000   1.0000   1.0000
     1.0000   1.0000   1.0000   1.0000   1.0000   1.0000   1.0000   1.0000
     1.0000   1.0000   1.0000   1.0000   1.0000   1.0000   1.0000   1.0000
     1.0000   1.0000   1.0000   1.0000   1.0000   1.0000   1.0000   1.0000
     1.0000   1.0000   1.0000   1.0000   1.0000   1.0000   1.0000   1.0000
     1.0000   1.0000   1.0000   1.0000   1.0000   1.0000   1.0000   1.0000
     1.0000   1.0000   1.0000   1.0000   1.0000   1.0000   1.0000   1.0000
     1.0000   1.0000   1.0000   1.0000   1.0000   1.0000   1.0000   1.0000
     1.0000   1.0000   1.0000   1.0000   1.0000   1.0000   1.0000   1.0000
     1.0000   1.0000   1.0000   1.0000   1.0000   1.0000   1.0000   1.0000
     1.0000   1.0000   1.0000   1.0000   1.0000   1.0000   1.0000   1.0000
     1.0000   1.0000   1.0000   1.0000   1.0000   1.0000   1.0000   1.0000
     1.0000   1.0000   1.0000   1.0000   1.0000   1.0000   1.0000   1.0000
     1.0000   1.0000   1.0000   1.0000   1.0000   1.0000   1.0000   1.0000
     1.0000   1.0000   1.0000   1.0000   1.0000   1.0000   1.0000   1.0000
     1.0000   1.0000   1.0000   1.0000   1.0000   1.0000   1.0000   1.0000
     1.0000   1.0000   1.0000   1.0000   1.0000   1.0000   1.0000   1.0000
     1.0000   1.0000   1.0000   1.0000   1.0000   1.0000   1.0000   1.0000
     1.0000   1.0000   1.0000   1.0000   1.0000   1.0000   1.0000   1.0000
     1.0000   1.0000   1.0000   1.0000   1.0000   1.0000   1.0000   1.0000
     1.0000   1.0000   1.0000   1.0000   1.0000   1.0000   1.0000   1.0000
     1.0000   1.0000   1.0582   1.0582   0.8963   0.8963   0.0214   0.0213
     0.0000   0.0000   0.0000   0.0000   0.0000   0.0000   0.0000   0.0000
     0.0000   0.0000   0.0000   0.0000   0.0000   0.0000   0.0000   0.0000
     0.0000   0.0000   0.0000   0.0000   0.0000   0.0000   0.0000   0.0000
     0.0000   0.0000   0.0000   0.0000   0.0000   0.0000   0.0000   0.0000
     0.0000   0.0000   0.0000   0.0000   0.0000   0.0000   0.0000   0.0000
     0.0000   0.0000

     the Fermi energy is     6.6924 ev

!    total energy              =   -3121.43985361 Ry
     estimated scf accuracy    <          9.7E-11 Ry
     smearing contrib. (-TS)   =      -0.00211695 Ry
     internal energy E=F+TS    =   -3121.43773666 Ry

     The total energy is F=E-TS. E is the sum of the following terms:
     one-electron contribution =  -97174.04701805 Ry
     hartree contribution      =   48676.91422201 Ry
     xc contribution           =    -490.49086663 Ry
     ewald contribution        =   45866.18652807 Ry
     electric field correction =      -0.00060207 Ry

     convergence has been achieved in  11 iterations

     Forces acting on atoms (cartesian axes, Ry/au):

     atom    1 type  1   force =     0.00000631    0.00000047   -0.00000080
     atom    2 type  1   force =     0.00000232    0.00000115   -0.00000207
     atom    3 type  1   force =    -0.00000275   -0.00000198   -0.00000237
     atom    4 type  1   force =    -0.00000510    0.00000189    0.00000314
     atom    5 type  1   force =     0.00000468    0.00000497    0.00000021
     atom    6 type  1   force =     0.00000640   -0.00000046   -0.00000083
     atom    7 type  1   force =     0.00000227   -0.00000144   -0.00000202
     atom    8 type  1   force =    -0.00000281    0.00000168   -0.00000233
     atom    9 type  1   force =    -0.00000510   -0.00000192    0.00000323
     atom   10 type  1   force =     0.00000472   -0.00000489    0.00000035
     atom   11 type  1   force =     0.00000895    0.00000150   -0.00000352
     atom   12 type  1   force =    -0.00000181   -0.00000163   -0.00000158
     atom   13 type  1   force =    -0.00000335   -0.00000032    0.00000163
     atom   14 type  1   force =    -0.00000584    0.00000195    0.00000177
     atom   15 type  1   force =    -0.00000525    0.00000275   -0.00000331
     atom   16 type  1   force =     0.00000893   -0.00000161   -0.00000358
     atom   17 type  1   force =    -0.00000178    0.00000179   -0.00000154
     atom   18 type  1   force =    -0.00000331    0.00000056    0.00000167
     atom   19 type  1   force =    -0.00000584   -0.00000204    0.00000190
     atom   20 type  1   force =    -0.00000560   -0.00000257   -0.00000318
     atom   21 type  2   force =     0.00000268   -0.00000191   -0.00000613
     atom   22 type  2   force =    -0.00001237    0.00000306    0.00000041
     atom   23 type  2   force =     0.00000260   -0.00000460    0.00000050
     atom   24 type  2   force =     0.00000518   -0.00000237    0.00000160
     atom   25 type  2   force =     0.00000122    0.00001018   -0.00000057
     atom   26 type  2   force =     0.00000270    0.00000196   -0.00000635
     atom   27 type  2   force =    -0.00001215   -0.00000304    0.00000023
     atom   28 type  2   force =     0.00000285    0.00000466    0.00000015
     atom   29 type  2   force =     0.00000525    0.00000236    0.00000146
     atom   30 type  2   force =     0.00000137   -0.00000996   -0.00000070
     atom   31 type  2   force =     0.00000094    0.00000224    0.00000231
     atom   32 type  2   force =    -0.00000040    0.00000384    0.00000517
     atom   33 type  2   force =     0.00000202    0.00000005    0.00000209
     atom   34 type  2   force =     0.00000377    0.00000388   -0.00000015
     atom   35 type  2   force =     0.00000109   -0.00000287   -0.00000300
     atom   36 type  2   force =    -0.00000498   -0.00000327    0.00000055
     atom   37 type  2   force =     0.00000044    0.00000325   -0.00000313
     atom   38 type  2   force =     0.00000853    0.00000057   -0.00000041
     atom   39 type  2   force =     0.00000039    0.00000263    0.00000597
     atom   40 type  2   force =    -0.00000494    0.00000310    0.00000071
     atom   41 type  2   force =     0.00000052   -0.00000322   -0.00000271
     atom   42 type  2   force =     0.00000873   -0.00000055   -0.00000015
     atom   43 type  2   force =     0.00000032   -0.00000264    0.00000607
     atom   44 type  2   force =     0.00000091   -0.00000224    0.00000231
     atom   45 type  2   force =    -0.00000578    0.00000046   -0.00000545
     atom   46 type  2   force =    -0.00000032   -0.00000406    0.00000515
     atom   47 type  2   force =    -0.00000289   -0.00000084    0.00000078
     atom   48 type  2   force =     0.00000207   -0.00000031    0.00000196
     atom   49 type  2   force =     0.00000184   -0.00000356    0.00000216
     atom   50 type  2   force =     0.00000379   -0.00000427   -0.00000019
     atom   51 type  2   force =    -0.00000279    0.00000055    0.00000398
     atom   52 type  2   force =     0.00000109    0.00000289   -0.00000298
     atom   53 type  2   force =    -0.00000577   -0.00000056   -0.00000543
     atom   54 type  2   force =    -0.00000295    0.00000115    0.00000078
     atom   55 type  2   force =     0.00000177    0.00000388    0.00000228
     atom   56 type  2   force =    -0.00000277   -0.00000029    0.00000400
     The non-local contrib.  to forces
     atom    1 type  1   force =    -0.01911566    0.01974737   -0.06897090
     atom    2 type  1   force =    -0.03050837    0.07125833    0.01775952
     atom    3 type  1   force =    -0.02863192    0.06461148    0.02417977
     atom    4 type  1   force =    -0.02882598    0.06451715    0.03147211
     atom    5 type  1   force =    -0.04823914    0.04600540    0.06616956
     atom    6 type  1   force =    -0.01911604   -0.01974724   -0.06897129
     atom    7 type  1   force =    -0.03050837   -0.07125849    0.01775777
     atom    8 type  1   force =    -0.02863261   -0.06461079    0.02417790
     atom    9 type  1   force =    -0.02882699   -0.06451589    0.03147021
     atom   10 type  1   force =    -0.04824070   -0.04600447    0.06617261
     atom   11 type  1   force =     0.03007219   -0.08231741   -0.01153498
     atom   12 type  1   force =     0.02911732   -0.06668635    0.02270407
     atom   13 type  1   force =     0.02894508   -0.06458763    0.02626076
     atom   14 type  1   force =     0.03152084   -0.07439351    0.05027671
     atom   15 type  1   force =     0.03189238   -0.06096440    0.24612773
     atom   16 type  1   force =     0.03007242    0.08231643   -0.01153576
     atom   17 type  1   force =     0.02911716    0.06668696    0.02270661
     atom   18 type  1   force =     0.02894416    0.06458851    0.02626320
     atom   19 type  1   force =     0.03152013    0.07439402    0.05027748
     atom   20 type  1   force =     0.03189633    0.06096365    0.24612649
     atom   21 type  2   force =    -0.08869155    0.04649334    0.05274871
     atom   22 type  2   force =    -0.07253368    0.06606112    0.02402593
     atom   23 type  2   force =    -0.08060718    0.07181154    0.02508287
     atom   24 type  2   force =    -0.09185237    0.07590475    0.04066388
     atom   25 type  2   force =    -0.10345136    0.10185227    0.27573788
     atom   26 type  2   force =    -0.08869148   -0.04649435    0.05275291
     atom   27 type  2   force =    -0.07253487   -0.06605951    0.02401626
     atom   28 type  2   force =    -0.08061356   -0.07180869    0.02506912
     atom   29 type  2   force =    -0.09186191   -0.07590339    0.04065558
     atom   30 type  2   force =    -0.10345654   -0.10185166    0.27573438
     atom   31 type  2   force =    -0.02473298   -0.17308421   -0.02787156
     atom   32 type  2   force =    -0.04168041   -0.14910866   -0.00995345
     atom   33 type  2   force =    -0.03950953   -0.14730597   -0.00337336
     atom   34 type  2   force =    -0.03444540   -0.14939580    0.00231887
     atom   35 type  2   force =    -0.09907784   -0.06982265   -0.04611460
     atom   36 type  2   force =     0.05457633    0.05988219    0.01596409
     atom   37 type  2   force =     0.07812087    0.06981607    0.02390621
     atom   38 type  2   force =     0.08472654    0.07353426    0.02635350
     atom   39 type  2   force =     0.12781193    0.08756479    0.03935014
     atom   40 type  2   force =     0.05457338   -0.05988328    0.01595940
     atom   41 type  2   force =     0.07812942   -0.06981506    0.02389604
     atom   42 type  2   force =     0.08473763   -0.07353183    0.02634271
     atom   43 type  2   force =     0.12781815   -0.08756479    0.03934152
     atom   44 type  2   force =    -0.02472990    0.17308548   -0.02787036
     atom   45 type  2   force =     0.04638910    0.15141738   -0.02090720
     atom   46 type  2   force =    -0.04168866    0.14910725   -0.00995395
     atom   47 type  2   force =     0.04015865    0.14812923   -0.00515351
     atom   48 type  2   force =    -0.03952223    0.14730455   -0.00337569
     atom   49 type  2   force =     0.03833496    0.14849791    0.00113249
     atom   50 type  2   force =    -0.03445421    0.14939565    0.00231771
     atom   51 type  2   force =     0.02179828    0.15196670    0.05485986
     atom   52 type  2   force =    -0.09908415    0.06982025   -0.04611856
     atom   53 type  2   force =     0.04638685   -0.15142003   -0.02090526
     atom   54 type  2   force =     0.04014638   -0.14813198   -0.00515135
     atom   55 type  2   force =     0.03832131   -0.14850000    0.00113373
     atom   56 type  2   force =     0.02179422   -0.15196509    0.05486064
     The ionic contribution  to forces
     atom    1 type  1   force =    -1.62560038    1.06546481 -342.68941536
     atom    2 type  1   force =    -1.84474359   -2.36134251 -189.08861792
     atom    3 type  1   force =    -1.80239167   -2.80489906  -33.78481936
     atom    4 type  1   force =    -1.85677420   -2.78852225  121.85836047
     atom    5 type  1   force =    -2.42745828   -3.35818061  282.33263986
     atom    6 type  1   force =    -1.62559602   -1.06547523 -342.68943775
     atom    7 type  1   force =    -1.84471259    2.36135015 -189.08869996
     atom    8 type  1   force =    -1.80239318    2.80491206  -33.78496907
     atom    9 type  1   force =    -1.85680200    2.78853735  121.85818800
     atom   10 type  1   force =    -2.42746608    3.35818273  282.33248737
     atom   11 type  1   force =     1.89988380    1.60023550 -267.11672330
     atom   12 type  1   force =     1.81386856    2.68371999 -111.43496440
     atom   13 type  1   force =     1.81602611    2.82846623   43.91358748
     atom   14 type  1   force =     1.98833736    2.53380201  200.30143070
     atom   15 type  1   force =     0.27490098    5.32250261  347.01543876
     atom   16 type  1   force =     1.89986166   -1.60023511 -267.11674284
     atom   17 type  1   force =     1.81388974   -2.68370257 -111.43477742
     atom   18 type  1   force =     1.81602184   -2.82845280   43.91380575
     atom   19 type  1   force =     1.98830169   -2.53380135  200.30155626
     atom   20 type  1   force =     0.27492943   -5.32253882  347.01541487
     atom   21 type  2   force =     1.02719724    0.30611851 -162.40709856
     atom   22 type  2   force =     1.02255272    0.62693778  -85.53494172
     atom   23 type  2   force =     1.08056766    0.64488584   -8.23622858
     atom   24 type  2   force =     1.18289422    0.61933746   69.07600301
     atom   25 type  2   force =     1.18848314    0.95759186  144.37041120
     atom   26 type  2   force =     1.02717306   -0.30611409 -162.40717246
     atom   27 type  2   force =     1.02259693   -0.62693202  -85.53475015
     atom   28 type  2   force =     1.08064310   -0.64489836   -8.23602780
     atom   29 type  2   force =     1.18295366   -0.61936583   69.07607612
     atom   30 type  2   force =     1.18851437   -0.95760100  144.37036484
     atom   31 type  2   force =     0.16588825    2.38562859 -155.02652710
     atom   32 type  2   force =     0.28858139    2.44790019  -75.60315465
     atom   33 type  2   force =     0.28541462    2.46953316    2.20692468
     atom   34 type  2   force =     0.26781693    2.52702776   80.33476768
     atom   35 type  2   force =     0.80079152    1.78109828  162.24274136
     atom   36 type  2   force =    -0.87062779    0.58219189 -123.71567721
     atom   37 type  2   force =    -1.06210161    0.64307652  -46.93822863
     atom   38 type  2   force =    -1.11547157    0.63871949   30.49522756
     atom   39 type  2   force =    -1.47221488    0.51775933  107.71273182
     atom   40 type  2   force =    -0.87061275   -0.58216635 -123.71560442
     atom   41 type  2   force =    -1.06217390   -0.64307951  -46.93810247
     atom   42 type  2   force =    -1.11555425   -0.63874667   30.49537481
     atom   43 type  2   force =    -1.47226476   -0.51775848  107.71281308
     atom   44 type  2   force =     0.16587455   -2.38563438 -155.02652853
     atom   45 type  2   force =    -0.30570648   -2.38312020 -114.69879078
     atom   46 type  2   force =     0.28864793   -2.44791476  -75.60313279
     atom   47 type  2   force =    -0.28620828   -2.46472265  -36.67731950
     atom   48 type  2   force =     0.28551159   -2.46954099    2.20698510
     atom   49 type  2   force =    -0.28093846   -2.49267903   41.11515794
     atom   50 type  2   force =     0.26789130   -2.52702245   80.33481991
     atom   51 type  2   force =    -0.15320346   -2.67362927  119.97672214
     atom   52 type  2   force =     0.80083139   -1.78106945  162.24281886
     atom   53 type  2   force =    -0.30568554    2.38311093 -114.69881386
     atom   54 type  2   force =    -0.28611015    2.46473097  -36.67736403
     atom   55 type  2   force =    -0.28083820    2.49270233   41.11510446
     atom   56 type  2   force =    -0.15319667    2.67362147  119.97667650
     The local contribution  to forces
     atom    1 type  1   force =     1.64472875   -1.08521146  342.76048589
     atom    2 type  1   force =     1.87526075    2.29008512  189.07296139
     atom    3 type  1   force =     1.83102689    2.74028544   33.76274566
     atom    4 type  1   force =     1.88560114    2.72400638 -121.88770796
     atom    5 type  1   force =     2.47570855    3.31218049 -282.39670379
     atom    6 type  1   force =     1.64472485    1.08522154  342.76050864
     atom    7 type  1   force =     1.87522971   -2.29009312  189.07304522
     atom    8 type  1   force =     1.83102904   -2.74029966   33.76289729
     atom    9 type  1   force =     1.88562996   -2.72402298 -121.88753349
     atom   10 type  1   force =     2.47571802   -3.31218366 -282.39655417
     atom   11 type  1   force =    -1.92994051   -1.51791638  267.13036205
     atom   12 type  1   force =    -1.84298158   -2.61703537  111.41435882
     atom   13 type  1   force =    -1.84496836   -2.76387903  -43.93773090
     atom   14 type  1   force =    -2.01985835   -2.45940670 -200.34959243
     atom   15 type  1   force =    -0.30679243   -5.26153560 -347.25945837
     atom   16 type  1   force =    -1.92991861    1.51791662  267.13038232
     atom   17 type  1   force =    -1.84300256    2.61701727  111.41416934
     atom   18 type  1   force =    -1.84496312    2.76386476  -43.93795157
     atom   19 type  1   force =    -2.01982198    2.45940521 -200.34971862
     atom   20 type  1   force =    -0.30682502    5.26157251 -347.25943313
     atom   21 type  2   force =    -0.93849687   -0.35261334  162.35538973
     atom   22 type  2   force =    -0.95002441   -0.69299578   85.51196302
     atom   23 type  2   force =    -0.99995162   -0.71670198    8.21219837
     atom   24 type  2   force =    -1.09103072   -0.69524480  -69.11560612
     atom   25 type  2   force =    -1.08502433   -1.05943446 -144.64510064
     atom   26 type  2   force =    -0.93847272    0.35260973  162.35545923
     atom   27 type  2   force =    -0.95006721    0.69298819   85.51178096
     atom   28 type  2   force =    -1.00002044    0.71671147    8.21201101
     atom   29 type  2   force =    -1.09108055    0.69527156  -69.11567106
     atom   30 type  2   force =    -1.08505016    1.05944295 -144.64505092
     atom   31 type  2   force =    -0.14114760   -2.21254244  155.05544687
     atom   32 type  2   force =    -0.24689491   -2.29878794   75.61415805
     atom   33 type  2   force =    -0.24589693   -2.32222717   -2.20249592
     atom   34 type  2   force =    -0.23336188   -2.37762863  -80.33602795
     atom   35 type  2   force =    -0.70170645   -1.71127791 -162.19557888
     atom   36 type  2   force =     0.81605317   -0.64207769  123.70076444
     atom   37 type  2   force =     0.98398745   -0.71288982   46.91536599
     atom   38 type  2   force =     1.03075928   -0.71225305  -30.52052361
     atom   39 type  2   force =     1.34440967   -0.60532171 -107.75102355
     atom   40 type  2   force =     0.81604113    0.64205284  123.70069648
     atom   41 type  2   force =     0.98405127    0.71289160   46.91525038
     atom   42 type  2   force =     1.03083105    0.71227759  -30.52065983
     atom   43 type  2   force =     1.34445326    0.60532061 -107.75109611
     atom   44 type  2   force =    -0.14113704    2.21254677  155.05544711
     atom   45 type  2   force =     0.25931855    2.23170339  114.72074407
     atom   46 type  2   force =    -0.24695312    2.29880349   75.61413667
     atom   47 type  2   force =     0.24605325    2.31659259   36.68352210
     atom   48 type  2   force =    -0.24598113    2.32223596   -2.20255413
     atom   49 type  2   force =     0.24261145    2.34417753  -41.11522969
     atom   50 type  2   force =    -0.23342743    2.37762290  -80.33607906
     atom   51 type  2   force =     0.13140888    2.52166273 -120.03052784
     atom   52 type  2   force =    -0.70174002    1.71125130 -162.19565239
     atom   53 type  2   force =     0.25929990   -2.23169179  114.72076522
     atom   54 type  2   force =     0.24596733   -2.31659808   36.68356448
     atom   55 type  2   force =     0.24252477   -2.34419867  -41.11517734
     atom   56 type  2   force =     0.13140618   -2.52165652 -120.03048297
     The core correction contribution to forces
     atom    1 type  1   force =     0.00000000    0.00000000    0.00000000
     atom    2 type  1   force =     0.00000000    0.00000000    0.00000000
     atom    3 type  1   force =     0.00000000    0.00000000    0.00000000
     atom    4 type  1   force =     0.00000000    0.00000000    0.00000000
     atom    5 type  1   force =     0.00000000    0.00000000    0.00000000
     atom    6 type  1   force =     0.00000000    0.00000000    0.00000000
     atom    7 type  1   force =     0.00000000    0.00000000    0.00000000
     atom    8 type  1   force =     0.00000000    0.00000000    0.00000000
     atom    9 type  1   force =     0.00000000    0.00000000    0.00000000
     atom   10 type  1   force =     0.00000000    0.00000000    0.00000000
     atom   11 type  1   force =     0.00000000    0.00000000    0.00000000
     atom   12 type  1   force =     0.00000000    0.00000000    0.00000000
     atom   13 type  1   force =     0.00000000    0.00000000    0.00000000
     atom   14 type  1   force =     0.00000000    0.00000000    0.00000000
     atom   15 type  1   force =     0.00000000    0.00000000    0.00000000
     atom   16 type  1   force =     0.00000000    0.00000000    0.00000000
     atom   17 type  1   force =     0.00000000    0.00000000    0.00000000
     atom   18 type  1   force =     0.00000000    0.00000000    0.00000000
     atom   19 type  1   force =     0.00000000    0.00000000    0.00000000
     atom   20 type  1   force =     0.00000000    0.00000000    0.00000000
     atom   21 type  2   force =     0.00000000    0.00000000    0.00000000
     atom   22 type  2   force =     0.00000000    0.00000000    0.00000000
     atom   23 type  2   force =     0.00000000    0.00000000    0.00000000
     atom   24 type  2   force =     0.00000000    0.00000000    0.00000000
     atom   25 type  2   force =     0.00000000    0.00000000    0.00000000
     atom   26 type  2   force =     0.00000000    0.00000000    0.00000000
     atom   27 type  2   force =     0.00000000    0.00000000    0.00000000
     atom   28 type  2   force =     0.00000000    0.00000000    0.00000000
     atom   29 type  2   force =     0.00000000    0.00000000    0.00000000
     atom   30 type  2   force =     0.00000000    0.00000000    0.00000000
     atom   31 type  2   force =     0.00000000    0.00000000    0.00000000
     atom   32 type  2   force =     0.00000000    0.00000000    0.00000000
     atom   33 type  2   force =     0.00000000    0.00000000    0.00000000
     atom   34 type  2   force =     0.00000000    0.00000000    0.00000000
     atom   35 type  2   force =     0.00000000    0.00000000    0.00000000
     atom   36 type  2   force =     0.00000000    0.00000000    0.00000000
     atom   37 type  2   force =     0.00000000    0.00000000    0.00000000
     atom   38 type  2   force =     0.00000000    0.00000000    0.00000000
     atom   39 type  2   force =     0.00000000    0.00000000    0.00000000
     atom   40 type  2   force =     0.00000000    0.00000000    0.00000000
     atom   41 type  2   force =     0.00000000    0.00000000    0.00000000
     atom   42 type  2   force =     0.00000000    0.00000000    0.00000000
     atom   43 type  2   force =     0.00000000    0.00000000    0.00000000
     atom   44 type  2   force =     0.00000000    0.00000000    0.00000000
     atom   45 type  2   force =     0.00000000    0.00000000    0.00000000
     atom   46 type  2   force =     0.00000000    0.00000000    0.00000000
     atom   47 type  2   force =     0.00000000    0.00000000    0.00000000
     atom   48 type  2   force =     0.00000000    0.00000000    0.00000000
     atom   49 type  2   force =     0.00000000    0.00000000    0.00000000
     atom   50 type  2   force =     0.00000000    0.00000000    0.00000000
     atom   51 type  2   force =     0.00000000    0.00000000    0.00000000
     atom   52 type  2   force =     0.00000000    0.00000000    0.00000000
     atom   53 type  2   force =     0.00000000    0.00000000    0.00000000
     atom   54 type  2   force =     0.00000000    0.00000000    0.00000000
     atom   55 type  2   force =     0.00000000    0.00000000    0.00000000
     atom   56 type  2   force =     0.00000000    0.00000000    0.00000000
     The Hubbard contrib.    to forces
     atom    1 type  1   force =     0.00000000    0.00000000    0.00000000
     atom    2 type  1   force =     0.00000000    0.00000000    0.00000000
     atom    3 type  1   force =     0.00000000    0.00000000    0.00000000
     atom    4 type  1   force =     0.00000000    0.00000000    0.00000000
     atom    5 type  1   force =     0.00000000    0.00000000    0.00000000
     atom    6 type  1   force =     0.00000000    0.00000000    0.00000000
     atom    7 type  1   force =     0.00000000    0.00000000    0.00000000
     atom    8 type  1   force =     0.00000000    0.00000000    0.00000000
     atom    9 type  1   force =     0.00000000    0.00000000    0.00000000
     atom   10 type  1   force =     0.00000000    0.00000000    0.00000000
     atom   11 type  1   force =     0.00000000    0.00000000    0.00000000
     atom   12 type  1   force =     0.00000000    0.00000000    0.00000000
     atom   13 type  1   force =     0.00000000    0.00000000    0.00000000
     atom   14 type  1   force =     0.00000000    0.00000000    0.00000000
     atom   15 type  1   force =     0.00000000    0.00000000    0.00000000
     atom   16 type  1   force =     0.00000000    0.00000000    0.00000000
     atom   17 type  1   force =     0.00000000    0.00000000    0.00000000
     atom   18 type  1   force =     0.00000000    0.00000000    0.00000000
     atom   19 type  1   force =     0.00000000    0.00000000    0.00000000
     atom   20 type  1   force =     0.00000000    0.00000000    0.00000000
     atom   21 type  2   force =     0.00000000    0.00000000    0.00000000
     atom   22 type  2   force =     0.00000000    0.00000000    0.00000000
     atom   23 type  2   force =     0.00000000    0.00000000    0.00000000
     atom   24 type  2   force =     0.00000000    0.00000000    0.00000000
     atom   25 type  2   force =     0.00000000    0.00000000    0.00000000
     atom   26 type  2   force =     0.00000000    0.00000000    0.00000000
     atom   27 type  2   force =     0.00000000    0.00000000    0.00000000
     atom   28 type  2   force =     0.00000000    0.00000000    0.00000000
     atom   29 type  2   force =     0.00000000    0.00000000    0.00000000
     atom   30 type  2   force =     0.00000000    0.00000000    0.00000000
     atom   31 type  2   force =     0.00000000    0.00000000    0.00000000
     atom   32 type  2   force =     0.00000000    0.00000000    0.00000000
     atom   33 type  2   force =     0.00000000    0.00000000    0.00000000
     atom   34 type  2   force =     0.00000000    0.00000000    0.00000000
     atom   35 type  2   force =     0.00000000    0.00000000    0.00000000
     atom   36 type  2   force =     0.00000000    0.00000000    0.00000000
     atom   37 type  2   force =     0.00000000    0.00000000    0.00000000
     atom   38 type  2   force =     0.00000000    0.00000000    0.00000000
     atom   39 type  2   force =     0.00000000    0.00000000    0.00000000
     atom   40 type  2   force =     0.00000000    0.00000000    0.00000000
     atom   41 type  2   force =     0.00000000    0.00000000    0.00000000
     atom   42 type  2   force =     0.00000000    0.00000000    0.00000000
     atom   43 type  2   force =     0.00000000    0.00000000    0.00000000
     atom   44 type  2   force =     0.00000000    0.00000000    0.00000000
     atom   45 type  2   force =     0.00000000    0.00000000    0.00000000
     atom   46 type  2   force =     0.00000000    0.00000000    0.00000000
     atom   47 type  2   force =     0.00000000    0.00000000    0.00000000
     atom   48 type  2   force =     0.00000000    0.00000000    0.00000000
     atom   49 type  2   force =     0.00000000    0.00000000    0.00000000
     atom   50 type  2   force =     0.00000000    0.00000000    0.00000000
     atom   51 type  2   force =     0.00000000    0.00000000    0.00000000
     atom   52 type  2   force =     0.00000000    0.00000000    0.00000000
     atom   53 type  2   force =     0.00000000    0.00000000    0.00000000
     atom   54 type  2   force =     0.00000000    0.00000000    0.00000000
     atom   55 type  2   force =     0.00000000    0.00000000    0.00000000
     atom   56 type  2   force =     0.00000000    0.00000000    0.00000000
     The SCF correction term to forces
     atom    1 type  1   force =    -0.00000007   -0.00000036    0.00001322
     atom    2 type  1   force =    -0.00000014    0.00000010    0.00000858
     atom    3 type  1   force =     0.00000028    0.00000005    0.00000519
     atom    4 type  1   force =     0.00000027    0.00000050   -0.00000783
     atom    5 type  1   force =    -0.00000012   -0.00000042    0.00000822
     atom    6 type  1   force =    -0.00000005    0.00000036    0.00001322
     atom    7 type  1   force =    -0.00000015   -0.00000009    0.00000859
     atom    8 type  1   force =     0.00000027   -0.00000003    0.00000520
     atom    9 type  1   force =     0.00000026   -0.00000050   -0.00000785
     atom   10 type  1   force =    -0.00000019    0.00000040    0.00000818
     atom   11 type  1   force =    -0.00000020   -0.00000032    0.00000635
     atom   12 type  1   force =     0.00000022   -0.00000002    0.00001357
     atom   13 type  1   force =     0.00000016   -0.00000000   -0.00000206
     atom   14 type  1   force =     0.00000065    0.00000004    0.00000043
     atom   15 type  1   force =     0.00000016    0.00000003    0.00000222
     atom   16 type  1   force =    -0.00000021    0.00000033    0.00000635
     atom   17 type  1   force =     0.00000021    0.00000002    0.00001356
     atom   18 type  1   force =     0.00000014   -0.00000001   -0.00000207
     atom   19 type  1   force =     0.00000064   -0.00000003    0.00000042
     atom   20 type  1   force =    -0.00000000   -0.00000003    0.00000223
     atom   21 type  2   force =     0.00000020   -0.00000053    0.00000865
     atom   22 type  2   force =    -0.00000068   -0.00000017    0.00000785
     atom   23 type  2   force =     0.00000008   -0.00000011    0.00000252
     atom   24 type  2   force =     0.00000038    0.00000010   -0.00000450
     atom   25 type  2   force =     0.00000009    0.00000040    0.00000566
     atom   26 type  2   force =     0.00000017    0.00000057    0.00000864
     atom   27 type  2   force =    -0.00000067    0.00000018    0.00000783
     atom   28 type  2   force =     0.00000008    0.00000012    0.00000249
     atom   29 type  2   force =     0.00000038   -0.00000009   -0.00000452
     atom   30 type  2   force =     0.00000003   -0.00000037    0.00000567
     atom   31 type  2   force =    -0.00000040    0.00000018    0.00000877
     atom   32 type  2   force =    -0.00000014    0.00000013    0.00000989
     atom   33 type  2   force =     0.00000019   -0.00000008    0.00000136
     atom   34 type  2   force =     0.00000046    0.00000044   -0.00000409
     atom   35 type  2   force =     0.00000019   -0.00000070    0.00000379
     atom   36 type  2   force =    -0.00000036    0.00000022    0.00000389
     atom   37 type  2   force =     0.00000007    0.00000036    0.00000796
     atom   38 type  2   force =     0.00000062   -0.00000024   -0.00000320
     atom   39 type  2   force =     0.00000000    0.00000010    0.00000223
     atom   40 type  2   force =    -0.00000037   -0.00000022    0.00000390
     atom   41 type  2   force =     0.00000007   -0.00000036    0.00000800
     atom   42 type  2   force =     0.00000063    0.00000024   -0.00000318
     atom   43 type  2   force =     0.00000000   -0.00000009    0.00000225
     atom   44 type  2   force =    -0.00000036   -0.00000022    0.00000876
     atom   45 type  2   force =    -0.00000062   -0.00000023    0.00000313
     atom   46 type  2   force =    -0.00000015   -0.00000015    0.00000988
     atom   47 type  2   force =    -0.00000018   -0.00000012    0.00000635
     atom   48 type  2   force =     0.00000018    0.00000006    0.00000136
     atom   49 type  2   force =     0.00000022   -0.00000008   -0.00000391
     atom   50 type  2   force =     0.00000047   -0.00000047   -0.00000409
     atom   51 type  2   force =    -0.00000016    0.00000027    0.00000449
     atom   52 type  2   force =     0.00000019    0.00000067    0.00000379
     atom   53 type  2   force =    -0.00000063    0.00000021    0.00000313
     atom   54 type  2   force =    -0.00000017    0.00000014    0.00000635
     atom   55 type  2   force =     0.00000022    0.00000010   -0.00000391
     atom   56 type  2   force =    -0.00000017   -0.00000027    0.00000450

     Total force =     0.000048     Total SCF correction =     0.000049
     SCF correction compared to forces is large: reduce conv_thr to get better values
     Energy error            =      4.0E-09 Ry
     Gradient error          =      1.2E-05 Ry/Bohr

     number of scf cycles    =  79
     number of bfgs steps    =  78

     energy             old  =   -3121.4398536060 Ry
     energy             new  =   -3121.4398536101 Ry

     CASE: energy            _new < energy            _old

     Message from routine bfgs :: compute_trust_radius:
     history already reset at previous step: stopping
     small trust_radius: resetting bfgs history

     new trust radius        =       0.0000127482 bohr
     new conv_thr            =            1.0E-10 Ry


ATOMIC_POSITIONS (angstrom)
Hf               4.0163709780        3.7492962882        6.2863417939
Hf               4.0010368493        3.7804670088       11.1221094933
Hf               4.0011819914        3.7836457397       16.0432874179
Hf               4.0042610283        3.7847213989       20.9599259536
Hf               4.0165377077        3.8015928562       25.8385608147
Hf               1.4612076646        1.1639552798        6.2863413899
Hf               1.4458710520        1.1327821325       11.1221080374
Hf               1.4460167998        1.1296473415       16.0432842685
Hf               1.4490963642        1.1286291117       20.9599222747
Hf               1.4613735297        1.1117932536       25.8385561008
Hf               3.6490525616        1.1408156788        8.6549568010
Hf               3.6475062529        1.1308498879       13.5830781017
Hf               3.6477748065        1.1300781534       18.5024331065
Hf               3.6401237571        1.1376496152       23.4067683992
Hf               3.7312751679        1.3170363940       28.0553697968
Hf               1.0938895465        3.7724278213        8.6549562071
Hf               1.0923410602        3.7824172688       13.5830822756
Hf               1.0926088917        3.7832429921       18.5024386269
Hf               1.0849592046        3.7757210362       23.4067722834
Hf               1.1761058593        3.5963610414       28.0553680415
O                3.1118972600        2.1123125153        6.8718456763
O                3.1706015706        2.0752565041       11.7390256585
O                3.1786484853        2.0671050060       16.6426344964
O                3.1943835849        2.0526858635       21.5341572026
O                3.3309704162        1.9451284620       26.1983253605
O                0.5567346315        2.8009406556        6.8718426449
O                0.6154366250        2.8379902186       11.7390334400
O                0.6234847773        2.8461892296       16.6426400136
O                0.6392236129        2.8606706715       21.5341564546
O                0.7758119755        2.9682619529       26.1983192789
O                5.0395475532        0.2287804046        7.3356238151
O                5.0492034117        0.2154781520       12.3242272928
O                5.0541334882        0.2168710245       17.2542311904
O                5.0608544695        0.2229281171       22.1780416081
O                5.0976216196        0.1691271210       27.1241619818
O                1.9362572045        2.0919638138        9.3046227953
O                1.9178523667        2.0699149300       14.1884896694
O                1.9119464504        2.0628961183       19.0951571641
O                1.8794225109        2.0217412603       23.9359982465
O                4.4914241856        2.8212746946        9.3046261270
O                4.4730137411        2.8433549385       14.1884913770
O                4.4671060310        2.8504300291       19.0951597531
O                4.4345840341        2.8916321979       23.9359980825
O                2.4843824990       -0.2290610854        7.3356246876
O                2.6086059211       -0.2115014772        9.8454459866
O                2.4940396477       -0.2157582378       12.3242281210
O                2.5962344341       -0.2165779152       14.7912154204
O                2.4989703283       -0.2171017854       17.2542332027
O                2.5942497245       -0.2185531369       19.7158681852
O                2.5056909656       -0.2230996745       22.1780436163
O                2.5679121970       -0.2390405839       24.6464548981
O                2.5424577745       -0.1692637714       27.1241642359
O                5.1637695788        0.2112082788        9.8454461812
O                5.1513994762        0.2163211202       14.7912144739
O                5.1494150179        0.2183541325       19.7158662488
O                5.1230763561        0.2388879557       24.6464532288



     Writing config-only to output data dir ./hfo2.save/ :
     XML data file
     NEW-OLD atomic charge density approx. for the potential
 
     Adding external electric field

     Computed dipole along edir(3) : 
        Elec. dipole         -2.8831 Ry au,         -7.3282 Debye
        Ion. dipole          -2.8820 Ry au,         -7.3254 Debye
        Dipole                0.6603 Ry au,          1.6783 Debye
        Dipole field          0.0011 Ry au, 
 
        E field amplitude [Ha a.u.]:  1.0000E-03
        Potential amp.       -0.0142 Ry
        Total length         80.7858 bohr
 

     total cpu time spent up to now is      392.5 secs

     Self-consistent Calculation

     iteration #  1     ecut=    50.00 Ry     beta= 0.30
     Davidson diagonalization with overlap

---- Real-time Memory Report at c_bands before calling an iterative solver
           216 MiB given to the printing process from OS
             0 MiB allocation reported by mallinfo(arena+hblkhd)
        350297 MiB available memory on the node where the printing process lives
------------------
     ethr =  1.00E-06,  avg # of iterations =  1.0

     Threshold (ethr) on eigenvalues was too large:
     Diagonalizing with lowered threshold

     Davidson diagonalization with overlap

---- Real-time Memory Report at c_bands before calling an iterative solver
           216 MiB given to the printing process from OS
             0 MiB allocation reported by mallinfo(arena+hblkhd)
        350292 MiB available memory on the node where the printing process lives
------------------
     ethr =  3.35E-10,  avg # of iterations =  1.0
 
     Adding external electric field

     Computed dipole along edir(3) : 
        Elec. dipole         -2.8831 Ry au,         -7.3282 Debye
        Ion. dipole          -2.8820 Ry au,         -7.3254 Debye
        Dipole                0.6603 Ry au,          1.6783 Debye
        Dipole field          0.0011 Ry au, 
 
        E field amplitude [Ha a.u.]:  1.0000E-03
        Potential amp.       -0.0142 Ry
        Total length         80.7858 bohr
 

     total cpu time spent up to now is      402.3 secs

     total energy              =   -3121.43985361 Ry
     estimated scf accuracy    <       0.00000153 Ry

     iteration #  2     ecut=    50.00 Ry     beta= 0.30
     Davidson diagonalization with overlap

---- Real-time Memory Report at c_bands before calling an iterative solver
           216 MiB given to the printing process from OS
             0 MiB allocation reported by mallinfo(arena+hblkhd)
        350298 MiB available memory on the node where the printing process lives
------------------
     ethr =  3.37E-10,  avg # of iterations =  1.0
 
     Adding external electric field

     Computed dipole along edir(3) : 
        Elec. dipole         -2.8831 Ry au,         -7.3282 Debye
        Ion. dipole          -2.8820 Ry au,         -7.3254 Debye
        Dipole                0.6603 Ry au,          1.6782 Debye
        Dipole field          0.0011 Ry au, 
 
        E field amplitude [Ha a.u.]:  1.0000E-03
        Potential amp.       -0.0142 Ry
        Total length         80.7858 bohr
 

     total cpu time spent up to now is      407.5 secs

     total energy              =   -3121.43985361 Ry
     estimated scf accuracy    <       0.00000003 Ry

     iteration #  3     ecut=    50.00 Ry     beta= 0.30
     Davidson diagonalization with overlap

---- Real-time Memory Report at c_bands before calling an iterative solver
           216 MiB given to the printing process from OS
             0 MiB allocation reported by mallinfo(arena+hblkhd)
        350301 MiB available memory on the node where the printing process lives
------------------
     ethr =  7.45E-12,  avg # of iterations =  1.0
 
     Adding external electric field

     Computed dipole along edir(3) : 
        Elec. dipole         -2.8831 Ry au,         -7.3282 Debye
        Ion. dipole          -2.8820 Ry au,         -7.3254 Debye
        Dipole                0.6603 Ry au,          1.6782 Debye
        Dipole field          0.0011 Ry au, 
 
        E field amplitude [Ha a.u.]:  1.0000E-03
        Potential amp.       -0.0142 Ry
        Total length         80.7858 bohr
 

     total cpu time spent up to now is      412.6 secs

     total energy              =   -3121.43985361 Ry
     estimated scf accuracy    <          1.5E-09 Ry

     iteration #  4     ecut=    50.00 Ry     beta= 0.30
     Davidson diagonalization with overlap

---- Real-time Memory Report at c_bands before calling an iterative solver
           216 MiB given to the printing process from OS
             0 MiB allocation reported by mallinfo(arena+hblkhd)
        350305 MiB available memory on the node where the printing process lives
------------------
     ethr =  3.27E-13,  avg # of iterations =  2.0
 
     Adding external electric field

     Computed dipole along edir(3) : 
        Elec. dipole         -2.8831 Ry au,         -7.3282 Debye
        Ion. dipole          -2.8820 Ry au,         -7.3254 Debye
        Dipole                0.6603 Ry au,          1.6782 Debye
        Dipole field          0.0011 Ry au, 
 
        E field amplitude [Ha a.u.]:  1.0000E-03
        Potential amp.       -0.0142 Ry
        Total length         80.7858 bohr
 

     total cpu time spent up to now is      418.4 secs

     total energy              =   -3121.43985361 Ry
     estimated scf accuracy    <          3.3E-10 Ry

     iteration #  5     ecut=    50.00 Ry     beta= 0.30
     Davidson diagonalization with overlap

---- Real-time Memory Report at c_bands before calling an iterative solver
           216 MiB given to the printing process from OS
             0 MiB allocation reported by mallinfo(arena+hblkhd)
        350298 MiB available memory on the node where the printing process lives
------------------
     ethr =  1.00E-13,  avg # of iterations =  1.0
 
     Adding external electric field

     Computed dipole along edir(3) : 
        Elec. dipole         -2.8831 Ry au,         -7.3282 Debye
        Ion. dipole          -2.8820 Ry au,         -7.3254 Debye
        Dipole                0.6602 Ry au,          1.6782 Debye
        Dipole field          0.0011 Ry au, 
 
        E field amplitude [Ha a.u.]:  1.0000E-03
        Potential amp.       -0.0142 Ry
        Total length         80.7858 bohr
 

     total cpu time spent up to now is      423.6 secs

     total energy              =   -3121.43985361 Ry
     estimated scf accuracy    <          2.2E-10 Ry

     iteration #  6     ecut=    50.00 Ry     beta= 0.30
     Davidson diagonalization with overlap

---- Real-time Memory Report at c_bands before calling an iterative solver
           216 MiB given to the printing process from OS
             0 MiB allocation reported by mallinfo(arena+hblkhd)
        350299 MiB available memory on the node where the printing process lives
------------------
     ethr =  1.00E-13,  avg # of iterations =  2.6
 
     Adding external electric field

     Computed dipole along edir(3) : 
        Elec. dipole         -2.8831 Ry au,         -7.3282 Debye
        Ion. dipole          -2.8820 Ry au,         -7.3254 Debye
        Dipole                0.6602 Ry au,          1.6782 Debye
        Dipole field          0.0011 Ry au, 
 
        E field amplitude [Ha a.u.]:  1.0000E-03
        Potential amp.       -0.0142 Ry
        Total length         80.7858 bohr
 

     total cpu time spent up to now is      429.4 secs

     total energy              =   -3121.43985361 Ry
     estimated scf accuracy    <          5.6E-10 Ry

     iteration #  7     ecut=    50.00 Ry     beta= 0.30
     Davidson diagonalization with overlap

---- Real-time Memory Report at c_bands before calling an iterative solver
           216 MiB given to the printing process from OS
             0 MiB allocation reported by mallinfo(arena+hblkhd)
        350306 MiB available memory on the node where the printing process lives
------------------
     ethr =  1.00E-13,  avg # of iterations =  1.6
 
     Adding external electric field

     Computed dipole along edir(3) : 
        Elec. dipole         -2.8831 Ry au,         -7.3282 Debye
        Ion. dipole          -2.8820 Ry au,         -7.3254 Debye
        Dipole                0.6603 Ry au,          1.6782 Debye
        Dipole field          0.0011 Ry au, 
 
        E field amplitude [Ha a.u.]:  1.0000E-03
        Potential amp.       -0.0142 Ry
        Total length         80.7858 bohr
 

     total cpu time spent up to now is      434.9 secs

     total energy              =   -3121.43985361 Ry
     estimated scf accuracy    <          4.0E-10 Ry

     iteration #  8     ecut=    50.00 Ry     beta= 0.30
     Davidson diagonalization with overlap

---- Real-time Memory Report at c_bands before calling an iterative solver
           216 MiB given to the printing process from OS
             0 MiB allocation reported by mallinfo(arena+hblkhd)
        350307 MiB available memory on the node where the printing process lives
------------------
     ethr =  1.00E-13,  avg # of iterations =  1.0
 
     Adding external electric field

     Computed dipole along edir(3) : 
        Elec. dipole         -2.8831 Ry au,         -7.3282 Debye
        Ion. dipole          -2.8820 Ry au,         -7.3254 Debye
        Dipole                0.6603 Ry au,          1.6782 Debye
        Dipole field          0.0011 Ry au, 
 
        E field amplitude [Ha a.u.]:  1.0000E-03
        Potential amp.       -0.0142 Ry
        Total length         80.7858 bohr
 

     total cpu time spent up to now is      440.0 secs

     total energy              =   -3121.43985361 Ry
     estimated scf accuracy    <          4.4E-10 Ry

     iteration #  9     ecut=    50.00 Ry     beta= 0.30
     Davidson diagonalization with overlap

---- Real-time Memory Report at c_bands before calling an iterative solver
           216 MiB given to the printing process from OS
             0 MiB allocation reported by mallinfo(arena+hblkhd)
        350306 MiB available memory on the node where the printing process lives
------------------
     ethr =  1.00E-13,  avg # of iterations =  1.0
 
     Adding external electric field

     Computed dipole along edir(3) : 
        Elec. dipole         -2.8831 Ry au,         -7.3282 Debye
        Ion. dipole          -2.8820 Ry au,         -7.3254 Debye
        Dipole                0.6603 Ry au,          1.6782 Debye
        Dipole field          0.0011 Ry au, 
 
        E field amplitude [Ha a.u.]:  1.0000E-03
        Potential amp.       -0.0142 Ry
        Total length         80.7858 bohr
 

     total cpu time spent up to now is      445.2 secs

     total energy              =   -3121.43985361 Ry
     estimated scf accuracy    <          4.6E-10 Ry

     iteration # 10     ecut=    50.00 Ry     beta= 0.30
     Davidson diagonalization with overlap

---- Real-time Memory Report at c_bands before calling an iterative solver
           216 MiB given to the printing process from OS
             0 MiB allocation reported by mallinfo(arena+hblkhd)
        350307 MiB available memory on the node where the printing process lives
------------------
     ethr =  1.00E-13,  avg # of iterations =  1.0
 
     Adding external electric field

     Computed dipole along edir(3) : 
        Elec. dipole         -2.8831 Ry au,         -7.3282 Debye
        Ion. dipole          -2.8820 Ry au,         -7.3254 Debye
        Dipole                0.6603 Ry au,          1.6782 Debye
        Dipole field          0.0011 Ry au, 
 
        E field amplitude [Ha a.u.]:  1.0000E-03
        Potential amp.       -0.0142 Ry
        Total length         80.7858 bohr
 

     total cpu time spent up to now is      450.3 secs

     total energy              =   -3121.43985361 Ry
     estimated scf accuracy    <          1.0E-10 Ry

     iteration # 11     ecut=    50.00 Ry     beta= 0.30
     Davidson diagonalization with overlap

---- Real-time Memory Report at c_bands before calling an iterative solver
           216 MiB given to the printing process from OS
             0 MiB allocation reported by mallinfo(arena+hblkhd)
        350308 MiB available memory on the node where the printing process lives
------------------
     ethr =  1.00E-13,  avg # of iterations =  1.0
 
     Adding external electric field

     Computed dipole along edir(3) : 
        Elec. dipole         -2.8831 Ry au,         -7.3282 Debye
        Ion. dipole          -2.8820 Ry au,         -7.3254 Debye
        Dipole                0.6602 Ry au,          1.6781 Debye
        Dipole field          0.0011 Ry au, 
 
        E field amplitude [Ha a.u.]:  1.0000E-03
        Potential amp.       -0.0142 Ry
        Total length         80.7858 bohr
 

     total cpu time spent up to now is      455.4 secs

     End of self-consistent calculation

          k = 0.0000 0.0000 0.0000 ( 45443 PWs)   bands (ev):

   -56.8567 -56.8412 -56.5952 -56.5799 -56.5612 -56.5474 -56.4225 -56.4072
   -56.3405 -56.3288 -56.2694 -56.2540 -56.1284 -56.1130 -56.0137 -55.9972
   -55.9642 -55.9487 -55.9189 -55.9054 -26.8063 -26.8005 -26.7479 -26.5890
   -26.4999 -26.4680 -26.4260 -26.4197 -26.3756 -26.3633 -26.3206 -26.3070
   -26.2824 -26.2095 -26.1932 -26.1827 -26.1643 -26.1507 -26.1378 -26.1204
   -26.1139 -26.0879 -26.0782 -26.0704 -26.0548 -26.0361 -26.0137 -26.0028
   -25.9814 -25.9743 -25.9729 -25.9512 -25.9361 -25.9199 -25.9016 -25.8514
   -25.8445 -25.8021 -25.7938 -25.7884 -25.7469 -25.7120 -25.7092 -25.6956
   -25.6828 -25.6634 -25.6398 -25.6131 -25.5998 -25.5949 -25.5826 -25.5592
   -25.5375 -25.4946 -25.4741 -25.4708 -25.4323 -25.4044 -25.4019 -25.3700
   -15.6027 -15.2004 -15.0215 -14.7808 -14.4932 -14.4463 -14.1141 -14.1103
   -13.9302 -13.8201 -13.8158 -13.7705 -13.6654 -13.6337 -13.6002 -13.5744
   -13.5654 -13.4920 -13.3927 -13.3689 -13.3286 -13.2535 -13.1001 -13.0010
   -12.9707 -12.9468 -12.9070 -12.8263 -12.7512 -12.6705 -12.6309 -12.5306
   -12.4875 -12.4351 -12.3556 -12.2898  -3.3640  -3.2009  -2.9954  -2.9334
    -2.8280  -2.6987  -2.6464  -2.5458  -2.4566  -2.4220  -2.3679  -2.3238
    -2.1923  -2.1143  -2.0736  -1.9269  -1.8531  -1.7920  -1.7828  -1.7530
    -1.6712  -1.5751  -1.5343  -1.4772  -1.4617  -1.3841  -1.2990  -1.2201
    -1.2171  -1.1467  -1.0074  -0.9563  -0.9514  -0.8356  -0.7451  -0.6951
    -0.6842  -0.6726  -0.5797  -0.5598  -0.4757  -0.4721  -0.3769  -0.3521
    -0.3340  -0.2925  -0.2646  -0.1333  -0.0912  -0.0320   0.0930   0.1133
     0.1378   0.2030   0.2362   0.2775   0.3488   0.3858   0.4133   0.5083
     0.5273   0.6051   0.6114   0.6439   0.7015   0.8183   0.8211   0.8621
     0.8726   0.9376   0.9413   0.9905   1.0429   1.1103   1.1253   1.1979
     1.2377   1.3644   1.3685   1.3820   1.4356   1.5659   1.5666   1.5869
     1.6007   1.7150   1.7332   1.8257   1.8741   1.8801   2.0160   2.0235
     2.0793   2.1329   2.1527   2.2831   2.2882   2.3081   2.4653   2.5117
     2.6383   2.6754   2.7928   2.8226   2.9254   2.9529   3.0537   3.0826
     4.8013   5.5399   6.1259   6.8911   6.8975   7.0796   7.0816   7.1034
     7.1879   7.4573   7.4662   7.8475   7.8653   8.0578   8.0731   8.2395
     8.2507   8.3944   8.4566   8.5852   8.6242   8.6271   8.7377   8.7547
     8.8304   8.8371   8.9401   8.9636   8.9678   8.9875   9.0638   9.1319
     9.1969   9.2226   9.2991   9.3983   9.4477   9.4590   9.5601   9.5688
     9.5955   9.6501   9.6524   9.7716   9.7852   9.8405   9.8560   9.8565
     9.9420  10.1400

     occupation numbers 
     1.0000   1.0000   1.0000   1.0000   1.0000   1.0000   1.0000   1.0000
     1.0000   1.0000   1.0000   1.0000   1.0000   1.0000   1.0000   1.0000
     1.0000   1.0000   1.0000   1.0000   1.0000   1.0000   1.0000   1.0000
     1.0000   1.0000   1.0000   1.0000   1.0000   1.0000   1.0000   1.0000
     1.0000   1.0000   1.0000   1.0000   1.0000   1.0000   1.0000   1.0000
     1.0000   1.0000   1.0000   1.0000   1.0000   1.0000   1.0000   1.0000
     1.0000   1.0000   1.0000   1.0000   1.0000   1.0000   1.0000   1.0000
     1.0000   1.0000   1.0000   1.0000   1.0000   1.0000   1.0000   1.0000
     1.0000   1.0000   1.0000   1.0000   1.0000   1.0000   1.0000   1.0000
     1.0000   1.0000   1.0000   1.0000   1.0000   1.0000   1.0000   1.0000
     1.0000   1.0000   1.0000   1.0000   1.0000   1.0000   1.0000   1.0000
     1.0000   1.0000   1.0000   1.0000   1.0000   1.0000   1.0000   1.0000
     1.0000   1.0000   1.0000   1.0000   1.0000   1.0000   1.0000   1.0000
     1.0000   1.0000   1.0000   1.0000   1.0000   1.0000   1.0000   1.0000
     1.0000   1.0000   1.0000   1.0000   1.0000   1.0000   1.0000   1.0000
     1.0000   1.0000   1.0000   1.0000   1.0000   1.0000   1.0000   1.0000
     1.0000   1.0000   1.0000   1.0000   1.0000   1.0000   1.0000   1.0000
     1.0000   1.0000   1.0000   1.0000   1.0000   1.0000   1.0000   1.0000
     1.0000   1.0000   1.0000   1.0000   1.0000   1.0000   1.0000   1.0000
     1.0000   1.0000   1.0000   1.0000   1.0000   1.0000   1.0000   1.0000
     1.0000   1.0000   1.0000   1.0000   1.0000   1.0000   1.0000   1.0000
     1.0000   1.0000   1.0000   1.0000   1.0000   1.0000   1.0000   1.0000
     1.0000   1.0000   1.0000   1.0000   1.0000   1.0000   1.0000   1.0000
     1.0000   1.0000   1.0000   1.0000   1.0000   1.0000   1.0000   1.0000
     1.0000   1.0000   1.0000   1.0000   1.0000   1.0000   1.0000   1.0000
     1.0000   1.0000   1.0000   1.0000   1.0000   1.0000   1.0000   1.0000
     1.0000   1.0000   1.0000   1.0000   1.0000   1.0000   1.0000   1.0000
     1.0000   1.0000   1.0000   1.0000   1.0000   1.0000   1.0000   1.0000
     1.0000   1.0000   1.0000   0.0047   0.0038   0.0000   0.0000   0.0000
     0.0000   0.0000   0.0000   0.0000   0.0000   0.0000   0.0000   0.0000
     0.0000   0.0000   0.0000   0.0000   0.0000   0.0000   0.0000   0.0000
     0.0000   0.0000   0.0000   0.0000   0.0000   0.0000   0.0000   0.0000
     0.0000   0.0000   0.0000   0.0000   0.0000   0.0000   0.0000   0.0000
     0.0000   0.0000   0.0000   0.0000   0.0000   0.0000   0.0000   0.0000
     0.0000   0.0000

          k = 0.0000 0.2600 0.0000 ( 45481 PWs)   bands (ev):

   -56.8548 -56.8430 -56.5934 -56.5816 -56.5594 -56.5493 -56.4208 -56.4089
   -56.3388 -56.3303 -56.2676 -56.2557 -56.1267 -56.1147 -56.0117 -55.9989
   -55.9624 -55.9505 -55.9178 -55.9070 -26.7781 -26.7417 -26.7270 -26.6022
   -26.5212 -26.4701 -26.4273 -26.4166 -26.3847 -26.3227 -26.3131 -26.2792
   -26.2340 -26.2191 -26.1953 -26.1839 -26.1818 -26.1625 -26.1538 -26.1259
   -26.1228 -26.1135 -26.0734 -26.0637 -26.0313 -26.0217 -26.0105 -25.9906
   -25.9800 -25.9785 -25.9544 -25.9454 -25.9298 -25.9226 -25.9081 -25.8644
   -25.8449 -25.8314 -25.8046 -25.7919 -25.7812 -25.7474 -25.7196 -25.7001
   -25.6821 -25.6691 -25.6611 -25.6353 -25.6234 -25.5872 -25.5757 -25.5613
   -25.5459 -25.5317 -25.5027 -25.4833 -25.4454 -25.4252 -25.3965 -25.3548
   -15.3334 -14.9511 -14.7692 -14.5987 -14.4146 -14.3213 -14.0543 -14.0449
   -13.8651 -13.8014 -13.7331 -13.7281 -13.7032 -13.6099 -13.5830 -13.5532
   -13.5363 -13.4550 -13.4269 -13.3655 -13.3261 -13.3133 -13.1792 -13.1281
   -13.1179 -13.0368 -12.9779 -12.9569 -12.8282 -12.7978 -12.7150 -12.6541
   -12.6167 -12.5188 -12.4423 -12.3695  -3.1914  -3.0137  -2.8547  -2.7603
    -2.6721  -2.5997  -2.5344  -2.4504  -2.3879  -2.3577  -2.2965  -2.1963
    -2.1372  -2.1086  -2.0324  -1.9442  -1.8395  -1.7966  -1.7478  -1.6589
    -1.6530  -1.5961  -1.5924  -1.5111  -1.4599  -1.3501  -1.3054  -1.2592
    -1.2080  -1.1655  -1.0934  -1.0515  -1.0309  -0.9650  -0.8937  -0.8399
    -0.8180  -0.7498  -0.6944  -0.6021  -0.5898  -0.5284  -0.5024  -0.3352
    -0.3224  -0.2368  -0.2076  -0.1145  -0.0955  -0.0439  -0.0214   0.0778
     0.1560   0.1719   0.2938   0.3386   0.3611   0.3933   0.4504   0.4773
     0.5178   0.5944   0.6404   0.6966   0.7693   0.8307   0.8464   0.8848
     0.9465   0.9595   0.9884   1.0803   1.1404   1.1842   1.2183   1.2285
     1.2948   1.3539   1.4065   1.4310   1.4769   1.5314   1.5582   1.6338
     1.6601   1.6807   1.7252   1.7950   1.8558   1.8594   1.9041   1.9554
     1.9914   2.0316   2.1028   2.1274   2.2281   2.2638   2.3108   2.3908
     2.4730   2.4769   2.5077   2.6443   2.7904   2.9026   2.9976   3.0323
     5.1334   5.8911   6.0012   6.7738   6.8575   6.9231   7.0108   7.1964
     7.3331   7.4098   7.4947   7.6878   7.8504   7.9073   8.0405   8.0696
     8.1049   8.1500   8.2397   8.3056   8.3698   8.4266   8.5271   8.5953
     8.6210   8.7063   8.7964   8.8719   8.9277   8.9502   9.0208   9.1526
     9.1831   9.2058   9.2221   9.3315   9.4238   9.4573   9.5223   9.5635
     9.6051   9.6683   9.7249   9.7526   9.8381   9.9532   9.9685   9.9818
    10.0839  10.1244

     occupation numbers 
     1.0000   1.0000   1.0000   1.0000   1.0000   1.0000   1.0000   1.0000
     1.0000   1.0000   1.0000   1.0000   1.0000   1.0000   1.0000   1.0000
     1.0000   1.0000   1.0000   1.0000   1.0000   1.0000   1.0000   1.0000
     1.0000   1.0000   1.0000   1.0000   1.0000   1.0000   1.0000   1.0000
     1.0000   1.0000   1.0000   1.0000   1.0000   1.0000   1.0000   1.0000
     1.0000   1.0000   1.0000   1.0000   1.0000   1.0000   1.0000   1.0000
     1.0000   1.0000   1.0000   1.0000   1.0000   1.0000   1.0000   1.0000
     1.0000   1.0000   1.0000   1.0000   1.0000   1.0000   1.0000   1.0000
     1.0000   1.0000   1.0000   1.0000   1.0000   1.0000   1.0000   1.0000
     1.0000   1.0000   1.0000   1.0000   1.0000   1.0000   1.0000   1.0000
     1.0000   1.0000   1.0000   1.0000   1.0000   1.0000   1.0000   1.0000
     1.0000   1.0000   1.0000   1.0000   1.0000   1.0000   1.0000   1.0000
     1.0000   1.0000   1.0000   1.0000   1.0000   1.0000   1.0000   1.0000
     1.0000   1.0000   1.0000   1.0000   1.0000   1.0000   1.0000   1.0000
     1.0000   1.0000   1.0000   1.0000   1.0000   1.0000   1.0000   1.0000
     1.0000   1.0000   1.0000   1.0000   1.0000   1.0000   1.0000   1.0000
     1.0000   1.0000   1.0000   1.0000   1.0000   1.0000   1.0000   1.0000
     1.0000   1.0000   1.0000   1.0000   1.0000   1.0000   1.0000   1.0000
     1.0000   1.0000   1.0000   1.0000   1.0000   1.0000   1.0000   1.0000
     1.0000   1.0000   1.0000   1.0000   1.0000   1.0000   1.0000   1.0000
     1.0000   1.0000   1.0000   1.0000   1.0000   1.0000   1.0000   1.0000
     1.0000   1.0000   1.0000   1.0000   1.0000   1.0000   1.0000   1.0000
     1.0000   1.0000   1.0000   1.0000   1.0000   1.0000   1.0000   1.0000
     1.0000   1.0000   1.0000   1.0000   1.0000   1.0000   1.0000   1.0000
     1.0000   1.0000   1.0000   1.0000   1.0000   1.0000   1.0000   1.0000
     1.0000   1.0000   1.0000   1.0000   1.0000   1.0000   1.0000   1.0000
     1.0000   1.0000   1.0000   1.0000   1.0000   1.0000   1.0000   1.0000
     1.0000   1.0000   1.0000   1.0000   1.0000   1.0000   1.0000   1.0000
     1.0000   1.0000   1.0000   0.1050   0.0133   0.0016   0.0000   0.0000
     0.0000   0.0000   0.0000   0.0000   0.0000   0.0000   0.0000   0.0000
     0.0000   0.0000   0.0000   0.0000   0.0000   0.0000   0.0000   0.0000
     0.0000   0.0000   0.0000   0.0000   0.0000   0.0000   0.0000   0.0000
     0.0000   0.0000   0.0000   0.0000   0.0000   0.0000   0.0000   0.0000
     0.0000   0.0000   0.0000   0.0000   0.0000   0.0000   0.0000   0.0000
     0.0000   0.0000

          k = 0.0000-0.5200 0.0000 ( 45480 PWs)   bands (ev):

   -56.8519 -56.8457 -56.5908 -56.5842 -56.5559 -56.5529 -56.4182 -56.4114
   -56.3359 -56.3331 -56.2651 -56.2582 -56.1241 -56.1172 -56.0090 -56.0015
   -55.9597 -55.9531 -55.9163 -55.9090 -26.7482 -26.6715 -26.6637 -26.6175
   -26.5717 -26.5292 -26.4387 -26.3806 -26.3295 -26.2987 -26.2842 -26.2754
   -26.2323 -26.2224 -26.2061 -26.1936 -26.1890 -26.1650 -26.1633 -26.1550
   -26.1385 -26.1141 -26.0638 -26.0453 -26.0139 -26.0094 -26.0050 -25.9973
   -25.9863 -25.9589 -25.9456 -25.9438 -25.9197 -25.9035 -25.8889 -25.8842
   -25.8551 -25.8372 -25.8297 -25.8089 -25.7836 -25.7598 -25.7382 -25.7301
   -25.7173 -25.6988 -25.6654 -25.6627 -25.6445 -25.6075 -25.5855 -25.5791
   -25.5405 -25.5373 -25.5283 -25.4828 -25.4541 -25.4504 -25.3725 -25.3573
   -14.9279 -14.6074 -14.3934 -14.3284 -14.3250 -14.1550 -14.0238 -13.9764
   -13.9582 -13.7928 -13.7519 -13.7301 -13.7068 -13.6294 -13.5889 -13.5338
   -13.5106 -13.5036 -13.4799 -13.3596 -13.3275 -13.3213 -13.2659 -13.2478
   -13.2354 -13.2283 -13.1708 -13.0286 -13.0275 -12.8677 -12.8542 -12.7182
   -12.6515 -12.5822 -12.4964 -12.4545  -2.9920  -2.8760  -2.7255  -2.5345
    -2.5226  -2.5012  -2.3645  -2.3592  -2.2743  -2.2311  -2.2053  -2.0567
    -2.0424  -2.0014  -1.9177  -1.8661  -1.8193  -1.7947  -1.7146  -1.7043
    -1.6564  -1.6331  -1.6155  -1.5556  -1.5290  -1.4929  -1.4733  -1.4076
    -1.3918  -1.3255  -1.2380  -1.2340  -1.2031  -1.0031  -0.9377  -0.9099
    -0.8395  -0.7128  -0.6752  -0.6665  -0.6133  -0.5617  -0.4175  -0.3851
    -0.3423  -0.2194  -0.1913  -0.0985  -0.0259   0.0229   0.0709   0.0841
     0.1695   0.1736   0.3414   0.3570   0.4001   0.4071   0.4178   0.5350
     0.5813   0.6437   0.6882   0.7404   0.7846   0.8044   0.8566   0.9393
     0.9542   1.0288   1.0638   1.1489   1.1554   1.1785   1.2270   1.2852
     1.3307   1.3397   1.3483   1.4185   1.4761   1.4976   1.5048   1.5237
     1.5389   1.6147   1.6726   1.7071   1.7338   1.7464   1.8522   1.8851
     1.8933   1.8936   1.9407   2.0425   2.0636   2.1714   2.2170   2.2997
     2.3589   2.4462   2.5778   2.6091   2.7498   2.8717   2.9349   3.0841
     5.5050   5.8117   6.3575   6.4194   6.8903   7.0099   7.1661   7.1761
     7.2332   7.2799   7.4283   7.6124   7.6878   7.7752   7.7913   7.8265
     7.9261   7.9650   8.0348   8.1041   8.1627   8.2405   8.2833   8.4142
     8.5517   8.5914   8.6951   8.7661   8.8347   8.9028   8.9158   8.9507
     9.1681   9.2125   9.2584   9.3168   9.3545   9.4910   9.5130   9.6804
     9.7338   9.7345   9.7603   9.7609   9.8433   9.9819   9.9890  10.0058
    10.0736  10.2143

     occupation numbers 
     1.0000   1.0000   1.0000   1.0000   1.0000   1.0000   1.0000   1.0000
     1.0000   1.0000   1.0000   1.0000   1.0000   1.0000   1.0000   1.0000
     1.0000   1.0000   1.0000   1.0000   1.0000   1.0000   1.0000   1.0000
     1.0000   1.0000   1.0000   1.0000   1.0000   1.0000   1.0000   1.0000
     1.0000   1.0000   1.0000   1.0000   1.0000   1.0000   1.0000   1.0000
     1.0000   1.0000   1.0000   1.0000   1.0000   1.0000   1.0000   1.0000
     1.0000   1.0000   1.0000   1.0000   1.0000   1.0000   1.0000   1.0000
     1.0000   1.0000   1.0000   1.0000   1.0000   1.0000   1.0000   1.0000
     1.0000   1.0000   1.0000   1.0000   1.0000   1.0000   1.0000   1.0000
     1.0000   1.0000   1.0000   1.0000   1.0000   1.0000   1.0000   1.0000
     1.0000   1.0000   1.0000   1.0000   1.0000   1.0000   1.0000   1.0000
     1.0000   1.0000   1.0000   1.0000   1.0000   1.0000   1.0000   1.0000
     1.0000   1.0000   1.0000   1.0000   1.0000   1.0000   1.0000   1.0000
     1.0000   1.0000   1.0000   1.0000   1.0000   1.0000   1.0000   1.0000
     1.0000   1.0000   1.0000   1.0000   1.0000   1.0000   1.0000   1.0000
     1.0000   1.0000   1.0000   1.0000   1.0000   1.0000   1.0000   1.0000
     1.0000   1.0000   1.0000   1.0000   1.0000   1.0000   1.0000   1.0000
     1.0000   1.0000   1.0000   1.0000   1.0000   1.0000   1.0000   1.0000
     1.0000   1.0000   1.0000   1.0000   1.0000   1.0000   1.0000   1.0000
     1.0000   1.0000   1.0000   1.0000   1.0000   1.0000   1.0000   1.0000
     1.0000   1.0000   1.0000   1.0000   1.0000   1.0000   1.0000   1.0000
     1.0000   1.0000   1.0000   1.0000   1.0000   1.0000   1.0000   1.0000
     1.0000   1.0000   1.0000   1.0000   1.0000   1.0000   1.0000   1.0000
     1.0000   1.0000   1.0000   1.0000   1.0000   1.0000   1.0000   1.0000
     1.0000   1.0000   1.0000   1.0000   1.0000   1.0000   1.0000   1.0000
     1.0000   1.0000   1.0000   1.0000   1.0000   1.0000   1.0000   1.0000
     1.0000   1.0000   1.0000   1.0000   1.0000   1.0000   1.0000   1.0000
     1.0000   1.0000   1.0000   1.0000   1.0000   1.0000   1.0000   1.0000
     1.0000   1.0000   1.0118   1.0407   0.0049   0.0000   0.0000   0.0000
     0.0000   0.0000   0.0000   0.0000   0.0000   0.0000   0.0000   0.0000
     0.0000   0.0000   0.0000   0.0000   0.0000   0.0000   0.0000   0.0000
     0.0000   0.0000   0.0000   0.0000   0.0000   0.0000   0.0000   0.0000
     0.0000   0.0000   0.0000   0.0000   0.0000   0.0000   0.0000   0.0000
     0.0000   0.0000   0.0000   0.0000   0.0000   0.0000   0.0000   0.0000
     0.0000   0.0000

          k = 0.2500 0.0000 0.0000 ( 45654 PWs)   bands (ev):

   -56.8544 -56.8434 -56.5930 -56.5821 -56.5592 -56.5495 -56.4203 -56.4094
   -56.3387 -56.3305 -56.2671 -56.2562 -56.1262 -56.1152 -56.0112 -55.9996
   -55.9620 -55.9509 -55.9171 -55.9076 -26.7596 -26.7496 -26.7199 -26.6155
   -26.4969 -26.4680 -26.4463 -26.4225 -26.3712 -26.3334 -26.2925 -26.2856
   -26.2559 -26.1992 -26.1915 -26.1719 -26.1714 -26.1578 -26.1563 -26.1420
   -26.1316 -26.1053 -26.0765 -26.0471 -26.0199 -26.0132 -26.0063 -25.9972
   -25.9872 -25.9817 -25.9579 -25.9479 -25.9331 -25.9171 -25.9157 -25.8523
   -25.8435 -25.8378 -25.8169 -25.8025 -25.7730 -25.7296 -25.7290 -25.7064
   -25.6999 -25.6776 -25.6526 -25.6241 -25.6193 -25.6062 -25.5764 -25.5600
   -25.5354 -25.5160 -25.5046 -25.4927 -25.4380 -25.4336 -25.4002 -25.3594
   -15.3300 -14.9409 -14.7600 -14.5855 -14.4506 -14.3057 -14.1276 -14.0251
   -13.9289 -13.7950 -13.7738 -13.7658 -13.6479 -13.6330 -13.6218 -13.5869
   -13.5391 -13.4725 -13.3726 -13.3720 -13.3400 -13.3343 -13.1505 -13.1285
   -13.1272 -13.0508 -12.9536 -12.9515 -12.8039 -12.7966 -12.6769 -12.6667
   -12.5610 -12.5489 -12.4249 -12.4225  -3.0531  -2.8119  -2.7787  -2.6393
    -2.5413  -2.4357  -2.3795  -2.3789  -2.2690  -2.1947  -2.1642  -2.0869
    -2.0618  -2.0507  -1.9555  -1.8872  -1.8612  -1.7935  -1.7934  -1.7417
    -1.6328  -1.6091  -1.5862  -1.4730  -1.4133  -1.3956  -1.3748  -1.3227
    -1.2787  -1.2652  -1.2087  -1.1803  -1.0235  -0.9637  -0.9577  -0.8489
    -0.8267  -0.7400  -0.7039  -0.5803  -0.5774  -0.4931  -0.4730  -0.4466
    -0.2893  -0.2519  -0.2337  -0.1710  -0.1207  -0.1112  -0.0120   0.0465
     0.1659   0.1842   0.3146   0.3570   0.3832   0.4163   0.4523   0.4635
     0.5283   0.5313   0.5807   0.6680   0.6708   0.7213   0.7401   0.8699
     0.8908   0.8955   0.9421   0.9703   1.0469   1.0619   1.1034   1.1446
     1.2044   1.2458   1.2767   1.3201   1.3909   1.4171   1.4770   1.5383
     1.5979   1.6057   1.6373   1.7384   1.7751   1.8116   1.9060   1.9482
     2.0090   2.0326   2.0927   2.1811   2.2333   2.2748   2.2974   2.3901
     2.4143   2.5351   2.5567   2.6720   2.6842   2.7623   2.8227   2.8309
     5.1285   5.8785   5.9544   6.8469   6.8967   6.9637   7.1644   7.2203
     7.3744   7.5738   7.6461   7.9017   7.9958   8.0890   8.1977   8.3494
     8.3644   8.3809   8.5248   8.5774   8.6245   8.6734   8.6848   8.7591
     8.8284   8.8584   8.8940   8.9813   9.0109   9.0143   9.0438   9.1451
     9.1938   9.1938   9.2940   9.3433   9.3643   9.3685   9.4273   9.4799
     9.5354   9.5923   9.6526   9.7292   9.7608   9.7655   9.8057   9.9672
     9.9809   9.9923

     occupation numbers 
     1.0000   1.0000   1.0000   1.0000   1.0000   1.0000   1.0000   1.0000
     1.0000   1.0000   1.0000   1.0000   1.0000   1.0000   1.0000   1.0000
     1.0000   1.0000   1.0000   1.0000   1.0000   1.0000   1.0000   1.0000
     1.0000   1.0000   1.0000   1.0000   1.0000   1.0000   1.0000   1.0000
     1.0000   1.0000   1.0000   1.0000   1.0000   1.0000   1.0000   1.0000
     1.0000   1.0000   1.0000   1.0000   1.0000   1.0000   1.0000   1.0000
     1.0000   1.0000   1.0000   1.0000   1.0000   1.0000   1.0000   1.0000
     1.0000   1.0000   1.0000   1.0000   1.0000   1.0000   1.0000   1.0000
     1.0000   1.0000   1.0000   1.0000   1.0000   1.0000   1.0000   1.0000
     1.0000   1.0000   1.0000   1.0000   1.0000   1.0000   1.0000   1.0000
     1.0000   1.0000   1.0000   1.0000   1.0000   1.0000   1.0000   1.0000
     1.0000   1.0000   1.0000   1.0000   1.0000   1.0000   1.0000   1.0000
     1.0000   1.0000   1.0000   1.0000   1.0000   1.0000   1.0000   1.0000
     1.0000   1.0000   1.0000   1.0000   1.0000   1.0000   1.0000   1.0000
     1.0000   1.0000   1.0000   1.0000   1.0000   1.0000   1.0000   1.0000
     1.0000   1.0000   1.0000   1.0000   1.0000   1.0000   1.0000   1.0000
     1.0000   1.0000   1.0000   1.0000   1.0000   1.0000   1.0000   1.0000
     1.0000   1.0000   1.0000   1.0000   1.0000   1.0000   1.0000   1.0000
     1.0000   1.0000   1.0000   1.0000   1.0000   1.0000   1.0000   1.0000
     1.0000   1.0000   1.0000   1.0000   1.0000   1.0000   1.0000   1.0000
     1.0000   1.0000   1.0000   1.0000   1.0000   1.0000   1.0000   1.0000
     1.0000   1.0000   1.0000   1.0000   1.0000   1.0000   1.0000   1.0000
     1.0000   1.0000   1.0000   1.0000   1.0000   1.0000   1.0000   1.0000
     1.0000   1.0000   1.0000   1.0000   1.0000   1.0000   1.0000   1.0000
     1.0000   1.0000   1.0000   1.0000   1.0000   1.0000   1.0000   1.0000
     1.0000   1.0000   1.0000   1.0000   1.0000   1.0000   1.0000   1.0000
     1.0000   1.0000   1.0000   1.0000   1.0000   1.0000   1.0000   1.0000
     1.0000   1.0000   1.0000   1.0000   1.0000   1.0000   1.0000   1.0000
     1.0000   1.0000   1.0000   0.0180   0.0039   0.0003   0.0000   0.0000
     0.0000   0.0000   0.0000   0.0000   0.0000   0.0000   0.0000   0.0000
     0.0000   0.0000   0.0000   0.0000   0.0000   0.0000   0.0000   0.0000
     0.0000   0.0000   0.0000   0.0000   0.0000   0.0000   0.0000   0.0000
     0.0000   0.0000   0.0000   0.0000   0.0000   0.0000   0.0000   0.0000
     0.0000   0.0000   0.0000   0.0000   0.0000   0.0000   0.0000   0.0000
     0.0000   0.0000

          k = 0.2500 0.2600 0.0000 ( 45558 PWs)   bands (ev):

   -56.8530 -56.8447 -56.5917 -56.5833 -56.5579 -56.5508 -56.4190 -56.4106
   -56.3375 -56.3315 -56.2659 -56.2574 -56.1249 -56.1164 -56.0098 -56.0007
   -55.9606 -55.9522 -55.9164 -55.9087 -26.7962 -26.7402 -26.6914 -26.6444
   -26.5788 -26.4631 -26.4164 -26.3930 -26.3760 -26.3215 -26.3114 -26.2830
   -26.2388 -26.2221 -26.2043 -26.2016 -26.1931 -26.1771 -26.1640 -26.1384
   -26.1036 -26.0908 -26.0837 -26.0404 -26.0316 -26.0216 -26.0049 -25.9884
   -25.9850 -25.9811 -25.9719 -25.9493 -25.9280 -25.9182 -25.8902 -25.8819
   -25.8675 -25.8345 -25.8050 -25.7781 -25.7587 -25.7485 -25.7355 -25.7028
   -25.6885 -25.6772 -25.6526 -25.6234 -25.6122 -25.5896 -25.5755 -25.5527
   -25.5469 -25.5076 -25.4962 -25.4738 -25.4561 -25.4169 -25.3903 -25.3605
   -15.1382 -14.7887 -14.5880 -14.5105 -14.4559 -14.2736 -14.1478 -14.0479
   -13.9521 -13.8359 -13.7976 -13.7714 -13.7053 -13.6457 -13.6068 -13.5858
   -13.5426 -13.4770 -13.4492 -13.3805 -13.3251 -13.3091 -13.2760 -13.2051
   -13.0996 -13.0143 -12.9979 -12.9403 -12.8396 -12.8010 -12.7138 -12.6788
   -12.5958 -12.5548 -12.4371 -12.3855  -2.9592  -2.8156  -2.5974  -2.5314
    -2.5053  -2.4101  -2.3754  -2.2651  -2.1791  -2.1419  -2.1021  -2.0717
    -2.0289  -1.9610  -1.9369  -1.8525  -1.8039  -1.7920  -1.7236  -1.6878
    -1.6059  -1.5601  -1.5206  -1.4462  -1.4050  -1.3811  -1.3495  -1.3001
    -1.2541  -1.1935  -1.1302  -1.0604  -0.9865  -0.9654  -0.8849  -0.8640
    -0.8213  -0.7652  -0.7086  -0.6459  -0.5694  -0.5363  -0.5070  -0.4125
    -0.3935  -0.2641  -0.2321  -0.1582  -0.1436  -0.0783  -0.0413   0.0480
     0.1056   0.1456   0.2335   0.2907   0.3419   0.3903   0.4485   0.4913
     0.5202   0.5542   0.5945   0.6335   0.6713   0.7213   0.7515   0.8146
     0.8420   0.8811   0.9213   0.9577   1.0193   1.0368   1.1265   1.1445
     1.2033   1.2409   1.2773   1.2885   1.3334   1.3967   1.4551   1.5006
     1.5724   1.6083   1.6277   1.6699   1.7363   1.7722   1.8042   1.8422
     1.9119   2.0073   2.0601   2.1134   2.1632   2.1873   2.2641   2.3148
     2.3513   2.3971   2.4694   2.5135   2.6114   2.7248   2.8045   2.8902
     5.3123   5.9624   6.0767   6.6801   6.6859   6.8905   7.0378   7.2736
     7.3925   7.5451   7.6779   7.6875   7.7983   7.9365   8.0490   8.1135
     8.1358   8.1881   8.3005   8.3330   8.3866   8.4861   8.5053   8.5363
     8.5885   8.6206   8.6990   8.7165   8.8281   8.9174   8.9398   9.0278
     9.1247   9.1917   9.2244   9.3009   9.3323   9.3898   9.4186   9.4952
     9.5180   9.6131   9.6310   9.6804   9.7457   9.8292   9.9098   9.9625
     9.9951  10.0861

     occupation numbers 
     1.0000   1.0000   1.0000   1.0000   1.0000   1.0000   1.0000   1.0000
     1.0000   1.0000   1.0000   1.0000   1.0000   1.0000   1.0000   1.0000
     1.0000   1.0000   1.0000   1.0000   1.0000   1.0000   1.0000   1.0000
     1.0000   1.0000   1.0000   1.0000   1.0000   1.0000   1.0000   1.0000
     1.0000   1.0000   1.0000   1.0000   1.0000   1.0000   1.0000   1.0000
     1.0000   1.0000   1.0000   1.0000   1.0000   1.0000   1.0000   1.0000
     1.0000   1.0000   1.0000   1.0000   1.0000   1.0000   1.0000   1.0000
     1.0000   1.0000   1.0000   1.0000   1.0000   1.0000   1.0000   1.0000
     1.0000   1.0000   1.0000   1.0000   1.0000   1.0000   1.0000   1.0000
     1.0000   1.0000   1.0000   1.0000   1.0000   1.0000   1.0000   1.0000
     1.0000   1.0000   1.0000   1.0000   1.0000   1.0000   1.0000   1.0000
     1.0000   1.0000   1.0000   1.0000   1.0000   1.0000   1.0000   1.0000
     1.0000   1.0000   1.0000   1.0000   1.0000   1.0000   1.0000   1.0000
     1.0000   1.0000   1.0000   1.0000   1.0000   1.0000   1.0000   1.0000
     1.0000   1.0000   1.0000   1.0000   1.0000   1.0000   1.0000   1.0000
     1.0000   1.0000   1.0000   1.0000   1.0000   1.0000   1.0000   1.0000
     1.0000   1.0000   1.0000   1.0000   1.0000   1.0000   1.0000   1.0000
     1.0000   1.0000   1.0000   1.0000   1.0000   1.0000   1.0000   1.0000
     1.0000   1.0000   1.0000   1.0000   1.0000   1.0000   1.0000   1.0000
     1.0000   1.0000   1.0000   1.0000   1.0000   1.0000   1.0000   1.0000
     1.0000   1.0000   1.0000   1.0000   1.0000   1.0000   1.0000   1.0000
     1.0000   1.0000   1.0000   1.0000   1.0000   1.0000   1.0000   1.0000
     1.0000   1.0000   1.0000   1.0000   1.0000   1.0000   1.0000   1.0000
     1.0000   1.0000   1.0000   1.0000   1.0000   1.0000   1.0000   1.0000
     1.0000   1.0000   1.0000   1.0000   1.0000   1.0000   1.0000   1.0000
     1.0000   1.0000   1.0000   1.0000   1.0000   1.0000   1.0000   1.0000
     1.0000   1.0000   1.0000   1.0000   1.0000   1.0000   1.0000   1.0000
     1.0000   1.0000   1.0000   1.0000   1.0000   1.0000   1.0000   1.0000
     1.0000   1.0000   1.0000   0.4643   0.4341   0.0048   0.0000   0.0000
     0.0000   0.0000   0.0000   0.0000   0.0000   0.0000   0.0000   0.0000
     0.0000   0.0000   0.0000   0.0000   0.0000   0.0000   0.0000   0.0000
     0.0000   0.0000   0.0000   0.0000   0.0000   0.0000   0.0000   0.0000
     0.0000   0.0000   0.0000   0.0000   0.0000   0.0000   0.0000   0.0000
     0.0000   0.0000   0.0000   0.0000   0.0000   0.0000   0.0000   0.0000
     0.0000   0.0000

          k = 0.2500-0.5200 0.0000 ( 45398 PWs)   bands (ev):

   -56.8509 -56.8466 -56.5898 -56.5851 -56.5554 -56.5534 -56.4172 -56.4124
   -56.3354 -56.3335 -56.2641 -56.2592 -56.1231 -56.1182 -56.0078 -56.0025
   -55.9587 -55.9540 -55.9154 -55.9103 -26.7696 -26.7658 -26.7395 -26.6679
   -26.5118 -26.5016 -26.4355 -26.4090 -26.3694 -26.3554 -26.2970 -26.2955
   -26.2222 -26.2211 -26.2148 -26.2049 -26.1842 -26.1705 -26.1465 -26.1395
   -26.1280 -26.1178 -26.0720 -26.0666 -26.0330 -26.0078 -26.0013 -25.9959
   -25.9859 -25.9726 -25.9516 -25.9488 -25.9406 -25.9377 -25.8930 -25.8900
   -25.8427 -25.8418 -25.8002 -25.7949 -25.7598 -25.7596 -25.7263 -25.7075
   -25.6678 -25.6607 -25.6531 -25.6451 -25.5949 -25.5748 -25.5536 -25.5450
   -25.5257 -25.5072 -25.4906 -25.4716 -25.4517 -25.4428 -25.3744 -25.3646
   -14.8745 -14.5960 -14.5060 -14.3742 -14.2880 -14.2339 -14.1768 -14.0585
   -13.9978 -13.9255 -13.8892 -13.8172 -13.8055 -13.6978 -13.6125 -13.5966
   -13.5849 -13.5256 -13.5162 -13.4557 -13.3483 -13.3085 -13.2547 -13.1835
   -13.1224 -13.0834 -13.0259 -12.9401 -12.8602 -12.7946 -12.7099 -12.6447
   -12.5788 -12.5085 -12.4626 -12.4130  -2.7975  -2.7861  -2.5501  -2.4596
    -2.3564  -2.3382  -2.3119  -2.2117  -2.1885  -2.1702  -2.0268  -1.9835
    -1.9505  -1.9056  -1.8509  -1.7611  -1.7567  -1.6706  -1.6218  -1.5925
    -1.5777  -1.5684  -1.4847  -1.4716  -1.4481  -1.3860  -1.3029  -1.3014
    -1.2101  -1.2032  -1.1084  -1.0717  -1.0597  -0.9597  -0.8967  -0.8736
    -0.8553  -0.7874  -0.7182  -0.6723  -0.5657  -0.4976  -0.4219  -0.3258
    -0.2959  -0.2196  -0.1809  -0.0980  -0.0868  -0.0264   0.0176   0.0459
     0.0946   0.1093   0.1166   0.2145   0.2382   0.3029   0.3448   0.3478
     0.4217   0.4793   0.5073   0.5908   0.6218   0.6669   0.7336   0.7547
     0.7718   0.8646   0.9237   0.9769   0.9915   1.0779   1.1077   1.1109
     1.1905   1.2164   1.2692   1.2869   1.3902   1.4259   1.4342   1.4861
     1.5210   1.5917   1.6036   1.6644   1.6810   1.7240   1.7768   1.8519
     1.9281   1.9409   1.9739   1.9748   2.0860   2.1479   2.1622   2.2375
     2.2766   2.3934   2.4106   2.5356   2.5696   2.6401   2.7421   2.9231
     5.5505   5.9141   6.3041   6.4135   6.6524   6.9030   7.1251   7.1347
     7.1473   7.3326   7.4695   7.5253   7.6833   7.6839   7.8588   7.8725
     7.9218   7.9399   8.0033   8.1407   8.1416   8.2376   8.3140   8.3309
     8.3719   8.5173   8.5691   8.6091   8.7658   8.7950   8.9054   9.0055
     9.0229   9.0468   9.2033   9.2922   9.3543   9.4024   9.4477   9.5097
     9.5486   9.6556   9.6609   9.7545   9.8814   9.8985   9.9526  10.0254
    10.0836  10.1321

     occupation numbers 
     1.0000   1.0000   1.0000   1.0000   1.0000   1.0000   1.0000   1.0000
     1.0000   1.0000   1.0000   1.0000   1.0000   1.0000   1.0000   1.0000
     1.0000   1.0000   1.0000   1.0000   1.0000   1.0000   1.0000   1.0000
     1.0000   1.0000   1.0000   1.0000   1.0000   1.0000   1.0000   1.0000
     1.0000   1.0000   1.0000   1.0000   1.0000   1.0000   1.0000   1.0000
     1.0000   1.0000   1.0000   1.0000   1.0000   1.0000   1.0000   1.0000
     1.0000   1.0000   1.0000   1.0000   1.0000   1.0000   1.0000   1.0000
     1.0000   1.0000   1.0000   1.0000   1.0000   1.0000   1.0000   1.0000
     1.0000   1.0000   1.0000   1.0000   1.0000   1.0000   1.0000   1.0000
     1.0000   1.0000   1.0000   1.0000   1.0000   1.0000   1.0000   1.0000
     1.0000   1.0000   1.0000   1.0000   1.0000   1.0000   1.0000   1.0000
     1.0000   1.0000   1.0000   1.0000   1.0000   1.0000   1.0000   1.0000
     1.0000   1.0000   1.0000   1.0000   1.0000   1.0000   1.0000   1.0000
     1.0000   1.0000   1.0000   1.0000   1.0000   1.0000   1.0000   1.0000
     1.0000   1.0000   1.0000   1.0000   1.0000   1.0000   1.0000   1.0000
     1.0000   1.0000   1.0000   1.0000   1.0000   1.0000   1.0000   1.0000
     1.0000   1.0000   1.0000   1.0000   1.0000   1.0000   1.0000   1.0000
     1.0000   1.0000   1.0000   1.0000   1.0000   1.0000   1.0000   1.0000
     1.0000   1.0000   1.0000   1.0000   1.0000   1.0000   1.0000   1.0000
     1.0000   1.0000   1.0000   1.0000   1.0000   1.0000   1.0000   1.0000
     1.0000   1.0000   1.0000   1.0000   1.0000   1.0000   1.0000   1.0000
     1.0000   1.0000   1.0000   1.0000   1.0000   1.0000   1.0000   1.0000
     1.0000   1.0000   1.0000   1.0000   1.0000   1.0000   1.0000   1.0000
     1.0000   1.0000   1.0000   1.0000   1.0000   1.0000   1.0000   1.0000
     1.0000   1.0000   1.0000   1.0000   1.0000   1.0000   1.0000   1.0000
     1.0000   1.0000   1.0000   1.0000   1.0000   1.0000   1.0000   1.0000
     1.0000   1.0000   1.0000   1.0000   1.0000   1.0000   1.0000   1.0000
     1.0000   1.0000   1.0000   1.0000   1.0000   1.0000   1.0000   1.0000
     1.0000   1.0000   1.0028   1.0370   0.6158   0.0032   0.0000   0.0000
     0.0000   0.0000   0.0000   0.0000   0.0000   0.0000   0.0000   0.0000
     0.0000   0.0000   0.0000   0.0000   0.0000   0.0000   0.0000   0.0000
     0.0000   0.0000   0.0000   0.0000   0.0000   0.0000   0.0000   0.0000
     0.0000   0.0000   0.0000   0.0000   0.0000   0.0000   0.0000   0.0000
     0.0000   0.0000   0.0000   0.0000   0.0000   0.0000   0.0000   0.0000
     0.0000   0.0000

          k = 0.2500-0.2600 0.0000 ( 45558 PWs)   bands (ev):

   -56.8530 -56.8447 -56.5917 -56.5833 -56.5579 -56.5508 -56.4190 -56.4106
   -56.3375 -56.3315 -56.2659 -56.2574 -56.1249 -56.1164 -56.0098 -56.0007
   -55.9606 -55.9522 -55.9164 -55.9087 -26.7962 -26.7402 -26.6914 -26.6444
   -26.5788 -26.4631 -26.4164 -26.3930 -26.3760 -26.3215 -26.3114 -26.2830
   -26.2388 -26.2221 -26.2043 -26.2016 -26.1931 -26.1771 -26.1640 -26.1384
   -26.1036 -26.0908 -26.0837 -26.0404 -26.0316 -26.0216 -26.0049 -25.9884
   -25.9850 -25.9811 -25.9719 -25.9493 -25.9280 -25.9182 -25.8902 -25.8819
   -25.8675 -25.8345 -25.8050 -25.7781 -25.7587 -25.7485 -25.7355 -25.7028
   -25.6885 -25.6772 -25.6526 -25.6234 -25.6122 -25.5896 -25.5755 -25.5527
   -25.5469 -25.5076 -25.4962 -25.4738 -25.4561 -25.4169 -25.3903 -25.3605
   -15.1382 -14.7887 -14.5880 -14.5105 -14.4559 -14.2736 -14.1478 -14.0479
   -13.9521 -13.8359 -13.7976 -13.7714 -13.7053 -13.6457 -13.6068 -13.5858
   -13.5426 -13.4770 -13.4492 -13.3805 -13.3251 -13.3091 -13.2760 -13.2051
   -13.0996 -13.0143 -12.9979 -12.9403 -12.8396 -12.8010 -12.7138 -12.6788
   -12.5958 -12.5548 -12.4371 -12.3855  -2.9592  -2.8156  -2.5974  -2.5314
    -2.5053  -2.4101  -2.3754  -2.2651  -2.1791  -2.1419  -2.1021  -2.0717
    -2.0289  -1.9610  -1.9369  -1.8525  -1.8040  -1.7920  -1.7236  -1.6878
    -1.6059  -1.5601  -1.5206  -1.4462  -1.4050  -1.3811  -1.3495  -1.3001
    -1.2541  -1.1935  -1.1302  -1.0604  -0.9865  -0.9654  -0.8849  -0.8640
    -0.8213  -0.7652  -0.7086  -0.6459  -0.5694  -0.5363  -0.5070  -0.4125
    -0.3935  -0.2641  -0.2321  -0.1582  -0.1436  -0.0783  -0.0414   0.0480
     0.1056   0.1456   0.2335   0.2907   0.3419   0.3903   0.4485   0.4913
     0.5202   0.5542   0.5945   0.6335   0.6713   0.7213   0.7515   0.8146
     0.8420   0.8811   0.9213   0.9577   1.0193   1.0368   1.1265   1.1445
     1.2033   1.2409   1.2773   1.2885   1.3334   1.3967   1.4551   1.5006
     1.5724   1.6083   1.6277   1.6699   1.7363   1.7722   1.8042   1.8421
     1.9119   2.0073   2.0601   2.1134   2.1632   2.1873   2.2641   2.3148
     2.3513   2.3971   2.4694   2.5135   2.6114   2.7248   2.8045   2.8902
     5.3123   5.9624   6.0767   6.6801   6.6859   6.8905   7.0378   7.2736
     7.3925   7.5451   7.6779   7.6875   7.7983   7.9365   8.0490   8.1135
     8.1358   8.1881   8.3005   8.3330   8.3866   8.4861   8.5053   8.5363
     8.5885   8.6206   8.6990   8.7165   8.8281   8.9174   8.9398   9.0279
     9.1247   9.1917   9.2244   9.3009   9.3323   9.3898   9.4186   9.4952
     9.5180   9.6131   9.6310   9.6804   9.7457   9.8292   9.9098   9.9625
     9.9952  10.0836

     occupation numbers 
     1.0000   1.0000   1.0000   1.0000   1.0000   1.0000   1.0000   1.0000
     1.0000   1.0000   1.0000   1.0000   1.0000   1.0000   1.0000   1.0000
     1.0000   1.0000   1.0000   1.0000   1.0000   1.0000   1.0000   1.0000
     1.0000   1.0000   1.0000   1.0000   1.0000   1.0000   1.0000   1.0000
     1.0000   1.0000   1.0000   1.0000   1.0000   1.0000   1.0000   1.0000
     1.0000   1.0000   1.0000   1.0000   1.0000   1.0000   1.0000   1.0000
     1.0000   1.0000   1.0000   1.0000   1.0000   1.0000   1.0000   1.0000
     1.0000   1.0000   1.0000   1.0000   1.0000   1.0000   1.0000   1.0000
     1.0000   1.0000   1.0000   1.0000   1.0000   1.0000   1.0000   1.0000
     1.0000   1.0000   1.0000   1.0000   1.0000   1.0000   1.0000   1.0000
     1.0000   1.0000   1.0000   1.0000   1.0000   1.0000   1.0000   1.0000
     1.0000   1.0000   1.0000   1.0000   1.0000   1.0000   1.0000   1.0000
     1.0000   1.0000   1.0000   1.0000   1.0000   1.0000   1.0000   1.0000
     1.0000   1.0000   1.0000   1.0000   1.0000   1.0000   1.0000   1.0000
     1.0000   1.0000   1.0000   1.0000   1.0000   1.0000   1.0000   1.0000
     1.0000   1.0000   1.0000   1.0000   1.0000   1.0000   1.0000   1.0000
     1.0000   1.0000   1.0000   1.0000   1.0000   1.0000   1.0000   1.0000
     1.0000   1.0000   1.0000   1.0000   1.0000   1.0000   1.0000   1.0000
     1.0000   1.0000   1.0000   1.0000   1.0000   1.0000   1.0000   1.0000
     1.0000   1.0000   1.0000   1.0000   1.0000   1.0000   1.0000   1.0000
     1.0000   1.0000   1.0000   1.0000   1.0000   1.0000   1.0000   1.0000
     1.0000   1.0000   1.0000   1.0000   1.0000   1.0000   1.0000   1.0000
     1.0000   1.0000   1.0000   1.0000   1.0000   1.0000   1.0000   1.0000
     1.0000   1.0000   1.0000   1.0000   1.0000   1.0000   1.0000   1.0000
     1.0000   1.0000   1.0000   1.0000   1.0000   1.0000   1.0000   1.0000
     1.0000   1.0000   1.0000   1.0000   1.0000   1.0000   1.0000   1.0000
     1.0000   1.0000   1.0000   1.0000   1.0000   1.0000   1.0000   1.0000
     1.0000   1.0000   1.0000   1.0000   1.0000   1.0000   1.0000   1.0000
     1.0000   1.0000   1.0000   0.4642   0.4341   0.0048   0.0000   0.0000
     0.0000   0.0000   0.0000   0.0000   0.0000   0.0000   0.0000   0.0000
     0.0000   0.0000   0.0000   0.0000   0.0000   0.0000   0.0000   0.0000
     0.0000   0.0000   0.0000   0.0000   0.0000   0.0000   0.0000   0.0000
     0.0000   0.0000   0.0000   0.0000   0.0000   0.0000   0.0000   0.0000
     0.0000   0.0000   0.0000   0.0000   0.0000   0.0000   0.0000   0.0000
     0.0000   0.0000

          k =-0.5000 0.0000 0.0000 ( 45630 PWs)   bands (ev):

   -56.8489 -56.8489 -56.5875 -56.5875 -56.5544 -56.5544 -56.4149 -56.4148
   -56.3346 -56.3346 -56.2617 -56.2617 -56.1207 -56.1207 -56.0053 -56.0053
   -55.9564 -55.9564 -55.9125 -55.9125 -26.6785 -26.6785 -26.6609 -26.6609
   -26.5530 -26.5530 -26.4058 -26.4058 -26.3092 -26.3092 -26.2644 -26.2644
   -26.2418 -26.2418 -26.2041 -26.2041 -26.1581 -26.1581 -26.1542 -26.1542
   -26.1243 -26.1242 -26.0641 -26.0641 -25.9975 -25.9975 -25.9926 -25.9926
   -25.9757 -25.9757 -25.9213 -25.9213 -25.9163 -25.9163 -25.8849 -25.8849
   -25.8640 -25.8640 -25.8285 -25.8285 -25.7755 -25.7755 -25.7634 -25.7634
   -25.7039 -25.7039 -25.6716 -25.6716 -25.6030 -25.6030 -25.5810 -25.5810
   -25.5416 -25.5416 -25.4997 -25.4997 -25.4571 -25.4571 -25.3729 -25.3729
   -14.7164 -14.7164 -14.4002 -14.4002 -14.1804 -14.1804 -14.1203 -14.1203
   -13.9905 -13.9905 -13.8287 -13.8287 -13.6816 -13.6816 -13.6382 -13.6382
   -13.4906 -13.4906 -13.3995 -13.3994 -13.3291 -13.3291 -13.2451 -13.2451
   -13.1774 -13.1774 -13.0154 -13.0154 -12.8673 -12.8673 -12.7396 -12.7396
   -12.6532 -12.6532 -12.5525 -12.5525  -2.6004  -2.6004  -2.4200  -2.4199
    -2.2196  -2.2196  -2.1400  -2.1400  -2.0598  -2.0598  -1.9423  -1.9422
    -1.8310  -1.8310  -1.7607  -1.7607  -1.7347  -1.7347  -1.6713  -1.6713
    -1.6011  -1.6011  -1.4999  -1.4999  -1.4089  -1.4089  -1.2776  -1.2776
    -1.2271  -1.2271  -1.1839  -1.1839  -1.0904  -1.0904  -0.9412  -0.9412
    -0.9207  -0.9207  -0.8668  -0.8668  -0.7111  -0.7111  -0.6693  -0.6693
    -0.5346  -0.5346  -0.4203  -0.4203  -0.1708  -0.1708  -0.1286  -0.1286
    -0.0156  -0.0156   0.1176   0.1176   0.2857   0.2857   0.3999   0.3999
     0.4229   0.4229   0.5663   0.5663   0.7052   0.7053   0.7720   0.7720
     0.8924   0.8924   0.9776   0.9776   1.0436   1.0436   1.1727   1.1727
     1.2054   1.2054   1.3566   1.3566   1.4252   1.4252   1.5064   1.5064
     1.5529   1.5529   1.6801   1.6801   1.7830   1.7830   1.8083   1.8083
     1.9292   1.9292   2.0174   2.0174   2.1672   2.1672   2.2602   2.2603
     2.3445   2.3445   2.3907   2.3907   2.5444   2.5444   2.6802   2.6802
     5.6417   5.6417   6.5841   6.5841   6.7509   6.7509   7.5357   7.5357
     7.6271   7.6271   7.8024   7.8024   8.1615   8.1615   8.2985   8.2985
     8.3298   8.3298   8.3943   8.3943   8.5478   8.5478   8.7024   8.7024
     8.8318   8.8318   8.8883   8.8883   8.9837   8.9837   9.0641   9.0641
     9.1729   9.1729   9.2635   9.2635   9.3721   9.3721   9.4979   9.4979
     9.5940   9.5941   9.6787   9.6787   9.7578   9.7578   9.7900   9.7900
     9.9904   9.9904

     occupation numbers 
     1.0000   1.0000   1.0000   1.0000   1.0000   1.0000   1.0000   1.0000
     1.0000   1.0000   1.0000   1.0000   1.0000   1.0000   1.0000   1.0000
     1.0000   1.0000   1.0000   1.0000   1.0000   1.0000   1.0000   1.0000
     1.0000   1.0000   1.0000   1.0000   1.0000   1.0000   1.0000   1.0000
     1.0000   1.0000   1.0000   1.0000   1.0000   1.0000   1.0000   1.0000
     1.0000   1.0000   1.0000   1.0000   1.0000   1.0000   1.0000   1.0000
     1.0000   1.0000   1.0000   1.0000   1.0000   1.0000   1.0000   1.0000
     1.0000   1.0000   1.0000   1.0000   1.0000   1.0000   1.0000   1.0000
     1.0000   1.0000   1.0000   1.0000   1.0000   1.0000   1.0000   1.0000
     1.0000   1.0000   1.0000   1.0000   1.0000   1.0000   1.0000   1.0000
     1.0000   1.0000   1.0000   1.0000   1.0000   1.0000   1.0000   1.0000
     1.0000   1.0000   1.0000   1.0000   1.0000   1.0000   1.0000   1.0000
     1.0000   1.0000   1.0000   1.0000   1.0000   1.0000   1.0000   1.0000
     1.0000   1.0000   1.0000   1.0000   1.0000   1.0000   1.0000   1.0000
     1.0000   1.0000   1.0000   1.0000   1.0000   1.0000   1.0000   1.0000
     1.0000   1.0000   1.0000   1.0000   1.0000   1.0000   1.0000   1.0000
     1.0000   1.0000   1.0000   1.0000   1.0000   1.0000   1.0000   1.0000
     1.0000   1.0000   1.0000   1.0000   1.0000   1.0000   1.0000   1.0000
     1.0000   1.0000   1.0000   1.0000   1.0000   1.0000   1.0000   1.0000
     1.0000   1.0000   1.0000   1.0000   1.0000   1.0000   1.0000   1.0000
     1.0000   1.0000   1.0000   1.0000   1.0000   1.0000   1.0000   1.0000
     1.0000   1.0000   1.0000   1.0000   1.0000   1.0000   1.0000   1.0000
     1.0000   1.0000   1.0000   1.0000   1.0000   1.0000   1.0000   1.0000
     1.0000   1.0000   1.0000   1.0000   1.0000   1.0000   1.0000   1.0000
     1.0000   1.0000   1.0000   1.0000   1.0000   1.0000   1.0000   1.0000
     1.0000   1.0000   1.0000   1.0000   1.0000   1.0000   1.0000   1.0000
     1.0000   1.0000   1.0000   1.0000   1.0000   1.0000   1.0000   1.0000
     1.0000   1.0000   1.0000   1.0000   1.0000   1.0000   1.0000   1.0000
     1.0000   1.0000   0.9458   0.9458   0.1634   0.1634   0.0000   0.0000
     0.0000   0.0000   0.0000   0.0000   0.0000   0.0000   0.0000   0.0000
     0.0000   0.0000   0.0000   0.0000   0.0000   0.0000   0.0000   0.0000
     0.0000   0.0000   0.0000   0.0000   0.0000   0.0000   0.0000   0.0000
     0.0000   0.0000   0.0000   0.0000   0.0000   0.0000   0.0000   0.0000
     0.0000   0.0000   0.0000   0.0000   0.0000   0.0000   0.0000   0.0000
     0.0000   0.0000

          k =-0.5000 0.2600 0.0000 ( 45606 PWs)   bands (ev):

   -56.8488 -56.8488 -56.5875 -56.5875 -56.5544 -56.5544 -56.4148 -56.4148
   -56.3345 -56.3345 -56.2617 -56.2616 -56.1207 -56.1206 -56.0052 -56.0052
   -55.9564 -55.9564 -55.9128 -55.9127 -26.7644 -26.7644 -26.7008 -26.7008
   -26.5066 -26.5066 -26.4246 -26.4246 -26.3577 -26.3577 -26.2922 -26.2922
   -26.2257 -26.2257 -26.2031 -26.2031 -26.1765 -26.1765 -26.1419 -26.1419
   -26.1215 -26.1215 -26.0683 -26.0683 -26.0213 -26.0213 -25.9948 -25.9948
   -25.9766 -25.9766 -25.9490 -25.9490 -25.9356 -25.9356 -25.8922 -25.8922
   -25.8489 -25.8489 -25.7981 -25.7981 -25.7736 -25.7736 -25.7190 -25.7190
   -25.6637 -25.6637 -25.6448 -25.6448 -25.5836 -25.5836 -25.5465 -25.5465
   -25.5125 -25.5125 -25.4828 -25.4828 -25.4486 -25.4486 -25.3747 -25.3747
   -14.7213 -14.7213 -14.4506 -14.4506 -14.2360 -14.2360 -14.1199 -14.1199
   -14.0557 -14.0556 -13.9038 -13.9038 -13.7624 -13.7624 -13.6514 -13.6514
   -13.5734 -13.5734 -13.3993 -13.3993 -13.3464 -13.3464 -13.1585 -13.1585
   -13.1213 -13.1213 -12.9592 -12.9592 -12.8118 -12.8118 -12.6792 -12.6792
   -12.5597 -12.5597 -12.4490 -12.4490  -2.6430  -2.6430  -2.3666  -2.3666
    -2.2340  -2.2340  -2.1346  -2.1346  -2.0414  -2.0413  -1.9306  -1.9306
    -1.8022  -1.8022  -1.7016  -1.7016  -1.6559  -1.6559  -1.5826  -1.5826
    -1.5468  -1.5468  -1.4783  -1.4783  -1.3873  -1.3873  -1.2842  -1.2842
    -1.1777  -1.1777  -1.0729  -1.0729  -0.9983  -0.9983  -0.8827  -0.8827
    -0.7679  -0.7679  -0.6880  -0.6880  -0.6205  -0.6205  -0.5266  -0.5266
    -0.4227  -0.4227  -0.3257  -0.3257  -0.1818  -0.1818  -0.0854  -0.0854
    -0.0022  -0.0022   0.1048   0.1048   0.2017   0.2017   0.3228   0.3228
     0.3869   0.3869   0.4675   0.4675   0.5687   0.5687   0.6764   0.6764
     0.7747   0.7747   0.8975   0.8975   0.9954   0.9954   1.0812   1.0812
     1.1898   1.1898   1.2474   1.2474   1.3279   1.3279   1.4184   1.4184
     1.4816   1.4816   1.6222   1.6223   1.6732   1.6732   1.7720   1.7720
     1.8973   1.8973   1.9965   1.9965   2.1042   2.1042   2.2309   2.2309
     2.3286   2.3286   2.4068   2.4068   2.5194   2.5194   2.6972   2.6972
     5.6853   5.6853   6.4691   6.4691   6.7106   6.7106   7.2942   7.2942
     7.5063   7.5063   7.5352   7.5352   7.9226   7.9226   8.1253   8.1253
     8.1724   8.1724   8.2534   8.2534   8.4024   8.4024   8.4634   8.4634
     8.5920   8.5920   8.7401   8.7401   8.7980   8.7980   8.9623   8.9624
     9.0236   9.0237   9.1610   9.1610   9.2556   9.2556   9.3717   9.3717
     9.4975   9.4975   9.6751   9.6751   9.7552   9.7553   9.9195   9.9195
    10.0584  10.0584

     occupation numbers 
     1.0000   1.0000   1.0000   1.0000   1.0000   1.0000   1.0000   1.0000
     1.0000   1.0000   1.0000   1.0000   1.0000   1.0000   1.0000   1.0000
     1.0000   1.0000   1.0000   1.0000   1.0000   1.0000   1.0000   1.0000
     1.0000   1.0000   1.0000   1.0000   1.0000   1.0000   1.0000   1.0000
     1.0000   1.0000   1.0000   1.0000   1.0000   1.0000   1.0000   1.0000
     1.0000   1.0000   1.0000   1.0000   1.0000   1.0000   1.0000   1.0000
     1.0000   1.0000   1.0000   1.0000   1.0000   1.0000   1.0000   1.0000
     1.0000   1.0000   1.0000   1.0000   1.0000   1.0000   1.0000   1.0000
     1.0000   1.0000   1.0000   1.0000   1.0000   1.0000   1.0000   1.0000
     1.0000   1.0000   1.0000   1.0000   1.0000   1.0000   1.0000   1.0000
     1.0000   1.0000   1.0000   1.0000   1.0000   1.0000   1.0000   1.0000
     1.0000   1.0000   1.0000   1.0000   1.0000   1.0000   1.0000   1.0000
     1.0000   1.0000   1.0000   1.0000   1.0000   1.0000   1.0000   1.0000
     1.0000   1.0000   1.0000   1.0000   1.0000   1.0000   1.0000   1.0000
     1.0000   1.0000   1.0000   1.0000   1.0000   1.0000   1.0000   1.0000
     1.0000   1.0000   1.0000   1.0000   1.0000   1.0000   1.0000   1.0000
     1.0000   1.0000   1.0000   1.0000   1.0000   1.0000   1.0000   1.0000
     1.0000   1.0000   1.0000   1.0000   1.0000   1.0000   1.0000   1.0000
     1.0000   1.0000   1.0000   1.0000   1.0000   1.0000   1.0000   1.0000
     1.0000   1.0000   1.0000   1.0000   1.0000   1.0000   1.0000   1.0000
     1.0000   1.0000   1.0000   1.0000   1.0000   1.0000   1.0000   1.0000
     1.0000   1.0000   1.0000   1.0000   1.0000   1.0000   1.0000   1.0000
     1.0000   1.0000   1.0000   1.0000   1.0000   1.0000   1.0000   1.0000
     1.0000   1.0000   1.0000   1.0000   1.0000   1.0000   1.0000   1.0000
     1.0000   1.0000   1.0000   1.0000   1.0000   1.0000   1.0000   1.0000
     1.0000   1.0000   1.0000   1.0000   1.0000   1.0000   1.0000   1.0000
     1.0000   1.0000   1.0000   1.0000   1.0000   1.0000   1.0000   1.0000
     1.0000   1.0000   1.0000   1.0000   1.0000   1.0000   1.0000   1.0000
     1.0000   1.0000   1.0735   1.0735   0.3139   0.3139   0.0000   0.0000
     0.0000   0.0000   0.0000   0.0000   0.0000   0.0000   0.0000   0.0000
     0.0000   0.0000   0.0000   0.0000   0.0000   0.0000   0.0000   0.0000
     0.0000   0.0000   0.0000   0.0000   0.0000   0.0000   0.0000   0.0000
     0.0000   0.0000   0.0000   0.0000   0.0000   0.0000   0.0000   0.0000
     0.0000   0.0000   0.0000   0.0000   0.0000   0.0000   0.0000   0.0000
     0.0000   0.0000

          k =-0.5000-0.5200 0.0000 ( 45488 PWs)   bands (ev):

   -56.8487 -56.8487 -56.5875 -56.5875 -56.5544 -56.5544 -56.4148 -56.4148
   -56.3344 -56.3344 -56.2616 -56.2616 -56.1206 -56.1206 -56.0051 -56.0051
   -55.9563 -55.9563 -55.9130 -55.9130 -26.8137 -26.8137 -26.7407 -26.7407
   -26.5291 -26.5291 -26.4209 -26.4209 -26.3582 -26.3582 -26.3097 -26.3097
   -26.2512 -26.2512 -26.2419 -26.2419 -26.1845 -26.1845 -26.1124 -26.1124
   -26.1012 -26.1012 -26.0799 -26.0799 -26.0408 -26.0408 -26.0065 -26.0065
   -25.9908 -25.9908 -25.9648 -25.9648 -25.9104 -25.9104 -25.9034 -25.9034
   -25.8388 -25.8388 -25.7786 -25.7786 -25.7524 -25.7524 -25.6926 -25.6926
   -25.6439 -25.6438 -25.6125 -25.6125 -25.5772 -25.5772 -25.5056 -25.5055
   -25.4929 -25.4929 -25.4739 -25.4739 -25.4264 -25.4264 -25.3758 -25.3758
   -14.7342 -14.7342 -14.4922 -14.4922 -14.2805 -14.2805 -14.1220 -14.1220
   -14.1036 -14.1036 -13.9593 -13.9593 -13.8448 -13.8447 -13.7109 -13.7109
   -13.6117 -13.6117 -13.4379 -13.4379 -13.3019 -13.3019 -13.1176 -13.1176
   -13.0538 -13.0538 -12.9029 -12.9029 -12.7514 -12.7514 -12.6109 -12.6109
   -12.4694 -12.4694 -12.3864 -12.3864  -2.4653  -2.4653  -2.2865  -2.2865
    -2.1665  -2.1665  -2.0860  -2.0860  -1.9812  -1.9812  -1.9113  -1.9113
    -1.8596  -1.8596  -1.7883  -1.7883  -1.6923  -1.6922  -1.6003  -1.6002
    -1.5685  -1.5685  -1.5021  -1.5021  -1.3784  -1.3784  -1.2524  -1.2524
    -1.1869  -1.1869  -1.0091  -1.0091  -0.8448  -0.8448  -0.7865  -0.7865
    -0.6676  -0.6676  -0.6126  -0.6126  -0.5337  -0.5337  -0.4444  -0.4444
    -0.3664  -0.3664  -0.2287  -0.2287  -0.1463  -0.1463  -0.0605  -0.0605
     0.0411   0.0411   0.1131   0.1131   0.2306   0.2307   0.2592   0.2592
     0.4006   0.4006   0.4714   0.4714   0.5596   0.5596   0.6605   0.6605
     0.7955   0.7955   0.8287   0.8287   0.8891   0.8891   0.9839   0.9839
     1.0604   1.0604   1.2103   1.2103   1.2965   1.2965   1.4049   1.4049
     1.4364   1.4364   1.5324   1.5324   1.5909   1.5909   1.7321   1.7321
     1.8698   1.8698   1.9645   1.9645   2.0663   2.0663   2.1326   2.1326
     2.2224   2.2224   2.3729   2.3729   2.4391   2.4392   2.6097   2.6097
     5.8000   5.8000   6.4453   6.4453   6.5968   6.5968   6.8406   6.8406
     7.3587   7.3587   7.4486   7.4486   7.7029   7.7029   7.9113   7.9113
     8.0633   8.0633   8.1180   8.1180   8.2115   8.2115   8.2844   8.2844
     8.3949   8.3949   8.5273   8.5273   8.6677   8.6677   8.8006   8.8006
     8.9394   8.9394   9.0089   9.0089   9.1875   9.1875   9.3983   9.3983
     9.5525   9.5525   9.7175   9.7175   9.8089   9.8089   9.9395   9.9395
    10.0532  10.0534

     occupation numbers 
     1.0000   1.0000   1.0000   1.0000   1.0000   1.0000   1.0000   1.0000
     1.0000   1.0000   1.0000   1.0000   1.0000   1.0000   1.0000   1.0000
     1.0000   1.0000   1.0000   1.0000   1.0000   1.0000   1.0000   1.0000
     1.0000   1.0000   1.0000   1.0000   1.0000   1.0000   1.0000   1.0000
     1.0000   1.0000   1.0000   1.0000   1.0000   1.0000   1.0000   1.0000
     1.0000   1.0000   1.0000   1.0000   1.0000   1.0000   1.0000   1.0000
     1.0000   1.0000   1.0000   1.0000   1.0000   1.0000   1.0000   1.0000
     1.0000   1.0000   1.0000   1.0000   1.0000   1.0000   1.0000   1.0000
     1.0000   1.0000   1.0000   1.0000   1.0000   1.0000   1.0000   1.0000
     1.0000   1.0000   1.0000   1.0000   1.0000   1.0000   1.0000   1.0000
     1.0000   1.0000   1.0000   1.0000   1.0000   1.0000   1.0000   1.0000
     1.0000   1.0000   1.0000   1.0000   1.0000   1.0000   1.0000   1.0000
     1.0000   1.0000   1.0000   1.0000   1.0000   1.0000   1.0000   1.0000
     1.0000   1.0000   1.0000   1.0000   1.0000   1.0000   1.0000   1.0000
     1.0000   1.0000   1.0000   1.0000   1.0000   1.0000   1.0000   1.0000
     1.0000   1.0000   1.0000   1.0000   1.0000   1.0000   1.0000   1.0000
     1.0000   1.0000   1.0000   1.0000   1.0000   1.0000   1.0000   1.0000
     1.0000   1.0000   1.0000   1.0000   1.0000   1.0000   1.0000   1.0000
     1.0000   1.0000   1.0000   1.0000   1.0000   1.0000   1.0000   1.0000
     1.0000   1.0000   1.0000   1.0000   1.0000   1.0000   1.0000   1.0000
     1.0000   1.0000   1.0000   1.0000   1.0000   1.0000   1.0000   1.0000
     1.0000   1.0000   1.0000   1.0000   1.0000   1.0000   1.0000   1.0000
     1.0000   1.0000   1.0000   1.0000   1.0000   1.0000   1.0000   1.0000
     1.0000   1.0000   1.0000   1.0000   1.0000   1.0000   1.0000   1.0000
     1.0000   1.0000   1.0000   1.0000   1.0000   1.0000   1.0000   1.0000
     1.0000   1.0000   1.0000   1.0000   1.0000   1.0000   1.0000   1.0000
     1.0000   1.0000   1.0000   1.0000   1.0000   1.0000   1.0000   1.0000
     1.0000   1.0000   1.0000   1.0000   1.0000   1.0000   1.0000   1.0000
     1.0000   1.0000   1.0582   1.0582   0.8963   0.8963   0.0214   0.0213
     0.0000   0.0000   0.0000   0.0000   0.0000   0.0000   0.0000   0.0000
     0.0000   0.0000   0.0000   0.0000   0.0000   0.0000   0.0000   0.0000
     0.0000   0.0000   0.0000   0.0000   0.0000   0.0000   0.0000   0.0000
     0.0000   0.0000   0.0000   0.0000   0.0000   0.0000   0.0000   0.0000
     0.0000   0.0000   0.0000   0.0000   0.0000   0.0000   0.0000   0.0000
     0.0000   0.0000

     the Fermi energy is     6.6924 ev

!    total energy              =   -3121.43985361 Ry
     estimated scf accuracy    <          3.6E-11 Ry
     smearing contrib. (-TS)   =      -0.00211696 Ry
     internal energy E=F+TS    =   -3121.43773665 Ry

     The total energy is F=E-TS. E is the sum of the following terms:
     one-electron contribution =  -97174.03412155 Ry
     hartree contribution      =   48676.90789471 Ry
     xc contribution           =    -490.49086996 Ry
     ewald contribution        =   45866.17996224 Ry
     electric field correction =      -0.00060209 Ry

     convergence has been achieved in  11 iterations

     Forces acting on atoms (cartesian axes, Ry/au):

     atom    1 type  1   force =     0.00000510    0.00000122    0.00000084
     atom    2 type  1   force =     0.00000055    0.00000103   -0.00000026
     atom    3 type  1   force =    -0.00000196   -0.00000151    0.00000248
     atom    4 type  1   force =    -0.00000238    0.00000114    0.00000085
     atom    5 type  1   force =     0.00000330    0.00000392    0.00000322
     atom    6 type  1   force =     0.00000518   -0.00000120    0.00000081
     atom    7 type  1   force =     0.00000051   -0.00000127   -0.00000022
     atom    8 type  1   force =    -0.00000201    0.00000128    0.00000251
     atom    9 type  1   force =    -0.00000239   -0.00000118    0.00000093
     atom   10 type  1   force =     0.00000330   -0.00000383    0.00000330
     atom   11 type  1   force =     0.00000572    0.00000112   -0.00000082
     atom   12 type  1   force =    -0.00000234   -0.00000101    0.00000252
     atom   13 type  1   force =    -0.00000163   -0.00000049    0.00000251
     atom   14 type  1   force =    -0.00000409    0.00000126    0.00000134
     atom   15 type  1   force =    -0.00000396    0.00000245   -0.00000207
     atom   16 type  1   force =     0.00000571   -0.00000123   -0.00000087
     atom   17 type  1   force =    -0.00000231    0.00000115    0.00000256
     atom   18 type  1   force =    -0.00000159    0.00000070    0.00000254
     atom   19 type  1   force =    -0.00000410   -0.00000133    0.00000146
     atom   20 type  1   force =    -0.00000428   -0.00000228   -0.00000197
     atom   21 type  2   force =     0.00000357   -0.00000130   -0.00000620
     atom   22 type  2   force =    -0.00001068    0.00000327   -0.00000099
     atom   23 type  2   force =     0.00000237   -0.00000364   -0.00000096
     atom   24 type  2   force =     0.00000387   -0.00000255    0.00000068
     atom   25 type  2   force =     0.00000025    0.00000756   -0.00000012
     atom   26 type  2   force =     0.00000359    0.00000135   -0.00000639
     atom   27 type  2   force =    -0.00001051   -0.00000328   -0.00000113
     atom   28 type  2   force =     0.00000256    0.00000368   -0.00000126
     atom   29 type  2   force =     0.00000393    0.00000252    0.00000057
     atom   30 type  2   force =     0.00000039   -0.00000736   -0.00000027
     atom   31 type  2   force =     0.00000193    0.00000181   -0.00000007
     atom   32 type  2   force =    -0.00000002    0.00000301    0.00000107
     atom   33 type  2   force =     0.00000142    0.00000007    0.00000080
     atom   34 type  2   force =     0.00000237    0.00000301    0.00000037
     atom   35 type  2   force =     0.00000084   -0.00000167   -0.00000223
     atom   36 type  2   force =    -0.00000379   -0.00000291   -0.00000182
     atom   37 type  2   force =     0.00000018    0.00000227   -0.00000284
     atom   38 type  2   force =     0.00000661    0.00000106   -0.00000017
     atom   39 type  2   force =     0.00000045    0.00000208    0.00000380
     atom   40 type  2   force =    -0.00000374    0.00000275   -0.00000169
     atom   41 type  2   force =     0.00000025   -0.00000226   -0.00000250
     atom   42 type  2   force =     0.00000677   -0.00000103    0.00000005
     atom   43 type  2   force =     0.00000040   -0.00000209    0.00000389
     atom   44 type  2   force =     0.00000192   -0.00000181   -0.00000006
     atom   45 type  2   force =    -0.00000397    0.00000057   -0.00000463
     atom   46 type  2   force =     0.00000004   -0.00000319    0.00000106
     atom   47 type  2   force =    -0.00000276   -0.00000028    0.00000006
     atom   48 type  2   force =     0.00000147   -0.00000028    0.00000071
     atom   49 type  2   force =     0.00000098   -0.00000285    0.00000137
     atom   50 type  2   force =     0.00000238   -0.00000332    0.00000033
     atom   51 type  2   force =    -0.00000221   -0.00000015    0.00000110
     atom   52 type  2   force =     0.00000084    0.00000169   -0.00000219
     atom   53 type  2   force =    -0.00000396   -0.00000068   -0.00000463
     atom   54 type  2   force =    -0.00000281    0.00000053    0.00000007
     atom   55 type  2   force =     0.00000093    0.00000312    0.00000146
     atom   56 type  2   force =    -0.00000220    0.00000037    0.00000112
     The non-local contrib.  to forces
     atom    1 type  1   force =    -0.01911694    0.01974742   -0.06896985
     atom    2 type  1   force =    -0.03051012    0.07125995    0.01775949
     atom    3 type  1   force =    -0.02863144    0.06461105    0.02417986
     atom    4 type  1   force =    -0.02882282    0.06451625    0.03147158
     atom    5 type  1   force =    -0.04823911    0.04600533    0.06616986
     atom    6 type  1   force =    -0.01911735   -0.01974730   -0.06897025
     atom    7 type  1   force =    -0.03051011   -0.07126010    0.01775774
     atom    8 type  1   force =    -0.02863210   -0.06461033    0.02417799
     atom    9 type  1   force =    -0.02882380   -0.06451503    0.03146972
     atom   10 type  1   force =    -0.04824069   -0.04600439    0.06617292
     atom   11 type  1   force =     0.03006873   -0.08231604   -0.01153556
     atom   12 type  1   force =     0.02911655   -0.06668654    0.02270391
     atom   13 type  1   force =     0.02894682   -0.06458790    0.02626212
     atom   14 type  1   force =     0.03152174   -0.07439470    0.05027641
     atom   15 type  1   force =     0.03189353   -0.06096564    0.24612751
     atom   16 type  1   force =     0.03006894    0.08231507   -0.01153635
     atom   17 type  1   force =     0.02911633    0.06668718    0.02270649
     atom   18 type  1   force =     0.02894586    0.06458877    0.02626458
     atom   19 type  1   force =     0.03152102    0.07439523    0.05027721
     atom   20 type  1   force =     0.03189758    0.06096489    0.24612631
     atom   21 type  2   force =    -0.08869390    0.04649212    0.05274977
     atom   22 type  2   force =    -0.07253466    0.06605372    0.02402210
     atom   23 type  2   force =    -0.08060795    0.07181377    0.02508334
     atom   24 type  2   force =    -0.09185170    0.07590789    0.04066773
     atom   25 type  2   force =    -0.10344961    0.10184901    0.27574028
     atom   26 type  2   force =    -0.08869385   -0.04649317    0.05275404
     atom   27 type  2   force =    -0.07253609   -0.06605220    0.02401244
     atom   28 type  2   force =    -0.08061462   -0.07181103    0.02506959
     atom   29 type  2   force =    -0.09186127   -0.07590669    0.04065944
     atom   30 type  2   force =    -0.10345486   -0.10184849    0.27573675
     atom   31 type  2   force =    -0.02473618   -0.17308312   -0.02787087
     atom   32 type  2   force =    -0.04168137   -0.14910982   -0.00995412
     atom   33 type  2   force =    -0.03950734   -0.14730545   -0.00337256
     atom   34 type  2   force =    -0.03444150   -0.14939632    0.00231644
     atom   35 type  2   force =    -0.09907607   -0.06982839   -0.04611711
     atom   36 type  2   force =     0.05457385    0.05988792    0.01596430
     atom   37 type  2   force =     0.07811965    0.06981519    0.02390706
     atom   38 type  2   force =     0.08472860    0.07352991    0.02635144
     atom   39 type  2   force =     0.12781283    0.08756113    0.03934691
     atom   40 type  2   force =     0.05457082   -0.05988896    0.01595967
     atom   41 type  2   force =     0.07812802   -0.06981403    0.02389696
     atom   42 type  2   force =     0.08473951   -0.07352734    0.02634063
     atom   43 type  2   force =     0.12781910   -0.08756104    0.03933834
     atom   44 type  2   force =    -0.02473306    0.17308438   -0.02786970
     atom   45 type  2   force =     0.04638449    0.15141480   -0.02090711
     atom   46 type  2   force =    -0.04168978    0.14910845   -0.00995461
     atom   47 type  2   force =     0.04015884    0.14812905   -0.00515361
     atom   48 type  2   force =    -0.03952022    0.14730407   -0.00337489
     atom   49 type  2   force =     0.03833732    0.14849701    0.00113478
     atom   50 type  2   force =    -0.03445026    0.14939625    0.00231529
     atom   51 type  2   force =     0.02179785    0.15197114    0.05486087
     atom   52 type  2   force =    -0.09908241    0.06982609   -0.04612120
     atom   53 type  2   force =     0.04638226   -0.15141743   -0.02090516
     atom   54 type  2   force =     0.04014673   -0.14813178   -0.00515140
     atom   55 type  2   force =     0.03832376   -0.14849915    0.00113605
     atom   56 type  2   force =     0.02179372   -0.15196959    0.05486166
     The ionic contribution  to forces
     atom    1 type  1   force =    -1.62563037    1.06548269 -342.68936769
     atom    2 type  1   force =    -1.84478101   -2.36129542 -189.08861565
     atom    3 type  1   force =    -1.80238063   -2.80490216  -33.78483138
     atom    4 type  1   force =    -1.85670063   -2.78855953  121.85832573
     atom    5 type  1   force =    -2.42747573   -3.35818158  282.33262672
     atom    6 type  1   force =    -1.62562650   -1.06549323 -342.68939044
     atom    7 type  1   force =    -1.84474992    2.36130371 -189.08869727
     atom    8 type  1   force =    -1.80238149    2.80491672  -33.78498033
     atom    9 type  1   force =    -1.85672747    2.78857419  121.85815579
     atom   10 type  1   force =    -2.42748361    3.35818406  282.33247665
     atom   11 type  1   force =     1.89980229    1.60027922 -267.11669329
     atom   12 type  1   force =     1.81384822    2.68372563 -111.43497126
     atom   13 type  1   force =     1.81606218    2.82846054   43.91357420
     atom   14 type  1   force =     1.98835815    2.53376119  200.30135747
     atom   15 type  1   force =     0.27493133    5.32247477  347.01547334
     atom   16 type  1   force =     1.89977956   -1.60027912 -267.11671409
     atom   17 type  1   force =     1.81386776   -2.68370837 -111.43478275
     atom   18 type  1   force =     1.81605694   -2.82844763   43.91379405
     atom   19 type  1   force =     1.98832178   -2.53376027  200.30148579
     atom   20 type  1   force =     0.27496153   -5.32251124  347.01544993
     atom   21 type  2   force =     1.02721784    0.30613256 -162.40710924
     atom   22 type  2   force =     1.02257647    0.62697926  -85.53491612
     atom   23 type  2   force =     1.08057202    0.64488641   -8.23623503
     atom   24 type  2   force =     1.18287607    0.61931414   69.07594948
     atom   25 type  2   force =     1.18846608    0.95757740  144.37041378
     atom   26 type  2   force =     1.02719336   -0.30612794 -162.40718504
     atom   27 type  2   force =     1.02262087   -0.62697361  -85.53472539
     atom   28 type  2   force =     1.08064833   -0.64489875   -8.23603609
     atom   29 type  2   force =     1.18293536   -0.61934200   69.07602201
     atom   30 type  2   force =     1.18849782   -0.95758630  144.37036628
     atom   31 type  2   force =     0.16591980    2.38561817 -155.02650397
     atom   32 type  2   force =     0.28859109    2.44790255  -75.60315370
     atom   33 type  2   force =     0.28539786    2.46953329    2.20692626
     atom   34 type  2   force =     0.26778210    2.52701954   80.33477098
     atom   35 type  2   force =     0.80077470    1.78114879  162.24278461
     atom   36 type  2   force =    -0.87060019    0.58215804 -123.71566098
     atom   37 type  2   force =    -1.06209548    0.64306606  -46.93822581
     atom   38 type  2   force =    -1.11550183    0.63875106   30.49523001
     atom   39 type  2   force =    -1.47222059    0.51777293  107.71273218
     atom   40 type  2   force =    -0.87058463   -0.58213280 -123.71558778
     atom   41 type  2   force =    -1.06216695   -0.64306986  -46.93809822
     atom   42 type  2   force =    -1.11558397   -0.63877869   30.49537851
     atom   43 type  2   force =    -1.47227042   -0.51777279  107.71281382
     atom   44 type  2   force =     0.16590588   -2.38562377 -155.02650513
     atom   45 type  2   force =    -0.30566149   -2.38309804 -114.69876541
     atom   46 type  2   force =     0.28865919   -2.44791690  -75.60313202
     atom   47 type  2   force =    -0.28620824   -2.46471306  -36.67728657
     atom   48 type  2   force =     0.28549662   -2.46954074    2.20698593
     atom   49 type  2   force =    -0.28096091   -2.49266700   41.11512654
     atom   50 type  2   force =     0.26785598   -2.52701384   80.33482270
     atom   51 type  2   force =    -0.15319673   -2.67366679  119.97667806
     atom   52 type  2   force =     0.80081502   -1.78112033  162.24286366
     atom   53 type  2   force =    -0.30564102    2.38308867 -114.69878850
     atom   54 type  2   force =    -0.28611165    2.46472085  -36.67733129
     atom   55 type  2   force =    -0.28086121    2.49269002   41.11507360
     atom   56 type  2   force =    -0.15318954    2.67365929  119.97663239
     The local contribution  to forces
     atom    1 type  1   force =     1.64475863   -1.08522860  342.76044333
     atom    2 type  1   force =     1.87529800    2.29003623  189.07296004
     atom    3 type  1   force =     1.83101639    2.74028943   33.76277030
     atom    4 type  1   force =     1.88552758    2.72404392 -121.88767996
     atom    5 type  1   force =     2.47572442    3.31217966 -282.39668153
     atom    6 type  1   force =     1.64475523    1.08523880  342.76046645
     atom    7 type  1   force =     1.87526686   -2.29004484  189.07304344
     atom    8 type  1   force =     1.83101787   -2.74030516   33.76292114
     atom    9 type  1   force =     1.88555540   -2.72406006 -121.88750808
     atom   10 type  1   force =     2.47573393   -3.31218320 -282.39653441
     atom   11 type  1   force =    -1.92985906   -1.51796193  267.13033575
     atom   12 type  1   force =    -1.84296082   -2.61704009  111.41437570
     atom   13 type  1   force =    -1.84500429   -2.76387316  -43.93771504
     atom   14 type  1   force =    -2.01987774   -2.45936514 -200.34952258
     atom   15 type  1   force =    -0.30682250   -5.26150710 -347.25948824
     atom   16 type  1   force =    -1.92983655    1.51796246  267.13035729
     atom   17 type  1   force =    -1.84298011    2.61702212  111.41418466
     atom   18 type  1   force =    -1.84499807    2.76385935  -43.93793731
     atom   19 type  1   force =    -2.01984065    2.45936340 -200.34965158
     atom   20 type  1   force =    -0.30685698    5.26154428 -347.25946354
     atom   21 type  2   force =    -0.93851419   -0.35262578  162.35540346
     atom   22 type  2   force =    -0.95004574   -0.69302969   85.51194165
     atom   23 type  2   force =    -0.99995544   -0.71670384    8.21220915
     atom   24 type  2   force =    -1.09101444   -0.69522466  -69.11556009
     atom   25 type  2   force =    -1.08500997   -1.05941893 -144.64509987
     atom   26 type  2   force =    -0.93848974    0.35262203  162.35547480
     atom   27 type  2   force =    -0.95008855    0.69302228   85.51176045
     atom   28 type  2   force =    -1.00002489    0.71671326    8.21202368
     atom   29 type  2   force =    -1.09106410    0.69525105  -69.11562442
     atom   30 type  2   force =    -1.08503629    1.05942727 -144.64504898
     atom   31 type  2   force =    -0.14117515   -2.21253347  155.05542466
     atom   32 type  2   force =    -0.24690336   -2.29878988   75.61415717
     atom   33 type  2   force =    -0.24588289   -2.32222787   -2.20249398
     atom   34 type  2   force =    -0.23333213   -2.37762053  -80.33603159
     atom   35 type  2   force =    -0.70169148   -1.71132181 -162.19561394
     atom   36 type  2   force =     0.81602908   -0.64204907  123.70074611
     atom   37 type  2   force =     0.98398227   -0.71287915   46.91536838
     atom   38 type  2   force =     1.03078586   -0.71227999  -30.52052197
     atom   39 type  2   force =     1.34441450   -0.60533198 -107.75102216
     atom   40 type  2   force =     0.81601660    0.64202448  123.70067767
     atom   41 type  2   force =     0.98404543    0.71288158   46.91525119
     atom   42 type  2   force =     1.03085724    0.71230487  -30.52065947
     atom   43 type  2   force =     1.34445801    0.60533150 -107.75109515
     atom   44 type  2   force =    -0.14116438    2.21253759  155.05542467
     atom   45 type  2   force =     0.25927964    2.23168381  114.72071897
     atom   46 type  2   force =    -0.24696297    2.29880521   75.61413597
     atom   47 type  2   force =     0.24605305    2.31658360   36.68349466
     atom   48 type  2   force =    -0.24596870    2.32223628   -2.20255142
     atom   49 type  2   force =     0.24263083    2.34416715  -41.11520081
     atom   50 type  2   force =    -0.23339724    2.37761438  -80.33608219
     atom   51 type  2   force =     0.13140308    2.52169517 -120.03048476
     atom   52 type  2   force =    -0.70172545    1.71129547 -162.19568885
     atom   53 type  2   force =     0.25926142   -2.23167214  114.72074011
     atom   54 type  2   force =     0.24596852   -2.31658863   36.68353718
     atom   55 type  2   force =     0.24254464   -2.34418800  -41.11514905
     atom   56 type  2   force =     0.13140004   -2.52168922 -120.03043987
     The core correction contribution to forces
     atom    1 type  1   force =     0.00000000    0.00000000    0.00000000
     atom    2 type  1   force =     0.00000000    0.00000000    0.00000000
     atom    3 type  1   force =     0.00000000    0.00000000    0.00000000
     atom    4 type  1   force =     0.00000000    0.00000000    0.00000000
     atom    5 type  1   force =     0.00000000    0.00000000    0.00000000
     atom    6 type  1   force =     0.00000000    0.00000000    0.00000000
     atom    7 type  1   force =     0.00000000    0.00000000    0.00000000
     atom    8 type  1   force =     0.00000000    0.00000000    0.00000000
     atom    9 type  1   force =     0.00000000    0.00000000    0.00000000
     atom   10 type  1   force =     0.00000000    0.00000000    0.00000000
     atom   11 type  1   force =     0.00000000    0.00000000    0.00000000
     atom   12 type  1   force =     0.00000000    0.00000000    0.00000000
     atom   13 type  1   force =     0.00000000    0.00000000    0.00000000
     atom   14 type  1   force =     0.00000000    0.00000000    0.00000000
     atom   15 type  1   force =     0.00000000    0.00000000    0.00000000
     atom   16 type  1   force =     0.00000000    0.00000000    0.00000000
     atom   17 type  1   force =     0.00000000    0.00000000    0.00000000
     atom   18 type  1   force =     0.00000000    0.00000000    0.00000000
     atom   19 type  1   force =     0.00000000    0.00000000    0.00000000
     atom   20 type  1   force =     0.00000000    0.00000000    0.00000000
     atom   21 type  2   force =     0.00000000    0.00000000    0.00000000
     atom   22 type  2   force =     0.00000000    0.00000000    0.00000000
     atom   23 type  2   force =     0.00000000    0.00000000    0.00000000
     atom   24 type  2   force =     0.00000000    0.00000000    0.00000000
     atom   25 type  2   force =     0.00000000    0.00000000    0.00000000
     atom   26 type  2   force =     0.00000000    0.00000000    0.00000000
     atom   27 type  2   force =     0.00000000    0.00000000    0.00000000
     atom   28 type  2   force =     0.00000000    0.00000000    0.00000000
     atom   29 type  2   force =     0.00000000    0.00000000    0.00000000
     atom   30 type  2   force =     0.00000000    0.00000000    0.00000000
     atom   31 type  2   force =     0.00000000    0.00000000    0.00000000
     atom   32 type  2   force =     0.00000000    0.00000000    0.00000000
     atom   33 type  2   force =     0.00000000    0.00000000    0.00000000
     atom   34 type  2   force =     0.00000000    0.00000000    0.00000000
     atom   35 type  2   force =     0.00000000    0.00000000    0.00000000
     atom   36 type  2   force =     0.00000000    0.00000000    0.00000000
     atom   37 type  2   force =     0.00000000    0.00000000    0.00000000
     atom   38 type  2   force =     0.00000000    0.00000000    0.00000000
     atom   39 type  2   force =     0.00000000    0.00000000    0.00000000
     atom   40 type  2   force =     0.00000000    0.00000000    0.00000000
     atom   41 type  2   force =     0.00000000    0.00000000    0.00000000
     atom   42 type  2   force =     0.00000000    0.00000000    0.00000000
     atom   43 type  2   force =     0.00000000    0.00000000    0.00000000
     atom   44 type  2   force =     0.00000000    0.00000000    0.00000000
     atom   45 type  2   force =     0.00000000    0.00000000    0.00000000
     atom   46 type  2   force =     0.00000000    0.00000000    0.00000000
     atom   47 type  2   force =     0.00000000    0.00000000    0.00000000
     atom   48 type  2   force =     0.00000000    0.00000000    0.00000000
     atom   49 type  2   force =     0.00000000    0.00000000    0.00000000
     atom   50 type  2   force =     0.00000000    0.00000000    0.00000000
     atom   51 type  2   force =     0.00000000    0.00000000    0.00000000
     atom   52 type  2   force =     0.00000000    0.00000000    0.00000000
     atom   53 type  2   force =     0.00000000    0.00000000    0.00000000
     atom   54 type  2   force =     0.00000000    0.00000000    0.00000000
     atom   55 type  2   force =     0.00000000    0.00000000    0.00000000
     atom   56 type  2   force =     0.00000000    0.00000000    0.00000000
     The Hubbard contrib.    to forces
     atom    1 type  1   force =     0.00000000    0.00000000    0.00000000
     atom    2 type  1   force =     0.00000000    0.00000000    0.00000000
     atom    3 type  1   force =     0.00000000    0.00000000    0.00000000
     atom    4 type  1   force =     0.00000000    0.00000000    0.00000000
     atom    5 type  1   force =     0.00000000    0.00000000    0.00000000
     atom    6 type  1   force =     0.00000000    0.00000000    0.00000000
     atom    7 type  1   force =     0.00000000    0.00000000    0.00000000
     atom    8 type  1   force =     0.00000000    0.00000000    0.00000000
     atom    9 type  1   force =     0.00000000    0.00000000    0.00000000
     atom   10 type  1   force =     0.00000000    0.00000000    0.00000000
     atom   11 type  1   force =     0.00000000    0.00000000    0.00000000
     atom   12 type  1   force =     0.00000000    0.00000000    0.00000000
     atom   13 type  1   force =     0.00000000    0.00000000    0.00000000
     atom   14 type  1   force =     0.00000000    0.00000000    0.00000000
     atom   15 type  1   force =     0.00000000    0.00000000    0.00000000
     atom   16 type  1   force =     0.00000000    0.00000000    0.00000000
     atom   17 type  1   force =     0.00000000    0.00000000    0.00000000
     atom   18 type  1   force =     0.00000000    0.00000000    0.00000000
     atom   19 type  1   force =     0.00000000    0.00000000    0.00000000
     atom   20 type  1   force =     0.00000000    0.00000000    0.00000000
     atom   21 type  2   force =     0.00000000    0.00000000    0.00000000
     atom   22 type  2   force =     0.00000000    0.00000000    0.00000000
     atom   23 type  2   force =     0.00000000    0.00000000    0.00000000
     atom   24 type  2   force =     0.00000000    0.00000000    0.00000000
     atom   25 type  2   force =     0.00000000    0.00000000    0.00000000
     atom   26 type  2   force =     0.00000000    0.00000000    0.00000000
     atom   27 type  2   force =     0.00000000    0.00000000    0.00000000
     atom   28 type  2   force =     0.00000000    0.00000000    0.00000000
     atom   29 type  2   force =     0.00000000    0.00000000    0.00000000
     atom   30 type  2   force =     0.00000000    0.00000000    0.00000000
     atom   31 type  2   force =     0.00000000    0.00000000    0.00000000
     atom   32 type  2   force =     0.00000000    0.00000000    0.00000000
     atom   33 type  2   force =     0.00000000    0.00000000    0.00000000
     atom   34 type  2   force =     0.00000000    0.00000000    0.00000000
     atom   35 type  2   force =     0.00000000    0.00000000    0.00000000
     atom   36 type  2   force =     0.00000000    0.00000000    0.00000000
     atom   37 type  2   force =     0.00000000    0.00000000    0.00000000
     atom   38 type  2   force =     0.00000000    0.00000000    0.00000000
     atom   39 type  2   force =     0.00000000    0.00000000    0.00000000
     atom   40 type  2   force =     0.00000000    0.00000000    0.00000000
     atom   41 type  2   force =     0.00000000    0.00000000    0.00000000
     atom   42 type  2   force =     0.00000000    0.00000000    0.00000000
     atom   43 type  2   force =     0.00000000    0.00000000    0.00000000
     atom   44 type  2   force =     0.00000000    0.00000000    0.00000000
     atom   45 type  2   force =     0.00000000    0.00000000    0.00000000
     atom   46 type  2   force =     0.00000000    0.00000000    0.00000000
     atom   47 type  2   force =     0.00000000    0.00000000    0.00000000
     atom   48 type  2   force =     0.00000000    0.00000000    0.00000000
     atom   49 type  2   force =     0.00000000    0.00000000    0.00000000
     atom   50 type  2   force =     0.00000000    0.00000000    0.00000000
     atom   51 type  2   force =     0.00000000    0.00000000    0.00000000
     atom   52 type  2   force =     0.00000000    0.00000000    0.00000000
     atom   53 type  2   force =     0.00000000    0.00000000    0.00000000
     atom   54 type  2   force =     0.00000000    0.00000000    0.00000000
     atom   55 type  2   force =     0.00000000    0.00000000    0.00000000
     atom   56 type  2   force =     0.00000000    0.00000000    0.00000000
     The SCF correction term to forces
     atom    1 type  1   force =     0.00000011   -0.00000041    0.00000513
     atom    2 type  1   force =     0.00000001    0.00000015    0.00000594
     atom    3 type  1   force =     0.00000004    0.00000006   -0.00000622
     atom    4 type  1   force =    -0.00000018    0.00000039   -0.00000642
     atom    5 type  1   force =     0.00000004    0.00000040   -0.00000176
     atom    6 type  1   force =     0.00000013    0.00000041    0.00000512
     atom    7 type  1   force =     0.00000000   -0.00000016    0.00000594
     atom    8 type  1   force =     0.00000004   -0.00000007   -0.00000622
     atom    9 type  1   force =    -0.00000018   -0.00000039   -0.00000642
     atom   10 type  1   force =     0.00000000   -0.00000041   -0.00000177
     atom   11 type  1   force =     0.00000009   -0.00000025    0.00000235
     atom   12 type  1   force =     0.00000005   -0.00000011    0.00000424
     atom   13 type  1   force =    -0.00000001   -0.00000009   -0.00000870
     atom   14 type  1   force =     0.00000009   -0.00000020    0.00000012
     atom   15 type  1   force =     0.00000001    0.00000031   -0.00000460
     atom   16 type  1   force =     0.00000008    0.00000025    0.00000236
     atom   17 type  1   force =     0.00000004    0.00000012    0.00000424
     atom   18 type  1   force =    -0.00000000    0.00000009   -0.00000870
     atom   19 type  1   force =     0.00000008    0.00000020    0.00000012
     atom   20 type  1   force =    -0.00000008   -0.00000031   -0.00000460
     atom   21 type  2   force =     0.00000015   -0.00000031    0.00000311
     atom   22 type  2   force =    -0.00000041   -0.00000013    0.00000468
     atom   23 type  2   force =     0.00000007   -0.00000009   -0.00000512
     atom   24 type  2   force =     0.00000028   -0.00000004   -0.00000316
     atom   25 type  2   force =     0.00000008   -0.00000004   -0.00000103
     atom   26 type  2   force =     0.00000014    0.00000033    0.00000310
     atom   27 type  2   force =    -0.00000041    0.00000014    0.00000467
     atom   28 type  2   force =     0.00000007    0.00000009   -0.00000514
     atom   29 type  2   force =     0.00000027    0.00000003   -0.00000317
     atom   30 type  2   force =     0.00000005    0.00000006   -0.00000102
     atom   31 type  2   force =    -0.00000021    0.00000012    0.00000341
     atom   32 type  2   force =    -0.00000006    0.00000005    0.00000502
     atom   33 type  2   force =     0.00000012   -0.00000001   -0.00000562
     atom   34 type  2   force =     0.00000022    0.00000021   -0.00000217
     atom   35 type  2   force =     0.00000002   -0.00000036   -0.00000249
     atom   36 type  2   force =    -0.00000020    0.00000009    0.00000204
     atom   37 type  2   force =     0.00000007    0.00000006    0.00000084
     atom   38 type  2   force =     0.00000032   -0.00000003   -0.00000634
     atom   39 type  2   force =     0.00000004   -0.00000011    0.00000017
     atom   40 type  2   force =    -0.00000021   -0.00000009    0.00000205
     atom   41 type  2   force =     0.00000007   -0.00000006    0.00000086
     atom   42 type  2   force =     0.00000031    0.00000003   -0.00000633
     atom   43 type  2   force =     0.00000004    0.00000012    0.00000018
     atom   44 type  2   force =    -0.00000020   -0.00000013    0.00000340
     atom   45 type  2   force =    -0.00000029   -0.00000012    0.00000221
     atom   46 type  2   force =    -0.00000007   -0.00000006    0.00000502
     atom   47 type  2   force =    -0.00000008    0.00000002   -0.00000113
     atom   48 type  2   force =     0.00000011    0.00000000   -0.00000562
     atom   49 type  2   force =     0.00000007   -0.00000012   -0.00000584
     atom   50 type  2   force =     0.00000023   -0.00000022   -0.00000217
     atom   51 type  2   force =    -0.00000008    0.00000022    0.00000023
     atom   52 type  2   force =     0.00000002    0.00000035   -0.00000250
     atom   53 type  2   force =    -0.00000029    0.00000011    0.00000222
     atom   54 type  2   force =    -0.00000008   -0.00000001   -0.00000113
     atom   55 type  2   force =     0.00000007    0.00000013   -0.00000584
     atom   56 type  2   force =    -0.00000009   -0.00000022    0.00000024

     Total force =     0.000037     Total SCF correction =     0.000032
     SCF correction compared to forces is large: reduce conv_thr to get better values
     Message from routine bfgs:
     history already reset at previous step: exiting
     Energy error            =      1.9E-09 Ry
     Gradient error          =      1.1E-05 Ry/Bohr

     bfgs failed after  80 scf cycles and  79 bfgs steps, convergence not achieved
     (criteria: energy <  1.0E-06 Ry, force <  1.0E-05 Ry/Bohr)

     End of BFGS Geometry Optimization

     Final energy             =   -3121.4398536120 Ry

     File ./hfo2.bfgs deleted, as requested
Begin final coordinates

ATOMIC_POSITIONS (angstrom)
Hf               4.0163709780        3.7492962882        6.2863417939
Hf               4.0010368493        3.7804670088       11.1221094933
Hf               4.0011819914        3.7836457397       16.0432874179
Hf               4.0042610283        3.7847213989       20.9599259536
Hf               4.0165377077        3.8015928562       25.8385608147
Hf               1.4612076646        1.1639552798        6.2863413899
Hf               1.4458710520        1.1327821325       11.1221080374
Hf               1.4460167998        1.1296473415       16.0432842685
Hf               1.4490963642        1.1286291117       20.9599222747
Hf               1.4613735297        1.1117932536       25.8385561008
Hf               3.6490525616        1.1408156788        8.6549568010
Hf               3.6475062529        1.1308498879       13.5830781017
Hf               3.6477748065        1.1300781534       18.5024331065
Hf               3.6401237571        1.1376496152       23.4067683992
Hf               3.7312751679        1.3170363940       28.0553697968
Hf               1.0938895465        3.7724278213        8.6549562071
Hf               1.0923410602        3.7824172688       13.5830822756
Hf               1.0926088917        3.7832429921       18.5024386269
Hf               1.0849592046        3.7757210362       23.4067722834
Hf               1.1761058593        3.5963610414       28.0553680415
O                3.1118972600        2.1123125153        6.8718456763
O                3.1706015706        2.0752565041       11.7390256585
O                3.1786484853        2.0671050060       16.6426344964
O                3.1943835849        2.0526858635       21.5341572026
O                3.3309704162        1.9451284620       26.1983253605
O                0.5567346315        2.8009406556        6.8718426449
O                0.6154366250        2.8379902186       11.7390334400
O                0.6234847773        2.8461892296       16.6426400136
O                0.6392236129        2.8606706715       21.5341564546
O                0.7758119755        2.9682619529       26.1983192789
O                5.0395475532        0.2287804046        7.3356238151
O                5.0492034117        0.2154781520       12.3242272928
O                5.0541334882        0.2168710245       17.2542311904
O                5.0608544695        0.2229281171       22.1780416081
O                5.0976216196        0.1691271210       27.1241619818
O                1.9362572045        2.0919638138        9.3046227953
O                1.9178523667        2.0699149300       14.1884896694
O                1.9119464504        2.0628961183       19.0951571641
O                1.8794225109        2.0217412603       23.9359982465
O                4.4914241856        2.8212746946        9.3046261270
O                4.4730137411        2.8433549385       14.1884913770
O                4.4671060310        2.8504300291       19.0951597531
O                4.4345840341        2.8916321979       23.9359980825
O                2.4843824990       -0.2290610854        7.3356246876
O                2.6086059211       -0.2115014772        9.8454459866
O                2.4940396477       -0.2157582378       12.3242281210
O                2.5962344341       -0.2165779152       14.7912154204
O                2.4989703283       -0.2171017854       17.2542332027
O                2.5942497245       -0.2185531369       19.7158681852
O                2.5056909656       -0.2230996745       22.1780436163
O                2.5679121970       -0.2390405839       24.6464548981
O                2.5424577745       -0.1692637714       27.1241642359
O                5.1637695788        0.2112082788        9.8454461812
O                5.1513994762        0.2163211202       14.7912144739
O                5.1494150179        0.2183541325       19.7158662488
O                5.1230763561        0.2388879557       24.6464532288
End final coordinates



     Writing all to output data dir ./hfo2.save/ :
     XML data file, charge density, pseudopotentials, collected wavefunctions
 
     init_run     :      1.63s CPU      2.89s WALL (       1 calls)
     electrons    :    256.73s CPU    450.20s WALL (       4 calls)
     update_pot   :      0.02s CPU      0.04s WALL (       3 calls)
     forces       :      1.36s CPU      1.68s WALL (       4 calls)

     Called by init_run:
     wfcinit      :      1.27s CPU      2.27s WALL (       1 calls)
     wfcinit:atom :      0.00s CPU      0.00s WALL (      10 calls)
     wfcinit:wfcr :      1.18s CPU      2.15s WALL (      10 calls)
     potinit      :      0.02s CPU      0.13s WALL (       1 calls)
     hinit0       :      0.08s CPU      0.22s WALL (       1 calls)

     Called by electrons:
     c_bands      :    226.57s CPU    396.90s WALL (      78 calls)
     sum_band     :     27.25s CPU     48.57s WALL (      78 calls)
     v_of_rho     :      0.40s CPU      0.71s WALL (      78 calls)
     v_h          :      0.04s CPU      0.07s WALL (      78 calls)
     v_xc         :      0.35s CPU      0.61s WALL (      78 calls)
     mix_rho      :      2.38s CPU      3.59s WALL (      78 calls)

     Called by c_bands:
     init_us_2    :      0.63s CPU      0.91s WALL (    1610 calls)
     cegterg      :    224.10s CPU    384.44s WALL (     780 calls)

     Called by sum_band:
     sum_band:wei :      0.18s CPU      0.22s WALL (      78 calls)
     sum_band:loo :     27.00s CPU     48.22s WALL (      78 calls)
     sum_band:buf :      0.11s CPU      0.17s WALL (     780 calls)
     sum_band:ini :      0.24s CPU      0.35s WALL (     780 calls)

     Called by *egterg:
     cdiaghg      :     58.28s CPU    106.29s WALL (    2082 calls)
     cegterg:over :     14.24s CPU     18.65s WALL (    1372 calls)
     cegterg:upda :      7.85s CPU     10.13s WALL (    1372 calls)
     cegterg:last :     13.30s CPU     19.27s WALL (    1159 calls)
     cdiaghg:chol :      2.28s CPU      6.99s WALL (    2082 calls)
     cdiaghg:inve :      3.61s CPU     11.68s WALL (    2082 calls)
     cdiaghg:para :     12.64s CPU     16.25s WALL (    4164 calls)
     h_psi        :    125.95s CPU    224.56s WALL (    2162 calls)
     g_psi        :      0.07s CPU      0.09s WALL (    1372 calls)

     Called by h_psi:
     h_psi:calbec :      9.23s CPU     13.22s WALL (    2162 calls)
     vloc_psi     :    108.93s CPU    203.13s WALL (    2162 calls)
     add_vuspsi   :      7.08s CPU      7.35s WALL (    2162 calls)

     General routines
     calbec       :     10.12s CPU     14.37s WALL (    2322 calls)
     fft          :      0.48s CPU      0.93s WALL (     939 calls)
     ffts         :      1.53s CPU      2.29s WALL (    8766 calls)
     fftw         :    133.00s CPU    246.17s WALL ( 1114708 calls)
     interpolate  :      0.05s CPU      0.09s WALL (      78 calls)
     davcio       :      0.00s CPU      0.03s WALL (      10 calls)
 
     Parallel routines
 
     PWSCF        :   4m22.32s CPU   7m41.61s WALL

 
   This run was terminated on:  14:49:23   4Nov2025            

=------------------------------------------------------------------------------=
   JOB DONE.
=------------------------------------------------------------------------------=
