  <PP_INFO>

############################################################
#    Opium Parameter File                                  #
############################################################
#-----------------------------------------------------------
#Command line   : ./gopium ca ca.log all ke rpt upf 
 
#Opium version  : 4.1 
#Compile Host   : yang15.local 
#Compile OS     : Darwin 17.5.0 i386 
#Compile Date   : Tue Apr 10 00:25:10 EDT 2018 
#-----------------------------------------------------------
#Execution Host : Mac.lan 
#Execution Date : Thu Dec 18 21:41:16 2025
 
#-----------------------------------------------------------
############################################################
[Atom]
       Ca                 # chemical symbol (max. 2 characters)
       7                 # norb: number of orbitals
       100 2.00  -13.0   # reference configuration
       200 2.00   -1.4   # reference configuration
       210 6.00   -0.4   # reference configuration
       300 2.00   -0.1   # reference configuration
       310 6.00  -13.0   # reference configuration
       320 0.00  -1.4
       400 0.00   -0.4   # reference configuration
      

       [Pseudo]
       4  1.42 1.72 1.80 1.74
        opt

       [Optinfo]
       7.07  10    # rc[a.u.]  Qc[sqrt(Ry)]  Nb
       7.07  10    # rc[a.u.]  Qc[sqrt(Ry)]  Nb
       7.07  10    # rc[a.u.]  Qc[sqrt(Ry)]  Nb
       7.07  10    # rc[a.u.]  Qc[sqrt(Ry)]  Nb
     
      [Configs]
       3                 # number of valence configurations
       #
       300 2.00   -1.4   # test configuration
       310 6.00   -0.4   # test configuration
       320 0.00   -0.4   # test configuration     
       400 0.00   -0.4   # test configuration 
       #
       300 2.00   -1.4   # test configuration
       310 6.00   -0.4   # test configuration
       320 0.00   -0.4   # test configuration
       400 1.00   -0.4   # test configuration    
       #
       300 2.00   -1.4   # test configuration
       310 6.00   -0.4   # test configuration
       320 0.00   -0.4   # test configuration
       400 2.00   -0.4   # test configuration    

      [XC]
       pbesol

     
     [KBdesign]
     s                 # local orbital 
     1                 # number of aug. operators
au 0.01 1.375  1.52  # unit(gp or au)  left  right  height(Ry)


############################################################
  </PP_INFO>



<PP_HEADER>
   0         Version Number
   Ca        Element
   NC        Norm - Conserving pseudopotential
    F      Nonlinear Core Correction
SLA  PW   PSX  PSC     PBESOL  Exchange-Correlation functional
 10          Z valence
 0          Total energy
 0.000000   0.000000     Suggested cutoff for wfc and rho
 2           Max angular momentum component
 1153           Number of points in mesh
 3  3     Number of Wavefuncitons, Number of Projectors
 Wavefunctions         nl  l   occ
                       S  0  2.000000
                       P  1  6.000000
                       D  2  0.000000
</PP_HEADER>
<PP_MESH>
  <PP_R>
 3.6840314986403855e-05  3.7322365621494539e-05  3.7810723825206084e-05  3.8305472131237284e-05 
 3.8806694153229384e-05  3.9314474598897098e-05  3.9828899284344242e-05  4.0350055148567094e-05 
 4.0878030268147069e-05  4.1412913872136036e-05  4.1954796357136130e-05  4.2503769302577062e-05 
 4.3059925486193211e-05  4.3623358899703304e-05  4.4194164764695313e-05  4.4772439548718885e-05 
 4.5358280981588943e-05  4.5951788071901987e-05  4.6553061123768881e-05  4.7162201753766478e-05 
 4.7779312908111068e-05  4.8404498880056507e-05  4.9037865327520073e-05  4.9679519290938907e-05 
 5.0329569211359916e-05  5.0988124948766883e-05  5.1655297800646874e-05  5.2331200520799784e-05 
 5.3015947338394010e-05  5.3709653977271517e-05  5.4412437675505349e-05  5.5124417205213230e-05 
 5.5845712892630261e-05  5.6576446638444310e-05  5.7316741938397660e-05  5.8066723904158002e-05 
 5.8826519284462573e-05  5.9596256486539015e-05  6.0376065597806530e-05  6.1166078407860964e-05 
 6.1966428430747553e-05  6.2777250927525000e-05  6.3598682929125099e-05  6.4430863259511256e-05 
 6.5273932559139960e-05  6.6128033308729433e-05  6.6993309853339181e-05  6.7869908426764730e-05 
 6.8757977176251326e-05  6.9657666187531356e-05  7.0569127510189129e-05  7.1492515183357413e-05 
 7.2427985261750756e-05  7.3375695842038986e-05  7.4335807089565752e-05  7.5308481265417063e-05 
 7.6293882753843706e-05  7.7292178090042582e-05  7.8303535988301606e-05  7.9328127370512571e-05 
 8.0366125395057764e-05  8.1417705486073880e-05  8.2483045363099158e-05  8.3562325071108416e-05 
 8.4655727010941108e-05  8.5763435970127470e-05  8.6885639154118092e-05  8.8022526217921957e-05 
 8.9174289298158844e-05  9.0341123045530492e-05  9.1523224657717462e-05  9.2720793912705698e-05 
 9.3934033202549636e-05  9.5163147567576888e-05  9.6408344731040578e-05  9.7669835134224975e-05 
 9.8947831972010842e-05  1.0024255122890527e-04  1.0155421171554434e-04  1.0288303510567225e-04 
 1.0422924597360454e-04  1.0559307183218205e-04  1.0697474317122094e-04  1.0837449349646600e-04 
 1.0979255936905376e-04  1.1122918044549179e-04  1.1268459951816129e-04  1.1415906255634975e-04 
 1.1565281874781974e-04  1.1716612054092301e-04  1.1869922368726439e-04  1.2025238728492453e-04 
 1.2182587382224814e-04  1.2341994922220512e-04  1.2503488288733214e-04  1.2667094774526216e-04 
 1.2832842029485023e-04  1.3000758065290213e-04  1.3170871260151506e-04  1.3343210363603710e-04 
 1.3517804501365493e-04  1.3694683180261692e-04  1.3873876293210024e-04  1.4055414124273076e-04 
 1.4239327353776377e-04  1.4425647063493456e-04  1.4614404741898683e-04  1.4805632289488995e-04 
 1.4999362024175060e-04  1.5195626686743149e-04  1.5394459446388360e-04  1.5595893906320311e-04 
 1.5799964109442180e-04  1.6006704544103975e-04  1.6216150149931229e-04  1.6428336323729824e-04 
 1.6643298925468167e-04  1.6861074284337565e-04  1.7081699204892013e-04  1.7305210973268180e-04 
 1.7531647363486905e-04  1.7761046643837076e-04  1.7993447583343066e-04  1.8228889458316805e-04 
 1.8467412058995500e-04  1.8709055696266398e-04  1.8953861208479320e-04  1.9201869968348502e-04 
 1.9453123889944646e-04  1.9707665435778505e-04  1.9965537623977173e-04  2.0226784035554194e-04 
 2.0491448821774927e-04  2.0759576711618170e-04  2.1031213019335470e-04  2.1306403652109366e-04 
 2.1585195117811764e-04  2.1867634532863928e-04  2.2153769630199236e-04  2.2443648767330159e-04 
 2.2737320934520822e-04  2.3034835763066454e-04  2.3336243533681166e-04  2.3641595184995586e-04 
 2.3950942322165550e-04  2.4264337225593527e-04  2.4581832859764093e-04  2.4903482882195099e-04 
 2.5229341652505919e-04  2.5559464241604266e-04  2.5893906440993444e-04  2.6232724772201144e-04 
 2.6575976496331775e-04  2.6923719623743681e-04  2.7276012923853051e-04  2.7632915935066110e-04 
 2.7994488974841206e-04  2.8360793149882643e-04  2.8731890366467835e-04  2.9107843340909643e-04 
 2.9488715610155570e-04  2.9874571542525582e-04  3.0265476348590662e-04  3.0661496092193412e-04 
 3.1062697701613091e-04  3.1469148980876541e-04  3.1880918621217380e-04  3.2298076212684883e-04 
 3.2720692255904860e-04  3.3148838173994511e-04  3.3582586324633009e-04  3.4022010012290163e-04 
 3.4467183500615076e-04  3.4918182024986825e-04  3.5375081805229448e-04  3.5837960058493273e-04 
 3.6306895012304787e-04  3.6781965917787312e-04  3.7263253063054603e-04  3.7750837786779671e-04 
 3.8244802491941351e-04  3.8745230659750502e-04  3.9252206863758582e-04  3.9765816784150643e-04 
 4.0286147222225725e-04  4.0813286115066289e-04  4.1347322550399875e-04  4.1888346781655095e-04 
 4.2436450243214736e-04  4.2991725565868333e-04  4.3554266592467030e-04  4.4124168393783219e-04 
 4.4701527284577748e-04  4.5286440839877344e-04  4.5879007911464977e-04  4.6479328644586130e-04 
 4.7087504494873554e-04  4.7703638245493390e-04  4.8327834024515981e-04  4.8960197322513654e-04 
 4.9600835010388863e-04  5.0249855357435572e-04  5.0907368049637200e-04  5.1573484208203692e-04 
 5.2248316408351242e-04  5.2931978698327856e-04  5.3624586618687708e-04  5.4326257221817842e-04 
 5.5037109091720196e-04  5.5757262364052680e-04  5.6486838746432392e-04  5.7225961539004381e-04 
 5.7974755655279780e-04  5.8733347643246466e-04  5.9501865706755954e-04  6.0280439727190013e-04 
 6.1069201285411255e-04  6.1868283684000361e-04  6.2677821969784600e-04  6.3497952956660956e-04 
 6.4328815248718260e-04  6.5170549263661405e-04  6.6023297256542312e-04  6.6887203343801412e-04 
 6.7762413527623633e-04  6.8649075720613102e-04  6.9547339770790822e-04  7.0457357486919197e-04 
 7.1379282664158178e-04  7.2313271110057006e-04  7.3259480670886023e-04  7.4218071258313058e-04 
 7.5189204876429012e-04  7.6173045649126586e-04  7.7169759847838090e-04  7.8179515919635375e-04 
 7.9202484515697967e-04  8.0238838520153204e-04  8.1288753079294517e-04  8.2352405631181368e-04 
 8.3429975935626584e-04  8.4521646104576307e-04  8.5627600632887416e-04  8.6748026429507433e-04 
 8.7883112849062759e-04  8.9033051723859879e-04  9.0198037396305619e-04  9.1378266751751362e-04 
 9.2573939251767317e-04  9.3785256967851712e-04  9.5012424615581719e-04  9.6255649589210433e-04 
 9.7515141996717502e-04  9.8791114695317528e-04  1.0008378332743348e-03  1.0139336635714080e-03 
 1.0272008510708855e-03  1.0406416379590308e-03  1.0542582957608190e-03  1.0680531257238283e-03 
 1.0820284592071541e-03  1.0961866580754182e-03  1.1105301150979275e-03  1.1250612543530578e-03 
 1.1397825316379281e-03  1.1546964348834376e-03  1.1698054845747318e-03  1.1851122341771695e-03 
 1.2006192705678650e-03  1.2163292144728762e-03  1.2322447209101146e-03  1.2483684796380486e-03 
 1.2647032156102790e-03  1.2812516894360640e-03  1.2980166978468659e-03  1.3150010741690096e-03 
 1.3322076888025176e-03  1.3496394497062168e-03  1.3672993028891883e-03  1.3851902329086526e-03 
 1.4033152633743655e-03  1.4216774574596154e-03  1.4402799184189048e-03  1.4591257901124129e-03 
 1.4782182575373104e-03  1.4975605473660342e-03  1.5171559284916022e-03  1.5370077125800631e-03 
 1.5571192546301766e-03  1.5774939535404173e-03  1.5981352526833951e-03  1.6190466404877924e-03 
 1.6402316510279193e-03  1.6616938646209806e-03  1.6834369084321545e-03  1.7054644570875972e-03 
 1.7277802332954569e-03  1.7503880084750278e-03  1.7732916033941239e-03  1.7964948888148000e-03 
 1.8200017861475168e-03  1.8438162681138725e-03  1.8679423594180008e-03  1.8923841374267540e-03 
 1.9171457328587907e-03  1.9422313304826716e-03  1.9676451698241032e-03  1.9933915458824202e-03 
 2.0194748098564569e-03  2.0458993698799039e-03  2.0726696917663010e-03  2.0997902997637592e-03 
 2.1272657773195817e-03  2.1551007678548700e-03  2.1832999755492738e-03  2.2118681661360104e-03 
 2.2408101677072840e-03  2.2701308715302451e-03  2.2998352328736263e-03  2.3299282718451950e-03 
 2.3604150742401594e-03  2.3913007924006853e-03  2.4225906460866543e-03  2.4542899233578126e-03 
 2.4864039814674653e-03  2.5189382477678684e-03  2.5518982206274607e-03  2.5852894703601035e-03 
 2.6191176401664787e-03  2.6533884470877935e-03  2.6881076829719875e-03  2.7232812154525587e-03 
 2.7589149889402161e-03  2.7950150256274872e-03  2.8315874265064963e-03  2.8686383724000368e-03 
 2.9061741250061496e-03  2.9442010279563677e-03  2.9827255078877894e-03  3.0217540755292207e-03 
 3.0612933268014822e-03  3.1013499439321488e-03  3.1419306965848521e-03  3.1830424430033767e-03 
 3.2246921311707192e-03  3.2668867999833076e-03  3.3096335804406038e-03  3.3529396968502391e-03 
 3.3968124680489632e-03  3.4412593086395292e-03  3.4862877302437854e-03  3.5319053427721550e-03 
 3.5781198557097299e-03  3.6249390794191897e-03  3.6723709264607786e-03  3.7204234129295404e-03 
 3.7691046598100513e-03  3.8184228943489045e-03  3.8683864514451180e-03  3.9190037750587601e-03 
 3.9702834196379952e-03  4.0222340515648066e-03  4.0748644506196407e-03  4.1281835114651989e-03 
 4.1822002451496762e-03  4.2369237806296201e-03  4.2923633663127791e-03  4.3485283716210863e-03 
 4.4054282885741146e-03  4.4630727333932578e-03  4.5214714481268880e-03  4.5806343022967927e-03 
 4.6405712945661376e-03  4.7012925544292778e-03  4.7628083439236425e-03  4.8251290593640753e-03 
 4.8882652330998139e-03  4.9522275352944910e-03  5.0170267757294138e-03  5.0826739056304433e-03 
 5.1491800195187804e-03  5.2165563570859630e-03  5.2848143050934059e-03  5.3539653992967749e-03 
 5.4240213263955801e-03  5.4949939260082415e-03  5.5668951926730152e-03  5.6397372778751020e-03 
 5.7135324921002671e-03  5.7882933069153585e-03  5.8640323570760180e-03  5.9407624426619909e-03 
 6.0184965312403572e-03  6.0972477600571085e-03  6.1770294382573485e-03  6.2578550491345824e-03 
 6.3397382524094199e-03  6.4226928865381049e-03  6.5067329710512449e-03  6.5918727089231462e-03 
 6.6781264889721591e-03  6.7655088882923849e-03  6.8540346747172996e-03  6.9437188093155076e-03 
 7.0345764489192124e-03  7.1266229486857567e-03  7.2198738646926820e-03  7.3143449565667377e-03 
 7.4100521901473010e-03  7.5070117401846480e-03  7.6052399930734938e-03  7.7047535496223771e-03 
 7.8055692278592020e-03  7.9077040658735477e-03  8.0111753246961247e-03  8.1160004912159515e-03 
 8.2221972811356552e-03  8.3297836419654984e-03  8.4387777560565296e-03  8.5491980436734373e-03 
 8.6610631661076468e-03  8.7743920288310927e-03  8.8892037846913120e-03  9.0055178371483101e-03 
 9.1233538435537918e-03  9.2427317184732953e-03  9.3636716370518180e-03  9.4861940384234570e-03 
 9.6103196291656388e-03  9.7360693867986400e-03  9.8634645633307975e-03  9.9925266888501590e-03 
 1.0123277575163115e-02  1.0255739319480655e-02  1.0389934308152837e-02  1.0525885220452145e-02 
 1.0663615032406346e-02  1.0803147020681449e-02  1.0944504766515583e-02  1.1087712159704236e-02 
 1.1232793402637709e-02  1.1379773014391362e-02  1.1528675834869408e-02  1.1679527029002910e-02 
 1.1832352091002717e-02  1.1987176848668058e-02  1.2144027467751452e-02  1.2302930456380857e-02 
 1.2463912669539556e-02  1.2627001313604728e-02  1.2792223950945375e-02  1.2959608504580469e-02 
 1.3129183262897961e-02  1.3300976884435605e-02  1.3475018402724342e-02  1.3651337231194976e-02 
 1.3829963168149186e-02  1.4010926401795461e-02  1.4194257515351003e-02  1.4379987492210344e-02 
 1.4568147721181632e-02  1.4758770001791400e-02  1.4951886549658766e-02  1.5147530001939979e-02 
 1.5345733422844090e-02  1.5546530309220994e-02  1.5749954596222401e-02  1.5956040663036988e-02 
 1.6164823338700542e-02  1.6376337907982187e-02  1.6590620117347549e-02  1.6807706181000019e-02 
 1.7027632787001062e-02  1.7250437103470510e-02  1.7476156784868149e-02  1.7704829978357376e-02 
 1.7936495330252152e-02  1.8171191992548335e-02  1.8408959629540457e-02  1.8649838424525073e-02 
 1.8893869086591852e-02  1.9141092857503521e-02  1.9391551518665742e-02  1.9645287398188389e-02 
 1.9902343378039013e-02  2.0162762901290026e-02  2.0426589979460681e-02  2.0693869199955132e-02 
 2.0964645733597784e-02  2.1238965342267300e-02  2.1516874386630466e-02  2.1798419833977196e-02 
 2.2083649266158221e-02  2.2372610887626446e-02  2.2665353533583659e-02  2.2961926678233782e-02 
 2.3262380443144125e-02  2.3566765605716085e-02  2.3875133607766594e-02  2.4187536564221960e-02 
 2.4504027271925334e-02  2.4824659218559621e-02  2.5149486591686938e-02  2.5478564287906458e-02 
 2.5811947922132077e-02  2.6149693836991471e-02  2.6491859112348127e-02  2.6838501574947955e-02 
 2.7189679808192195e-02  2.7545453162038068e-02  2.7905881763029172e-02  2.8271026524456920e-02 
 2.8640949156655084e-02  2.9015712177428949e-02  2.9395378922621000e-02  2.9780013556814828e-02 
 3.0169681084179063e-02  3.0564447359453316e-02  3.0964379099077628e-02  3.1369543892467898e-02 
 3.1780010213438556e-02  3.2195847431774768e-02  3.2617125824956197e-02  3.3043916590033952e-02 
 3.3476291855663136e-02  3.3914324694292744e-02  3.4358089134515102e-02  3.4807660173576720e-02 
 3.5263113790053278e-02  3.5724526956689984e-02  3.6191977653410194e-02  3.6665544880494241e-02 
 3.7145308671930631e-02  3.7631350108942016e-02  3.8123751333688054e-02  3.8622595563147739e-02 
 3.9127967103183073e-02  3.9639951362787210e-02  4.0158634868518547e-02  4.0684105279124125e-02 
 4.1216451400353973e-02  4.1755763199969612e-02  4.2302131822948813e-02  4.2855649606889257e-02 
 4.3416410097613892e-02  4.3984508064980242e-02  4.4560039518896963e-02  4.5143101725549591e-02 
 4.5733793223838762e-02  4.6332213842033627e-02  4.6938464714642955e-02  4.7552648299507123e-02 
 4.8174868395113833e-02  4.8805230158140193e-02  4.9443840121224415e-02  5.0090806210970243e-02 
 5.0746237766186683e-02  5.1410245556366571e-02  5.2082941800406832e-02  5.2764440185573823e-02 
 5.3454855886716633e-02  5.4154305585732032e-02  5.4862907491283953e-02  5.5580781358780876e-02 
 5.6308048510615064e-02  5.7044831856666159e-02  5.7791255915073246e-02  5.8547446833278748e-02 
 5.9313532409347683e-02  6.0089642113565732e-02  6.0875907110320149e-02  6.1672460280266780e-02 
 6.2479436242787165e-02  6.3296971378739700e-02  6.4125203853508131e-02  6.4964273640351983e-02 
 6.5814322544062359e-02  6.6675494224927093e-02  6.7547934223009976e-02  6.8431789982747168e-02 
 6.9327210877865780e-02  7.0234348236628177e-02  7.1153355367407106e-02  7.2084387584594983e-02 
 7.3027602234852468e-02  7.3983158723700412e-02  7.4951218542459730e-02  7.5931945295543882e-02 
 7.6925504728108343e-02  7.7932064754062086e-02  7.8951795484445031e-02  7.9984869256177760e-02 
 8.1031460661186522e-02  8.2091746575909744e-02  8.3165906191190561e-02  8.4254121042560609e-02 
 8.5356575040919813e-02  8.6473454503617847e-02  8.7604948185942236e-02  8.8751247313018242e-02 
 8.9912545612126693e-02  9.1089039345444156e-02  9.2280927343211722e-02  9.3488411037337821e-02 
 9.4711694495440688e-02  9.5950984455336299e-02  9.7206490359977485e-02  9.8478424392850414e-02 
 9.9767001513833858e-02  1.0107243949552824e-01  1.0239495896005954e-01  1.0373478341636502e-01 
 1.0509213929796668e-01  1.0646725600123916e-01  1.0786036592417821e-01  1.0927170450567654e-01 
 1.1070151026531357e-01  1.1215002484366574e-01  1.1361749304314439e-01  1.1510416286936798e-01 
 1.1661028557307571e-01  1.1813611569258886e-01  1.1968191109682944e-01  1.2124793302889994e-01 
 1.2283444615023409e-01  1.2444171858532549e-01  1.2607002196704115e-01  1.2771963148252813e-01 
 1.2939082591972068e-01  1.3108388771445639e-01  1.3279910299820818e-01  1.3453676164644129e-01 
 1.3629715732760322e-01  1.3808058755275399e-01  1.3988735372584626e-01  1.4171776119466367e-01 
 1.4357211930242492e-01  1.4545074144006384e-01  1.4735394509919322e-01  1.4928205192576074e-01 
 1.5123538777440945e-01  1.5321428276354690e-01  1.5521907133113616e-01  1.5725009229121684e-01 
 1.5930768889116514e-01  1.6139220886970373e-01  1.6350400451567043e-01  1.6564343272755561e-01 
 1.6781085507381913e-01  1.7000663785399620e-01  1.7223115216060284e-01  1.7448477394185141e-01 
 1.7676788406518679e-01  1.7908086838165388e-01  1.8142411779110726e-01  1.8379802830827424e-01 
 1.8620300112968280e-01  1.8863944270146307e-01  1.9110776478803998e-01  1.9360838454172108e-01 
 1.9614172457319640e-01  1.9870821302296088e-01  2.0130828363367104e-01  2.0394237582344843e-01 
 2.0661093476014258e-01  2.0931441143656521e-01  2.1205326274670919e-01  2.1482795156296461e-01 
 2.1763894681434545e-01  2.2048672356573967e-01  2.2337176309819626e-01  2.2629455299026291e-01 
 2.2925558720038777e-01  2.3225536615039996e-01  2.3529439681008224e-01  2.3837319278284846e-01 
 2.4149227439254628e-01  2.4465216877139132e-01  2.4785340994905458e-01  2.5109653894291439e-01 
 2.5438210384948945e-01  2.5771065993706926e-01  2.6108276973955469e-01  2.6449900315152830e-01 
 2.6795993752456776e-01  2.7146615776481947e-01  2.7501825643184913e-01  2.7861683383878588e-01 
 2.8226249815377635e-01  2.8595586550276686e-01  2.8969756007362990e-01  2.9348821422165372e-01 
 2.9732846857641176e-01  3.0121897215002930e-01  3.0516038244687044e-01  3.0915336557465628e-01 
 3.1319859635703923e-01  3.1729675844764949e-01  3.2144854444563437e-01  3.2565465601270926e-01 
 3.2991580399173970e-01  3.3423270852687631e-01  3.3860609918526030e-01  3.4303671508032180e-01 
 3.4752530499669243e-01  3.5207262751675128e-01  3.5667945114882749e-01  3.6134655445707942e-01 
 3.6607472619307424e-01  3.7086476542908908e-01  3.7571748169315611e-01  3.8063369510587247e-01 
 3.8561423651900684e-01  3.9065994765591205e-01  3.9577168125377971e-01  4.0095030120775393e-01 
 4.0619668271693293e-01  4.1151171243227846e-01  4.1689628860646266e-01  4.2235132124567487e-01 
 4.2787773226341475e-01  4.3347645563629744e-01  4.3914843756189847e-01  4.4489463661866324e-01 
 4.5071602392790899e-01  4.5661358331794616e-01  4.6258831149034857e-01  4.6864121818839788e-01 
 4.7477332636773328e-01  4.8098567236923034e-01  4.8727930609415038e-01  4.9365529118157214e-01 
 5.0011470518815082e-01  5.0665863977022796e-01  5.1328820086832261e-01  5.2000450889403971e-01 
 5.2680869891942073e-01  5.3370192086877499e-01  5.4068533971301813e-01  5.4776013566655624e-01 
 5.5492750438674421e-01  5.6218865717595468e-01  5.6954482118629113e-01  5.7699723962697991e-01 
 5.8454717197447503e-01  5.9219589418531249e-01  5.9994469891175173e-01  6.0779489572023271e-01 
 6.1574781131270084e-01  6.2380478975082032e-01  6.3196719268312340e-01  6.4023639957513301e-01 
 6.4861380794249535e-01  6.5710083358716354e-01  6.6569891083667154e-01  6.7440949278653861e-01 
 6.8323405154584671e-01  6.9217407848602897e-01  7.0123108449291682e-01  7.1040660022208169e-01 
 7.1970217635752043e-01  7.2911938387372455e-01  7.3865981430117789e-01  7.4832507999533004e-01 
 7.5811681440908885e-01  7.6803667236887263e-01  7.7808633035428842e-01  7.8826748678145486e-01 
 7.9858186229004036e-01  8.0903120003405482e-01  8.1961726597644768e-01  8.3034184918755860e-01 
 8.4120676214747636e-01  8.5221384105235087e-01  8.6336494612471404e-01  8.7466196192786450e-01 
 8.8610679768436085e-01  8.9770138759868590e-01  9.0944769118413160e-01  9.2134769359396029e-01 
 9.3340340595690330e-01  9.4561686571704351e-01  9.5799013697815094e-01  9.7052531085251559e-01 
 9.8322450581435805e-01  9.9608986805785293e-01  1.0091235718598397e+00  1.0223278199472823e+00 
 1.0357048438695351e+00  1.0492569043754798e+00  1.0629862917955968e+00  1.0768953264290375e+00 
 1.0909863589357596e+00  1.1052617707337951e+00  1.1197239744017147e+00  1.1343754140863596e+00 
 1.1492185659159078e+00  1.1642559384183475e+00  1.1794900729454214e+00  1.1949235441021240e+00 
 1.2105589601818152e+00  1.2263989636070227e+00  1.2424462313760278e+00  1.2587034755152779e+00 
 1.2751734435377260e+00  1.2918589189071681e+00  1.3087627215086546e+00  1.3258877081250580e+00 
 1.3432367729198755e+00  1.3608128479263502e+00  1.3786189035429905e+00  1.3966579490355759e+00 
 1.4149330330457295e+00  1.4334472441061450e+00  1.4522037111625581e+00  1.4712056041025421e+00 
 1.4904561342912319e+00  1.5099585551140462e+00  1.5297161625265254e+00  1.5497322956113408e+00 
 1.5700103371426279e+00  1.5905537141576682e+00  1.6113658985360733e+00  1.6324504075865369e+00 
 1.6538108046412732e+00  1.6754506996582230e+00  1.6973737498311503e+00  1.7195836602077126e+00 
 1.7420841843156256e+00  1.7648791247970166e+00  1.7879723340510811e+00  1.8113677148851484e+00 
 1.8350692211742607e+00  1.8590808585293943e+00  1.8834066849744109e+00  1.9080508116318793e+00 
 1.9330174034178615e+00  1.9583106797457870e+00  1.9839349152395578e+00  2.0098944404559616e+00 
 2.0361936426165457e+00  2.0628369663490695e+00  2.0898289144386579e+00  2.1171740485887818e+00 
 2.1448769901921958e+00  2.1729424211119666e+00  2.2013750844727196e+00  2.2301797854622336e+00 
 2.2593613921435343e+00  2.2889248362776060e+00  2.3188751141568713e+00  2.3492172874495760e+00 
 2.3799564840552239e+00  2.4110978989712040e+00  2.4426467951707607e+00  2.4746085044924326e+00 
 2.5069884285411717e+00  2.5397920396012093e+00  2.5730248815608898e+00  2.6066925708496029e+00 
 2.6408007973869689e+00  2.6753553255444551e+00  2.7103619951195639e+00  2.7458267223227706e+00 
 2.7817555007773835e+00  2.8181544025324747e+00  2.8550295790890741e+00  2.8923872624397862e+00 
 2.9302337661220119e+00  2.9685754862849518e+00  3.0074189027705716e+00  3.0467705802087064e+00 
 3.0866371691265115e+00  3.1270254070723889e+00  3.1679421197546835e+00  3.2093942221952267e+00 
 3.2513887198979887e+00  3.2939327100330322e+00  3.3370333826359513e+00  3.3806980218229974e+00 
 3.4249340070221210e+00  3.4697488142201052e+00  3.5151500172260293e+00  3.5611452889512618e+00 
 3.6077424027061982e+00  3.6549492335139675e+00  3.7027737594413339e+00  3.7512240629470051e+00 
 3.8003083322475910e+00  3.8500348627014276e+00  3.9004120582105237e+00  3.9514484326408081e+00 
 4.0031526112610383e+00  4.0555333322004632e+00  4.1085994479255898e+00  4.1623599267362810e+00 
 4.2168238542814107e+00  4.2720004350943608e+00  4.3278989941486170e+00  4.3845289784337025e+00 
 4.4418999585517476e+00  4.5000216303349374e+00  4.5589038164841424e+00  4.6185564682289648e+00 
 4.6789896670095299e+00  4.7402136261802656e+00  4.8022386927359930e+00  4.8650753490605876e+00 
 4.9287342146985305e+00  4.9932260481496140e+00  5.0585617486871950e+00  5.1247523582001708e+00 
 5.1918090630590887e+00  5.2597431960066725e+00  5.3285662380730754e+00  5.3982898205162195e+00 
 5.4689257267874822e+00  5.5404858945231430e+00  5.6129824175618719e+00  5.6864275479886084e+00 
 5.7608336982052046e+00  5.8362134430281376e+00  5.9125795218136954e+00  5.9899448406109510e+00 
 6.0683224743429189e+00  6.1477256690162445e+00  6.2281678439598256e+00  6.3096625940926669e+00 
 6.3922236922215188e+00  6.4758650913684663e+00  6.5606009271290402e+00  6.6464455200611638e+00 
 6.7334133781053609e+00  6.8215191990366346e+00  6.9107778729484197e+00  7.0012044847690520e+00 
 7.0928143168111548e+00  7.1856228513543856e+00  7.2796457732619704e+00  7.3748989726314989e+00 
 7.4713985474803719e+00  7.5691608064664235e+00  7.6682022716441010e+00  7.7685396812567520e+00 
 7.8701899925654244e+00  7.9731703847146393e+00  8.0774982616357871e+00  8.1831912549883796e+00 
 8.2902672271398519e+00  8.3987442741843488e+00  8.5086407290010069e+00  8.6199751643522529e+00 
 8.7327663960226509e+00  8.8470334859988053e+00  8.9627957456908920e+00  9.0800727391963161e+00 
 9.1988842866061198e+00  9.3192504673545908e+00  9.4411916236127631e+00  9.5647283637262781e+00 
 9.6898815656982400e+00  9.8166723807176606e+00  9.9451222367340684e+00  1.0075252842078822e+01 
 1.0207086189133962e+01  1.0340644558048918e+01  1.0475950520505920e+01  1.0613026943534662e+01 
 1.0751896993376892e+01  1.0892584139401562e+01  1.1035112158071188e+01  1.1179505136960167e+01 
 1.1325787478825596e+01  1.1473983905731414e+01  1.1624119463226496e+01  1.1776219524577389e+01 
 1.1930309795056477e+01  1.2086416316286222e+01  1.2244565470640259e+01  1.2404783985702085e+01 
 1.2567098938782099e+01  1.2731537761493662e+01  1.2898128244389207e+01  1.3066898541656846e+01 
 1.3237877175878509e+01  1.3411093042850322e+01  1.3586575416466081e+01  1.3764353953664578e+01 
 1.3944458699441745e+01  1.4126920091928273e+01  1.4311768967533776e+01  1.4499036566158187e+01 
 1.4688754536471389e+01  1.4880954941261910e+01  1.5075670262855619e+01  1.5272933408605303e+01 
 1.5472777716452100e+01  1.5675236960559683e+01  1.5880345357022211e+01  1.6088137569646808e+01 
 1.6298648715811996e+01  1.6511914372402519e+01  1.6727970581821928e+01  1.6946853858083859e+01 
 1.7168601192982955e+01  1.7393250062346592e+01  1.7620838432368394e+01  1.7851404766024558e+01 
 1.8084988029574255e+01  1.8321627699144965e+01  1.8561363767404082e+01  1.8804236750317731e+01 
 1.9050287693998083e+01  1.9299558181640254e+01  1.9552090340549935e+01  1.9807926849263030e+01 
 2.0067110944758475e+01  2.0329686429765211e+01  2.0595697680165198e+01  2.0865189652492891e+01 
 2.1138207891533021e+01  2.1414798538017795e+01  2.1695008336424795e+01  2.1978884642876864e+01 
 2.2266475433145452e+01  2.2557829310758606e+01  2.2852995515215092e+01  2.3152023930305997e+01 
 2.3454965092545173e+01  2.3761870199710081e+01  2.4072791119494287e+01  2.4387780398273261e+01 
 2.4706891269984816e+01  2.5030177665125834e+01  2.5357694219866467e+01  2.5689496285284008e+01 
 2.6025639936717262e+01  2.6366181983243354e+01  2.6711179977278682e+01  2.7060692224305360e+01 
 2.7414777792725015e+01  2.7773496523841459e+01  2.8136909041974043e+01  2.8505076764703283e+01 
 2.8878061913250598e+01  2.9255927522993840e+01  2.9638737454120399e+01  3.0026556402419772e+01 
 3.0419449910217260e+01  3.0817484377450807e+01  3.1220727072892743e+01  3.1629246145518398e+01 
 3.2043110636023258e+01  3.2462390488491309e+01  3.2887156562215544e+01  3.3317480643673413e+01 
 3.3753435458658885e+01  3.4195094684573306e+01  3.4642532962877063e+01  3.5095825911704111e+01 
 3.5555050138641718e+01  3.6020283253677206e+01  3.6491603882314323e+01  3.6969091678861105e+01 
 3.7452827339891613e+01  3.7942892617883942e+01  3.8439370335036429e+01  3.8942344397264954e+01 
 3.9451899808383168e+01  3.9968122684468405e+01  4.0491100268415252e+01  4.1020920944680192e+01 
 4.1557674254218554e+01  4.2101450909617157e+01  4.2652342810425004e+01  4.3210443058684518e+01 
 4.3775845974665984e+01  4.4348647112807924e+01  4.4928943277865997e+01  4.5516832541273260e+01 
 4.6112414257714455e+01  4.6715789081917215e+01  4.7327058985662916e+01  4.7946327275020181e+01 
 4.8573698607803820e+01  4.9209279011262275e+01  4.9853175899996472e+01  5.0505498094113236e+01 
 5.1166355837615811e+01  5.1835860817035801e+01  5.2514126180308232e+01  5.3201266555893838e+01 
 5.3897398072151567e+01  5.4602638376964499e+01  5.5317106657622695e+01  5.6040923660966101e+01 
 5.6774211713791018e+01  5.7517094743523693e+01  5.8269698299164268e+01  5.9032149572504935e+01 
 5.9804577419625559e+01  6.0587112382670796e+01  6.1379886711911887e+01  6.2183034388097369e+01 
 6.2996691145096065e+01  6.3820994492836618e+01  6.4656083740546492e+01  6.5502100020296240e+01 
 6.6359186310850774e+01  6.7227487461833107e+01  6.8107150218204424e+01  6.8998323245064213e+01 
 6.9901157152775113e+01  7.0815804522416357e+01  7.1742419931570325e+01  7.2681159980446651e+01 
 7.3632183318347856e+01  7.4595650670481589e+01  7.5571724865123485e+01  7.6560570861135602e+01 
 7.7562355775844836e+01  7.8577248913286070e+01  7.9605421792815136e+01  8.0647048178095901e+01 
 8.1702304106466443e+01  8.2771367918690316e+01  8.3854420289096339e+01  8.4951644256112843e+01 
 8.6063225253201765e+01  8.7189351140197275e+01  8.8330212235054574e+01  8.9486001346014049e+01 
 9.0656913804186345e+01  9.1843147496563773e+01  9.3044902899463693e+01  9.4262383112409466e+01 
 9.5495793892454870e+01  9.6745343688957291e+01  9.8011243678806451e+01  9.9293707802113516e+01 
 1.0059295279836783e+02  1.0190919824306620e+02  1.0324266658482122e+02  1.0459358318295658e+02 
 1.0596217634559272e+02  1.0734867736823148e+02  1.0875332057284577e+02  1.1017634334748024e+02 
 1.1161798618637079e+02  1.1307849273058844e+02  1.1455810980921531e+02  1.1605708748105936e+02 
 1.1757567907691478e+02 
  </PP_R>
  <PP_RAB>
 4.7892409482325009e-07  4.8519075307942898e-07  4.9153940972767912e-07  4.9797113770608471e-07 
 5.0448702399198192e-07  5.1108816978566227e-07  5.1777569069647512e-07  5.2455071693137220e-07 
 5.3141439348591190e-07  5.3836788033776843e-07  5.4541235264276970e-07  5.5254900093350176e-07 
 5.5977903132051174e-07  5.6710366569614292e-07  5.7452414194103907e-07  5.8204171413334545e-07 
 5.8965765276065619e-07  5.9737324493472576e-07  6.0518979460899538e-07  6.1310862279896419e-07 
 6.2113106780544385e-07  6.2925848544073456e-07  6.3749224925776089e-07  6.4583375078220576e-07 
 6.5428439974767892e-07  6.6284562433396946e-07  6.7151887140840932e-07  6.8030560677039720e-07 
 6.8920731539912210e-07  6.9822550170452972e-07  7.0736168978156952e-07  7.1661742366777191e-07 
 7.2599426760419334e-07  7.3549380629977594e-07  7.4511764519916955e-07  7.5486741075405394e-07 
 7.6474475069801346e-07  7.7475133432500712e-07  7.8488885277148481e-07  7.9515901930219247e-07 
 8.0556356959971812e-07  8.1610426205782494e-07  8.2678287807862626e-07  8.3760122237364627e-07 
 8.4856112326881948e-07  8.5966443301348259e-07  8.7091302809340934e-07  8.8230880954794147e-07 
 8.9385370329126722e-07  9.0554966043790755e-07  9.1739865763245864e-07  9.2940269738364630e-07 
 9.4156380840275974e-07  9.5388404594650672e-07  9.6636549216435483e-07  9.7901025645042185e-07 
 9.9182047579996822e-07  1.0047983151705535e-06  1.0179459678479209e-06  1.0312656558166634e-06 
 1.0447596301357508e-06  1.0584301713189604e-06  1.0722795897202889e-06  1.0863102259244094e-06 
 1.1005244511422344e-06  1.1149246676116570e-06  1.1295133090035351e-06  1.1442928408329854e-06 
 1.1592657608760650e-06  1.1744345995918964e-06  1.1898019205503270e-06  1.2053703208651741e-06 
 1.2211424316331452e-06  1.2371209183784995e-06  1.2533084815035275e-06  1.2697078567449246e-06 
 1.2863218156361409e-06  1.3031531659757685e-06  1.3202047523020765e-06  1.3374794563737392e-06 
 1.3549801976568590e-06  1.3727099338183665e-06  1.3906716612258722e-06  1.4088684154540580e-06 
 1.4273032717976988e-06  1.4459793457913932e-06  1.4648997937360968e-06  1.4840678132325467e-06 
 1.5034866437216566e-06  1.5231595670319991e-06  1.5430899079344370e-06  1.5632810347040188e-06 
 1.5837363596892257e-06  1.6044593398886664e-06  1.6254534775353177e-06  1.6467223206884079e-06 
 1.6682694638330529e-06  1.6900985484877277e-06  1.7122132638196956e-06  1.7346173472684821e-06 
 1.7573145851775139e-06  1.7803088134340199e-06  1.8036039181173031e-06  1.8272038361554998e-06 
 1.8511125559909289e-06  1.8753341182541492e-06  1.8998726164468287e-06  1.9247321976335694e-06 
 1.9499170631427576e-06  1.9754314692766095e-06  2.0012797280304868e-06  2.0274662078216402e-06 
 2.0539953342274834e-06  2.0808715907335165e-06  2.1080995194910596e-06  2.1356837220848771e-06 
 2.1636288603108615e-06  2.1919396569638833e-06  2.2206208966359616e-06  2.2496774265248634e-06 
 2.2791141572532975e-06  2.3089360636988196e-06  2.3391481858345985e-06  2.3697556295811845e-06 
 2.4007635676694148e-06  2.4321772405146316e-06  2.4640019571023112e-06  2.4962430958853054e-06 
 2.5289061056928040e-06  2.5619965066512053e-06  2.5955198911170322e-06  2.6294819246220450e-06 
 2.6638883468307402e-06  2.6987449725103621e-06  2.7340576925136112e-06  2.7698324747742173e-06 
 2.8060753653155291e-06  2.8427924892723104e-06  2.8799900519259006e-06  2.9176743397529206e-06 
 2.9558517214877068e-06  2.9945286491986389e-06  3.0337116593785516e-06  3.0734073740494260e-06 
 3.1136225018815215e-06  3.1543638393271585e-06  3.1956382717693320e-06  3.2374527746853627e-06 
 3.2798144148257694e-06  3.3227303514085545e-06  3.3662078373291477e-06  3.4102542203861485e-06 
 3.4548769445231305e-06  3.5000835510866785e-06  3.5458816801008963e-06  3.5922790715585940e-06 
 3.6392835667293567e-06  3.6869031094847434e-06  3.7351457476408186e-06  3.7840196343182535e-06 
 3.8335330293202243e-06  3.8836943005283256e-06  3.9345119253167862e-06  3.9859944919851434e-06 
 4.0381507012097020e-06  4.0909893675139503e-06  4.1445194207582593e-06  4.1987499076490348e-06 
 4.2536899932676320e-06  4.3093489626192860e-06  4.3657362222022908e-06  4.4228613015977212e-06 
 4.4807338550799597e-06  4.5393636632482866e-06  4.5987606346798278e-06  4.6589348076041252e-06 
 4.7198963515996217e-06  4.7816555693123506e-06  4.8442228981970986e-06  4.9076089122813568e-06 
 4.9718243239523757e-06  5.0368799857675649e-06  5.1027868922886154e-06  5.1695561819395838e-06 
 5.2371991388893436e-06  5.3057271949586177e-06  5.3751519315519834e-06  5.4454850816151621e-06 
 5.5167385316179158e-06  5.5889243235628833e-06  5.6620546570207139e-06  5.7361418911918179e-06 
 5.8111985469951070e-06  5.8872373091840542e-06  5.9642710284904466e-06  6.0423127237961968e-06 
 6.1213755843335615e-06  6.2014729719141401e-06  6.2826184231870776e-06  6.3648256519267748e-06 
 6.4481085513505517e-06  6.5324811964666242e-06  6.6179578464528354e-06  6.7045529470664801e-06 
 6.7922811330856615e-06  6.8811572307826207e-06  6.9711962604294015e-06  7.0624134388363190e-06 
 7.1548241819236251e-06  7.2484441073268479e-06  7.3432890370362102e-06  7.4393750000705691e-06 
 7.5367182351863713e-06  7.6353351936220403e-06  7.7352425418782742e-06  7.8364571645347009e-06 
 7.9389961671034633e-06  8.0428768789200462e-06  8.1481168560719979e-06  8.2547338843659238e-06 
 8.3627459823333741e-06  8.4721714042759820e-06  8.5830286433505010e-06  8.6953364346941827e-06 
 8.8091137585910717e-06  8.9243798436797027e-06  9.0411541702028071e-06  9.1594564732994957e-06 
 9.2793067463405631e-06  9.4007252443074104e-06  9.5237324872151834e-06  9.6483492635806962e-06 
 9.7745966339357719e-06  9.9024959343864557e-06  1.0032068780218952e-05  1.0163337069552599e-05 
 1.0296322987040736e-05  1.0431049007619916e-05  1.0567537900308287e-05  1.0705812732053577e-05 
 1.0845896871631456e-05  1.0987813993594920e-05  1.1131588082275364e-05  1.1277243435835965e-05 
 1.1424804670378158e-05  1.1574296724101784e-05  1.1725744861519730e-05  1.1879174677727677e-05 
 1.2034612102729751e-05  1.2192083405820722e-05  1.2351615200025622e-05  1.2513234446597356e-05 
 1.2676968459573275e-05  1.2842844910391278e-05  1.3010891832566353e-05  1.3181137626428303e-05 
 1.3353611063921510e-05  1.3528341293467400e-05  1.3705357844890647e-05  1.3884690634409767e-05 
 1.4066369969693003e-05  1.4250426554980437e-05  1.4436891496273056e-05  1.4625796306589751e-05 
 1.4817172911293066e-05  1.5011053653484688e-05  1.5207471299471513e-05  1.5406459044303201e-05 
 1.5608050517382243e-05  1.5812279788147390e-05  1.6019181371831488e-05  1.6228790235294632e-05 
 1.6441141802933627e-05  1.6656271962668831e-05  1.6874217072009257e-05  1.7095013964197123e-05 
 1.7318699954432728e-05  1.7545312846180818e-05  1.7774890937559449e-05  1.8007473027812482e-05 
 1.8243098423866752e-05  1.8481806946975001e-05  1.8723638939445762e-05  1.8968635271461367e-05 
 1.9216837347985035e-05  1.9468287115758446e-05  1.9723027070390828e-05  1.9981100263540818e-05 
 2.0242550310192293e-05  2.0507421396025423e-05  2.0775758284884136e-05  2.1047606326341301e-05 
 2.1323011463362949e-05  2.1602020240072748e-05  2.1884679809618008e-05  2.2171037942138762e-05 
 2.2461143032840940e-05  2.2755044110175359e-05  2.3052790844123609e-05  2.3354433554592398e-05 
 2.3660023219917719e-05  2.3969611485480341e-05  2.4283250672434010e-05  2.4600993786547800e-05 
 2.4922894527164279e-05  2.5249007296274731e-05  2.5579387207713342e-05  2.5914090096471461e-05 
 2.6253172528133938e-05  2.6596691808438749e-05  2.6944705992961911e-05  2.7297273896928870e-05 
 2.7654455105154561e-05  2.8016309982113309e-05  2.8382899682140558e-05  2.8754286159768136e-05 
 2.9130532180194692e-05  2.9511701329893183e-05  2.9897858027357140e-05  3.0289067533987535e-05 
 3.0685395965122068e-05  3.1086910301208910e-05  3.1493678399126505e-05  3.1905769003651563e-05 
 3.2323251759077048e-05  3.2746197220982290e-05  3.3174676868156987e-05  3.3608763114681344e-05 
 3.4048529322164222e-05  3.4494049812141315e-05  3.4945399878635838e-05  3.5402655800883261e-05 
 3.5865894856222809e-05  3.6335195333157334e-05  3.6810636544584453e-05  3.7292298841200478e-05 
 3.7780263625079944e-05  3.8274613363432778e-05  3.8775431602541264e-05  3.9282802981879869e-05 
 3.9796813248419267e-05  4.0317549271117935e-05  4.0845099055603075e-05  4.1379551759043895e-05 
 4.1920997705219350e-05  4.2469528399782997e-05  4.3025236545727845e-05  4.3588216059053105e-05 
 4.4158562084636518e-05  4.4736371012313875e-05  4.5321740493169205e-05  4.5914769456038010e-05 
 4.6515558124226486e-05  4.7124208032449467e-05  4.7740822043990123e-05  4.8365504368084023e-05 
 4.8998360577530664e-05  4.9639497626535760e-05  5.0289023868786531e-05  5.0947049075763878e-05 
 5.1613684455293938e-05  5.2289042670342486e-05  5.2973237858055323e-05  5.3666385649047585e-05 
 5.4368603186945790e-05  5.5080009148185059e-05  5.5800723762066129e-05  5.6530868831074118e-05 
 5.7270567751463483e-05  5.8019945534112346e-05  5.8779128825649544e-05  5.9548245929858306e-05 
 6.0327426829359787e-05  6.1116803207580608e-05  6.1916508471007345e-05  6.2726677771732979e-05 
 6.3547448030297574e-05  6.4378957958828378e-05  6.5221348084482371e-05  6.6074760773195761e-05 
 6.6939340253744143e-05  6.7815232642117512e-05  6.8702585966214278e-05  6.9601550190858069e-05 
 7.0512277243142538e-05  7.1434921038107132e-05  7.2369637504749197e-05  7.3316584612376318e-05 
 7.4275922397303465e-05  7.5247812989899651e-05  7.6232420641988226e-05  7.7229911754605872e-05 
 7.8240454906124634e-05  7.9264220880742413e-05  8.0301382697345523e-05  8.1352115638749569e-05 
 8.2416597281322456e-05  8.3495007524995356e-05  8.4587528623666184e-05  8.5694345216000896e-05 
 8.6815644356638062e-05  8.7951615547801002e-05  8.9102450771324891e-05  9.0268344521101599e-05 
 9.1449493835949752e-05  9.2646098332914829e-05  9.3858360241004854e-05  9.5086484435367584e-05 
 9.6330678471914902e-05  9.7591152622400416e-05  9.8868119909955422e-05  1.0016179614509090e-04 
 1.0147239996216962e-04  1.0280015285635612e-04  1.0414527922104962e-04  1.0550800638580736e-04 
 1.0688856465476351e-04  1.0828718734555147e-04  1.0970411082873488e-04  1.1113957456775468e-04 
 1.1259382115939940e-04  1.1406709637480421e-04  1.1555964920098705e-04  1.1707173188292802e-04 
 1.1860359996619928e-04  1.2015551234015284e-04  1.2172773128167363e-04  1.2332052249950493e-04 
 1.2493415517915329e-04  1.2656890202838232e-04  1.2822503932330035e-04  1.2990284695505206e-04 
 1.3160260847712050e-04  1.3332461115324852e-04  1.3506914600598687e-04  1.3683650786587787e-04 
 1.3862699542128249e-04  1.4044091126885882e-04  1.4227856196470258e-04  1.4414025807615505e-04 
 1.4602631423429020e-04  1.4793704918708770e-04  1.4987278585330230e-04  1.5183385137703781e-04 
 1.5382057718303532e-04  1.5583329903268476e-04  1.5787235708076888e-04  1.5993809593295113e-04 
 1.6203086470401422e-04  1.6415101707686146e-04  1.6629891136228986e-04  1.6847491055954608e-04 
 1.7067938241767348e-04  1.7291269949766286e-04  1.7517523923541643e-04  1.7746738400553467e-04 
 1.7978952118593940e-04  1.8214204322334100e-04  1.8452534769956304e-04  1.8693983739873445e-04 
 1.8938592037536121e-04  1.9186401002328819e-04  1.9437452514556395e-04  1.9691789002521971e-04 
 1.9949453449697317e-04  2.0210489401987290e-04  2.0474940975089120e-04  2.0742852861948082e-04 
 2.1014270340310702e-04  2.1289239280376841e-04  2.1567806152551812e-04  2.1850018035300025e-04 
 2.2135922623101381e-04  2.2425568234511663e-04  2.2719003820328594e-04  2.3016278971864587e-04 
 2.3317443929327797e-04  2.3622549590312833e-04  2.3931647518402594e-04  2.4244789951882595e-04 
 2.4562029812569405e-04  2.4883420714754578e-04  2.5209016974265462e-04  2.5538873617644907e-04 
 2.5873046391450716e-04  2.6211591771677030e-04  2.6554566973298885e-04  2.6902029959941670e-04 
 2.7254039453677119e-04  2.7610654944947488e-04  2.7971936702619605e-04  2.8337945784170351e-04 
 2.8708744046005688e-04  2.9084394153914379e-04  2.9464959593658753e-04  2.9850504681703914e-04 
 3.0241094576087361e-04  3.0636795287430907e-04  3.1037673690096571e-04  3.1443797533488549e-04 
 3.1855235453502931e-04  3.2272056984127505e-04  3.2694332569193019e-04  3.3122133574278392e-04 
 3.3555532298771700e-04  3.3994601988088913e-04  3.4439416846052562e-04  3.4890052047432339e-04 
 3.5346583750649852e-04  3.5809089110649489e-04  3.6277646291937919e-04  3.6752334481793996e-04 
 3.7233233903651605e-04  3.7720425830657634e-04  3.8213992599407296e-04  3.8714017623859274e-04 
 3.9220585409432783e-04  3.9733781567289310e-04  4.0253692828800917e-04  4.0780407060208267e-04 
 4.1314013277470122e-04  4.1854601661307198e-04  4.2402263572443054e-04  4.2957091567044138e-04 
 4.3519179412362073e-04  4.4088622102580566e-04  4.4665515874869633e-04  4.5249958225649734e-04 
 4.5842047927069260e-04  4.6441885043696979e-04  4.7049570949433251e-04  4.7665208344642511e-04 
 4.8288901273509820e-04  4.8920755141624618e-04  4.9560876733794462e-04  5.0209374232092056e-04 
 5.0866357234137993e-04  5.1531936771623374e-04  5.2206225329074114e-04  5.2889336862861364e-04 
 5.3581386820460164e-04  5.4282492159960492e-04  5.4992771369833456e-04  5.5712344488956028e-04 
 5.6441333126898061e-04  5.7179860484474307e-04  5.7928051374566054e-04  5.8686032243214460e-04 
 5.9453931190990388e-04  6.0231877994643709e-04  6.1020004129035837e-04  6.1818442789359255e-04 
 6.2627328913647984e-04  6.3446799205582247e-04  6.4276992157591732e-04  6.5118048074261315e-04 
 6.5970109096042686e-04  6.6833319223276542e-04  6.7707824340528877e-04  6.8593772241245968e-04 
 6.9491312652731620e-04  7.0400597261451644e-04  7.1321779738669133e-04  7.2255015766415135e-04 
 7.3200463063799578e-04  7.4158281413666007e-04  7.5128632689595214e-04  7.6111680883262365e-04 
 7.7107592132151981e-04  7.8116534747635444e-04  7.9138679243416195e-04  8.0174198364346813e-04 
 8.1223267115623310e-04  8.2286062792361601e-04  8.3362765009560569e-04  8.4453555732457569e-04 
 8.5558619307281065e-04  8.6678142492405217e-04  8.7812314489912966e-04  8.8961326977571320e-04 
 9.0125374141225513e-04  9.1304652707616628e-04  9.2499361977629228e-04  9.3709703859973475e-04 
 9.4935882905308202e-04  9.6178106340810536e-04  9.7436584105197648e-04  9.8711528884207048e-04 
 1.0000315614654084e-03  1.0131168418028070e-03  1.0263733412977853e-03  1.0398033003303109e-03 
 1.0534089885954247e-03  1.0671927054868265e-03  1.0811567804854772e-03  1.0953035735532879e-03 
 1.1096354755319574e-03  1.1241549085470319e-03  1.1388643264172490e-03  1.1537662150692370e-03 
 1.1688630929576470e-03  1.1841575114907739e-03  1.1996520554617524e-03  1.2153493434853917e-03 
 1.2312520284407289e-03  1.2473627979193718e-03  1.2636843746797073e-03  1.2802195171070553e-03 
 1.2969710196798401e-03  1.3139417134418671e-03  1.3311344664807740e-03  1.3485521844127453e-03 
 1.3661978108735668e-03  1.3840743280161090e-03  1.4021847570143166e-03  1.4205321585737949e-03 
 1.4391196334490764e-03  1.4579503229676545e-03  1.4770274095608771e-03  1.4963541173017836e-03 
 1.5159337124499841e-03  1.5357695040036552e-03  1.5558648442587826e-03  1.5762231293756993e-03 
 1.5968477999530430e-03  1.6177423416092313e-03  1.6389102855715349e-03  1.6603552092728656e-03 
 1.6820807369563686e-03  1.7040905402879330e-03  1.7263883389767062e-03  1.7489779014037367e-03 
 1.7718630452588419e-03  1.7950476381858016e-03  1.8185355984360013e-03  1.8423308955306276e-03 
 1.8664375509315238e-03  1.8908596387208299e-03  1.9156012862895119e-03  1.9406666750348895e-03 
 1.9660600410673227e-03  1.9917856759261096e-03  2.0178479273047700e-03  2.0442511997858189e-03 
 2.0709999555851466e-03  2.0980987153061486e-03  2.1255520587037157e-03  2.1533646254582226e-03 
 2.1815411159596485e-03  2.2100862921019503e-03  2.2390049780878366e-03  2.2683020612440682e-03 
 2.2979824928474283e-03  2.3280512889615004e-03  2.3585135312843941e-03  2.3893743680075651e-03 
 2.4206390146858763e-03  2.4523127551190197e-03  2.4844009422445197e-03  2.5169089990423740e-03 
 2.5498424194515530e-03  2.5832067692984914e-03  2.6170076872377235e-03  2.6512508857048293e-03 
 2.6859421518818536e-03  2.7210873486753473e-03  2.7566924157072193e-03  2.7927633703185399e-03 
 2.8293063085864907e-03  2.8663274063546154e-03  2.9038329202765514e-03  2.9418291888734177e-03 
 2.9803226336050409e-03  3.0193197599551994e-03  3.0588271585310690e-03  3.0988515061770301e-03 
 3.1393995671031016e-03  3.1804781940280870e-03  3.2220943293377094e-03  3.2642550062578868e-03 
 3.3069673500433629e-03  3.3502385791819001e-03  3.3940760066142107e-03  3.4384870409698677e-03 
 3.4834791878193805e-03  3.5290600509426530e-03  3.5752373336140385e-03  3.6220188399042163e-03 
 3.6694124759990925e-03  3.7174262515359689e-03  3.7660682809571885e-03  3.8153467848814982e-03 
 3.8652700914933529e-03  3.9158466379503806e-03  3.9670849718093154e-03  4.0189937524705314e-03 
 4.0715817526415093e-03  4.1248578598194431e-03  4.1788310777932467e-03  4.2335105281652201e-03 
 4.2889054518926162e-03  4.3450252108493915e-03  4.4018792894083836e-03  4.4594772960441830e-03 
 4.5178289649570012e-03  4.5769441577177663e-03  4.6368328649347571e-03  4.6975052079420319e-03 
 4.7589714405099652e-03  4.8212419505781583e-03  4.8843272620110291e-03  4.9482380363763418e-03 
 5.0129850747470889e-03  5.0785793195268561e-03  5.1450318562991362e-03  5.2123539157008011e-03 
 5.2805568753201276e-03  5.3496522616196199e-03  5.4196517518840144e-03  5.4905671761937731e-03 
 5.5624105194243918e-03  5.6351939232718662e-03  5.7089296883046795e-03  5.7836302760426216e-03 
 5.8593083110628167e-03  5.9359765831332994e-03  6.0136480493745313e-03  6.0923358364491720e-03 
 6.1720532427805321e-03  6.2528137407999946e-03  6.3346309792239545e-03  6.4175187853604378e-03 
 6.5014911674459606e-03  6.5865623170129634e-03  6.6727466112881939e-03  6.7600586156225159e-03 
 6.8485130859524687e-03  6.9381249712940742e-03  7.0289094162692351e-03  7.1208817636652308e-03 
 7.2140575570276743e-03  7.3084525432874107e-03  7.4040826754217847e-03  7.5009641151507385e-03 
 7.5991132356681753e-03  7.6985466244090623e-03  7.7992810858527719e-03  7.9013336443630247e-03 
 8.0047215470651113e-03  8.1094622667606635e-03  8.2155735048806047e-03  8.3230731944767284e-03 
 8.4319795032524389e-03  8.5423108366331248e-03  8.6540858408767300e-03  8.7673234062250020e-03 
 8.8820426700960062e-03  8.9982630203183766e-03  9.1160040984079177e-03  9.2352858028870617e-03 
 9.3561282926477654e-03  9.4785519903584185e-03  9.6025775859153121e-03  9.7282260399392910e-03 
 9.8555185873181548e-03  9.9844767407953443e-03  1.0115122294605748e-02  1.0247477328158913e-02 
 1.0381564209770525e-02  1.0517405600442712e-02  1.0655024457693819e-02  1.0794444039438262e-02 
 1.0935687907917192e-02  1.1078779933680560e-02  1.1223744299621282e-02  1.1370605505062237e-02 
 1.1519388369896690e-02  1.1670118038782916e-02  1.1822819985393711e-02  1.1977520016721484e-02 
 1.2134244277439742e-02  1.2293019254321564e-02  1.2453871780715962e-02  1.2616829041082703e-02 
 1.2781918575586654e-02  1.2949168284752087e-02  1.3118606434177916e-02  1.3290261659314668e-02 
 1.3464162970303955e-02  1.3640339756881236e-02  1.3818821793342758e-02  1.3999639243577488e-02 
 1.4182822666164874e-02  1.4368403019539336e-02  1.4556411667222290e-02  1.4746880383122673e-02 
 1.4939841356906800e-02  1.5135327199438517e-02  1.5333370948290478e-02  1.5534006073327611e-02 
 1.5737266482363597e-02  1.5943186526891296e-02  1.6151801007888360e-02  1.6363145181698614e-02 
 1.6577254765990437e-02  1.6794165945793183e-02  1.7013915379612509e-02  1.7236540205625754e-02 
 1.7462078047958383e-02  1.7690567023042551e-02  1.7922045746058875e-02  1.8156553337462487e-02 
 1.8394129429594484e-02  1.8634814173379883e-02  1.8878648245113254e-02  1.9125672853333046e-02 
 1.9375929745786013e-02  1.9629461216482600e-02  1.9886310112844828e-02  2.0146519842947429e-02 
 2.0410134382854161e-02  2.0677198284049687e-02  2.0947756680968953e-02  2.1221855298624980e-02 
 2.1499540460336551e-02  2.1780859095556899e-02  2.2065858747804954e-02  2.2354587582700262e-02 
 2.2647094396103132e-02  2.2943428622361213e-02  2.3243640342664053e-02  2.3547780293506928e-02 
 2.3855899875265388e-02  2.4168051160882126e-02  2.4484286904667342e-02  2.4804660551214431e-02 
 2.5129226244432198e-02  2.5458038836695229e-02  2.5791153898114250e-02  2.6128627725927500e-02 
 2.6470517354015094e-02  2.6816880562537903e-02  2.7167775887702552e-02  2.7523262631654163e-02 
 2.7883400872498545e-02  2.8248251474455564e-02  2.8617876098145353e-02  2.8992337211009037e-02 
 2.9371698097865943e-02  2.9756022871608875e-02  3.0145376484039324e-02  3.0539824736844488e-02 
 3.0939434292717907e-02  3.1344272686625652e-02  3.1754408337219889e-02  3.2169910558401620e-02 
 3.2590849571035231e-02  3.3017296514815719e-02  3.3449323460291565e-02  3.3887003421044837e-02 
 3.4330410366030593e-02  3.4779619232077917e-02  3.5234705936554332e-02  3.5695747390196014e-02 
 3.6162821510105983e-02  3.6636007232922173e-02  3.7115384528157963e-02  3.7601034411717221e-02 
 3.8093038959586156e-02  3.8591481321704375e-02  3.9096445736017428e-02  3.9608017542713182e-02 
 4.0126283198644648e-02  4.0651330291941054e-02  4.1183247556810881e-02  4.1722124888537944e-02 
 4.2268053358673854e-02  4.2821125230429420e-02  4.3381433974267365e-02  4.3949074283698965e-02 
 4.4524142091287570e-02  4.5106734584861363e-02  4.5696950223938382e-02  4.6294888756366399e-02 
 4.6900651235180571e-02  4.7514340035681578e-02  4.8136058872737336e-02  4.8765912818311066e-02 
 4.9404008319218679e-02  5.0050453215118557e-02  5.0705356756736805e-02  5.1368829624330502e-02 
 5.2040983946393497e-02  5.2721933318606022e-02  5.3411792823032662e-02  5.4110679047571650e-02 
 5.4818710105658336e-02  5.5536005656226690e-02  5.6262686923932020e-02  5.6998876719638131e-02 
 5.7744699461172715e-02  5.8500281194354187e-02  5.9265749614293851e-02  6.0041234086976543e-02 
 6.0826865671123886e-02  6.1622777140343449e-02  6.2429103005567907e-02  6.3245979537787642e-02 
 6.4073544791080891e-02  6.4911938625944979e-02  6.5761302732933527e-02  6.6621780656602222e-02 
 6.7493517819768145e-02  6.8376661548086734e-02  6.9271361094949982e-02  7.0177767666710855e-02 
 7.1096034448237269e-02  7.2026316628800852e-02  7.2968771428304324e-02  7.3923558123851901e-02 
 7.4890838076667660e-02  7.5870774759365781e-02  7.6863533783578034e-02  7.7869282927942360e-02 
 7.8888192166457941e-02  7.9920433697211177e-02  8.0966181971477730e-02  8.2025613723204660e-02 
 8.3098907998879742e-02  8.4186246187790054e-02  8.5287812052677520e-02  8.6403791760795129e-02 
 8.7534373915369681e-02  8.8679749587476250e-02  8.9840112348329448e-02  9.1015658301997676e-02 
 9.2206586118545014e-02  9.3413097067607004e-02  9.4635395052405605e-02  9.5873686644209477e-02 
 9.7128181117244833e-02  9.8399090484063506e-02  9.9686629531373305e-02  1.0099101585633777e-01 
 1.0231246990335051e-01  1.0365121500129031e-01  1.0500747740126523e-01  1.0638148631484894e-01 
 1.0777347395281807e-01  1.0918367556439652e-01  1.1061232947701309e-01  1.1205967713657929e-01 
 1.1352596314829445e-01  1.1501143531798447e-01  1.1651634469398159e-01  1.1804094560955210e-01 
 1.1958549572587955e-01  1.2115025607560967e-01  1.2273549110696591e-01  1.2434146872844161e-01 
 1.2596846035407711e-01  1.2761674094932959e-01  1.2928658907754290e-01  1.3097828694702468e-01 
 1.3269212045874151e-01  1.3442837925463594e-01  1.3618735676657695e-01  1.3796935026595059e-01 
 1.3977466091389959e-01  1.4160359381222029e-01  1.4345645805492543e-01  1.4533356678048215e-01 
 1.4723523722473275e-01  1.4916179077450836e-01  1.5111355302194443e-01  1.5309085381950605e-01 
 1.5509402733573419e-01  1.5712341211172087e-01  1.5917935111832335e-01  1.6126219181412710e-01 
 1.6337228620416727e-01  1.6550999089941759e-01  1.6767566717705970e-01  1.6986968104153899e-01 
 1.7209240328642061e-01  1.7434420955705418e-01  1.7662548041405904e-01  1.7893660139763951e-01 
 1.8127796309274266e-01  1.8364996119506755e-01  1.8605299657793908e-01  1.8848747536005642e-01 
 1.9095380897412806e-01  1.9345241423640483e-01  1.9598371341712303e-01  1.9854813431186893e-01 
 2.0114611031387730e-01  2.0377808048727589e-01  2.0644448964128873e-01  2.0914578840540848e-01 
 2.1188243330555595e-01  2.1465488684123274e-01  2.1746361756368507e-01  2.2030910015509017e-01 
 2.2319181550877840e-01  2.2611225081050568e-01  2.2907089962078911e-01  2.3206826195831926e-01 
 2.3510484438446530e-01  2.3818116008888454e-01  2.4129772897625304e-01  2.4445507775413050e-01 
 2.4765374002197507e-01  2.5089425636132329e-01  2.5417717442714916e-01  2.5750304904041937e-01 
 2.6087244228186018e-01  2.6428592358694775e-01  2.6774406984214755e-01  2.7124746548240758e-01 
 2.7479670258992928e-01  2.7839238099423130e-01  2.8203510837352230e-01  2.8572550035739919e-01 
 2.8946418063089085e-01  2.9325178103986188e-01  2.9708894169779620e-01  3.0097631109397793e-01 
 3.0491454620308722e-01  3.0890431259623102e-01  3.1294628455342571e-01  3.1704114517755239e-01 
 3.2118958650980256e-01  3.2539230964663585e-01  3.2965002485826406e-01  3.3396345170869207e-01 
 3.3833331917732440e-01  3.4276036578216357e-01  3.4724533970462285e-01  3.5178899891596965e-01 
 3.5639211130542520e-01  3.6105545480993895e-01  3.6577981754566252e-01  3.7056599794114264e-01 
 3.7541480487225776e-01  3.8032705779891990e-01  3.8530358690356514e-01  3.9034523323145703e-01 
 3.9545284883282439e-01  4.0062729690686050e-01  4.0586945194760565e-01  4.1118019989173915e-01 
 4.1656043826830230e-01  4.2201107635038698e-01  4.2753303530880205e-01  4.3312724836775435e-01 
 4.3879466096256547e-01  4.4453623089945293e-01  4.5035292851740177e-01  4.5624573685215342e-01 
 4.6221565180234231e-01  4.6826368229780369e-01  4.7439085047008617e-01  4.8059819182519437e-01 
 4.8688675541859094e-01  4.9325760403249125e-01  4.9971181435547357e-01  5.0625047716444438e-01 
 5.1287469750898118e-01  5.1958559489808920e-01  5.2638430348939824e-01  5.3327197228084244e-01 
 5.4024976530484115e-01  5.4731886182502298e-01  5.5448045653552502e-01  5.6173575976289869e-01 
 5.6908599767065782e-01  5.7653241246650300e-01  5.8407626261225798e-01  5.9171882303655232e-01 
 5.9946138535028792e-01  6.0730525806492375e-01  6.1525176681361793e-01  6.2330225457526234e-01 
 6.3145808190144959e-01  6.3972062714640954e-01  6.4809128669995408e-01  6.5657147522347203e-01 
 6.6516262588900554e-01  6.7386619062146536e-01  6.8268364034400697e-01  6.9161646522661990e-01 
 7.0066617493797034e-01  7.0983429890053851e-01  7.1912238654909499e-01  7.2853200759255932e-01 
 7.3806475227928325e-01  7.4772223166580798e-01  7.5750607788913549e-01  7.6741794444256406e-01 
 7.7745950645513229e-01  7.8763246097472028e-01  7.9793852725485448e-01  8.0837944704526576e-01 
 8.1895698488624880e-01  8.2967292840687601e-01  8.4052908862710440e-01  8.5152730026385104e-01 
 8.6266942204106001e-01  8.7395733700383038e-01  8.8539295283665742e-01  8.9697820218583468e-01 
 9.0871504298607642e-01  9.2060545879141265e-01  9.3265145911041414e-01  9.4485507974580640e-01 
 9.5721838313852203e-01  9.6974345871626066e-01  9.8243242324660529e-01  9.9528742119476277e-01 
 1.0083106250859828e+00  1.0215042358727189e+00  1.0348704833065967e+00  1.0484116263152468e+00 
 1.0621299533840638e+00  1.0760277829429741e+00  1.0901074637582524e+00  1.1043713753294668e+00 
 1.1188219282916230e+00  1.1334615648225645e+00  1.1482927590557095e+00  1.1633180174981825e+00 
 1.1785398794544224e+00  1.1939609174553290e+00  1.2095837376930278e+00  1.2254109804613229e+00 
 1.2414453206019131e+00  1.2576894679564448e+00  1.2741461678244839e+00  1.2908182014274756e+00 
 1.3077083863787817e+00  1.3248195771598605e+00  1.3421546656026759e+00  1.3597165813784355e+00 
 1.3775082924927053e+00  1.3955328057870091e+00  1.4137931674469948e+00  1.4322924635172432e+00 
 1.4510338204228201e+00  1.4700204054976496e+00  1.4892554275197989e+00  1.5087421372537715e+00 
 1.5284838279998920e+00 
  </PP_RAB>
</PP_MESH>


<PP_LOCAL>
-4.9748447818434389e+00 -4.9748447806217264e+00 -4.9748447793712609e+00 -4.9748447773813211e+00 
-4.9748447753334712e+00 -4.9748447732264758e+00 -4.9748447710587849e+00 -4.9748447688274569e+00 
-4.9748447665299080e+00 -4.9748447641650415e+00 -4.9748447617305391e+00 -4.9748447592233154e+00 
-4.9748447566409535e+00 -4.9748447539813174e+00 -4.9748447512408935e+00 -4.9748447484177074e+00 
-4.9748447455094826e+00 -4.9748447425115963e+00 -4.9748447394211883e+00 -4.9748447362358741e+00 
-4.9748447329513059e+00 -4.9748447295637739e+00 -4.9748447260707866e+00 -4.9748447224676458e+00 
-4.9748447187492388e+00 -4.9748447149122637e+00 -4.9748447109529961e+00 -4.9748447068658486e+00 
-4.9748447026454272e+00 -4.9748446982870336e+00 -4.9748446937859843e+00 -4.9748446891361997e+00 
-4.9748446843308347e+00 -4.9748446793647849e+00 -4.9748446742316599e+00 -4.9748446689239580e+00 
-4.9748446634349950e+00 -4.9748446577571572e+00 -4.9748446518820746e+00 -4.9748446458019888e+00 
-4.9748446395083548e+00 -4.9748446329913927e+00 -4.9748446262417465e+00 -4.9748446192493834e+00 
-4.9748446120035119e+00 -4.9748446044925139e+00 -4.9748445967041928e+00 -4.9748445886268255e+00 
-4.9748445802471313e+00 -4.9748445715501513e+00 -4.9748445625215147e+00 -4.9748445531457541e+00 
-4.9748445434058555e+00 -4.9748445332847835e+00 -4.9748445227633065e+00 -4.9748445118212947e+00 
-4.9748445004395947e+00 -4.9748444885945844e+00 -4.9748444762622164e+00 -4.9748444634188482e+00 
-4.9748444500371605e+00 -4.9748444360884569e+00 -4.9748444215432546e+00 -4.9748444063697681e+00 
-4.9748443905327289e+00 -4.9748443739967252e+00 -4.9748443567229721e+00 -4.9748443386684942e+00 
-4.9748443197905674e+00 -4.9748443000419105e+00 -4.9748442793714380e+00 -4.9748442577255236e+00 
-4.9748442350453983e+00 -4.9748442112700202e+00 -4.9748441863331001e+00 -4.9748441601627551e+00 
-4.9748441326824837e+00 -4.9748441038105682e+00 -4.9748440734589661e+00 -4.9748440415321049e+00 
-4.9748440079293799e+00 -4.9748439725404205e+00 -4.9748439352459588e+00 -4.9748438959200740e+00 
-4.9748438544249085e+00 -4.9748438106111434e+00 -4.9748437643199637e+00 -4.9748437153787917e+00 
-4.9748436635985405e+00 -4.9748436087776682e+00 -4.9748435506979352e+00 -4.9748434891208397e+00 
-4.9748434237893751e+00 -4.9748433544236645e+00 -4.9748432807211200e+00 -4.9748432023541724e+00 
-4.9748431189620179e+00 -4.9748430301555624e+00 -4.9748429355139940e+00 -4.9748428345727467e+00 
-4.9748427268304019e+00 -4.9748426117398932e+00 -4.9748424887003484e+00 -4.9748423570594671e+00 
-4.9748422161031201e+00 -4.9748420650484384e+00 -4.9748419030416828e+00 -4.9748417291503815e+00 
-4.9748415423472814e+00 -4.9748413415051145e+00 -4.9748411253924063e+00 -4.9748408926562062e+00 
-4.9748406418071900e+00 -4.9748403712067297e+00 -4.9748400790564009e+00 -4.9748397633780925e+00 
-4.9748394219843428e+00 -4.9748390524683233e+00 -4.9748386521723793e+00 -4.9748382181607562e+00 
-4.9748377472015832e+00 -4.9748372357133475e+00 -4.9748366797284573e+00 -4.9748360748584668e+00 
-4.9748354162428274e+00 -4.9748346984992198e+00 -4.9748339156533818e+00 -4.9748330610572040e+00 
-4.9748321273396083e+00 -4.9748311063141166e+00 -4.9748299888570129e+00 -4.9748287648185405e+00 
-4.9748274228869871e+00 -4.9748259504599570e+00 -4.9748243334765618e+00 -4.9748225562325548e+00 
-4.9748206011926523e+00 -4.9748184487525995e+00 -4.9748160769818641e+00 -4.9748134613277442e+00 
-4.9748105743099647e+00 -4.9748073850930892e+00 -4.9748038590936421e+00 -4.9747999575358817e+00 
-4.9747956368282145e+00 -4.9747908479678911e+00 -4.9747855358957782e+00 -4.9747796386243861e+00 
-4.9747730863123314e+00 -4.9747658003337722e+00 -4.9747576920128784e+00 -4.9747486612419474e+00 
-4.9747385950868406e+00 -4.9747273659544362e+00 -4.9747148296021768e+00 -4.9747008229564376e+00 
-4.9746851613968825e+00 -4.9746676359087409e+00 -4.9746480097841976e+00 -4.9746260146056871e+00 
-4.9746013459131779e+00 -4.9745736583655953e+00 -4.9745425598408950e+00 -4.9745076048050372e+00 
-4.9744682870799570e+00 -4.9744240310832355e+00 -4.9743741820058789e+00 -4.9743179950311660e+00 
-4.9742546219064083e+00 -4.9741830964142881e+00 -4.9741023181931645e+00 -4.9740110326452722e+00 
-4.9739078096964935e+00 -4.9737910186343228e+00 -4.9736587985409875e+00 -4.9735090267343907e+00 
-4.9733392804214773e+00 -4.9731467936742630e+00 -4.9729284091409616e+00 -4.9726805221329764e+00 
-4.9723990158791915e+00 -4.9720791892066813e+00 -4.9717156749769309e+00 -4.9713023434013728e+00 
-4.9708321963498712e+00 -4.9702972460578048e+00 -4.9696883747709588e+00 -4.9689951792480205e+00 
-4.9682057933905748e+00 -4.9673066863998612e+00 -4.9662824398664354e+00 -4.9651154930066141e+00 
-4.9637858530088161e+00 -4.9622707786903089e+00 -4.9605444289781193e+00 -4.9585774600978745e+00 
-4.9563365830215345e+00 -4.9537840903830839e+00 -4.9508773181831520e+00 -4.9475680661001427e+00 
-4.9438019679919760e+00 -4.9395178138006273e+00 -4.9346468498999929e+00 -4.9291119922381155e+00 
-4.9228270502595519e+00 -4.9156959604482076e+00 -4.9076119463184336e+00 -4.8984567552060918e+00 
-4.8880999859920324e+00 -4.8763984835788587e+00 -4.8631958716656030e+00 -4.8483223381574243e+00 
-4.8315947625682387e+00 -4.8128171641084325e+00 -4.7917816766372585e+00 -4.7682702399146430e+00 
-4.7420570087434504e+00 -4.7129116507153785e+00 -4.6806038920758839e+00 -4.6449093859151533e+00 
-4.6056168350364848e+00 -4.5625368963756090e+00 -4.5155129791371920e+00 -4.4644336906106901e+00 
-4.4092471370073607e+00 -4.3499769808296849e+00 -4.2867399797346435e+00 -4.2197645191461159e+00 
-4.1494092645182317e+00 -4.0761813244681679e+00 -4.0007525097688932e+00 -3.9239718509389205e+00 
-3.8468729855131989e+00 -3.7706741044099767e+00 -3.6967677936357668e+00 -3.6266989864268373e+00 
-3.5621288796173443e+00 -3.5047826029289952e+00 -3.4563802748076613e+00 -3.4185515709605290e+00 
-3.3927353957255928e+00 -3.3800685464136135e+00 -3.3812688944601872e+00 -3.3965213288063412e+00 
-3.4253762037885696e+00 -3.4666722458506740e+00 -3.5184965993720390e+00 -3.5781936593189521e+00 
-3.6424333775909852e+00 -3.7073459893236174e+00 -3.7687240612213166e+00 -3.8222864435784558e+00 
-3.8639907557584166e+00 -3.8903722154260163e+00 -3.8989200267998489e+00 -3.8991788272026437e+00 
-3.8994444238184247e+00 -3.8997170089585205e+00 -3.8999967335251791e+00 -3.9002837879325529e+00 
-3.9005783838231456e+00 -3.9008807090967532e+00 -3.9011909507679370e+00 -3.9015093329032302e+00 
-3.9018360649498804e+00 -3.9021713621506748e+00 -3.9025154567900846e+00 -3.9028685603426072e+00 
-3.9032309128924840e+00 -3.9036027703473319e+00 -3.9039843696393857e+00 -3.9043759535861229e+00 
-3.9047778076069495e+00 -3.9051901940722922e+00 -3.9056133556104911e+00 -3.9060476027341866e+00 
-3.9064932290213741e+00 -3.9069504986256378e+00 -3.9074197413521428e+00 -3.9079012721250970e+00 
-3.9083953866314034e+00 -3.9089024258360476e+00 -3.9094227248201547e+00 -3.9099566195093174e+00 
-3.9105044744066229e+00 -3.9110666508584226e+00 -3.9116435095311255e+00 -3.9122354369177255e+00 
-3.9128428236523827e+00 -3.9134660681305400e+00 -3.9141055832811151e+00 -3.9147617898859224e+00 
-3.9154351088173360e+00 -3.9161259912293649e+00 -3.9168349026892675e+00 -3.9175622890310087e+00 
-3.9183086339301760e+00 -3.9190744242643358e+00 -3.9198601607871053e+00 -3.9206663649542768e+00 
-3.9214935517339953e+00 -3.9223422681135358e+00 -3.9232130689027840e+00 -3.9241065137867639e+00 
-3.9250231845955206e+00 -3.9259636880982196e+00 -3.9269286254134421e+00 -3.9279186172438312e+00 
-3.9289343180422636e+00 -3.9299763792049949e+00 -3.9310454730483042e+00 -3.9321422888478015e+00 
-3.9332675342169678e+00 -3.9344219378274659e+00 -3.9356062393900966e+00 -3.9368211972697047e+00 
-3.9380675927819144e+00 -3.9393462260687855e+00 -3.9406579085901510e+00 -3.9420034816488827e+00 
-3.9433838103423708e+00 -3.9447997646762749e+00 -3.9462522412165155e+00 -3.9477421687963905e+00 
-3.9492704917907013e+00 -3.9508381717424612e+00 -3.9524462004611536e+00 -3.9540955946471557e+00 
-3.9557873865937396e+00 -3.9575226365165062e+00 -3.9593024347432864e+00 -3.9611278935800507e+00 
-3.9630001529234198e+00 -3.9649203775471236e+00 -3.9668897559941079e+00 -3.9689095116469097e+00 
-3.9709808934431812e+00 -3.9731051771408894e+00 -3.9752836725021612e+00 -3.9775177125020558e+00 
-3.9798086632945715e+00 -3.9821579270543475e+00 -3.9845669328489559e+00 -3.9870371410699916e+00 
-3.9895700455411154e+00 -3.9921671750407866e+00 -3.9948300925796141e+00 -3.9975603933658044e+00 
-4.0003597091565499e+00 -4.0032297072049445e+00 -4.0061720886235355e+00 -4.0091885958415467e+00 
-4.0122810066242351e+00 -4.0154511317240251e+00 -4.0187008272087938e+00 -4.0220319868960459e+00 
-4.0254465402748814e+00 -4.0289464595870363e+00 -4.0325337575567719e+00 -4.0362104884226673e+00 
-4.0399787457319469e+00 -4.0438406660994026e+00 -4.0477984302760701e+00 -4.0518542593663804e+00 
-4.0560104192861548e+00 -4.0602692198002144e+00 -4.0646330132229087e+00 -4.0691041976712814e+00 
-4.0736852160333470e+00 -4.0783785558242336e+00 -4.0831867495446472e+00 -4.0881123753443802e+00 
-4.0931580579733069e+00 -4.0983264672728543e+00 -4.1036203187354259e+00 -4.1090423752903167e+00 
-4.1145954447982680e+00 -4.1202823799540962e+00 -4.1261060819167792e+00 -4.1320694965024378e+00 
-4.1381756138553181e+00 -4.1444274712110198e+00 -4.1508281499147062e+00 -4.1573807751909442e+00 
-4.1640885169060304e+00 -4.1709545881213392e+00 -4.1779822445975272e+00 -4.1851747838045128e+00 
-4.1925355445247696e+00 -4.2000679054139862e+00 -4.2077752839018423e+00 -4.2156611356987979e+00 
-4.2237289528986919e+00 -4.2319822625717229e+00 -4.2404246251362627e+00 -4.2490596333527790e+00 
-4.2578909099024083e+00 -4.2669221049898578e+00 -4.2761568953401747e+00 -4.2855989816737656e+00 
-4.2952520854302101e+00 -4.3051199464129812e+00 -4.3152063209063618e+00 -4.3255149783009896e+00 
-4.3360496971963256e+00 -4.3468142628867428e+00 -4.3578124637143212e+00 -4.3690480869804436e+00 
-4.3805249154372978e+00 -4.3922467227996025e+00 -4.4042172692975292e+00 -4.4164402974260586e+00 
-4.4289195267950454e+00 -4.4416586490471346e+00 -4.4546613226619654e+00 -4.4679311671294464e+00 
-4.4814717573075766e+00 -4.4952866172688148e+00 -4.5093792138056124e+00 -4.5237529499183475e+00 
-4.5384111578586843e+00 -4.5533570918839947e+00 -4.5685939209809030e+00 -4.5841247208756624e+00 
-4.5999524660945230e+00 -4.6160800219389166e+00 -4.6325101355213887e+00 -4.6492454271707642e+00 
-4.6662883813378535e+00 -4.6836413368504717e+00 -4.7013064777858116e+00 -3.1992858234092281e+00 
-3.2175812176939687e+00 -3.2361943193369864e+00 -3.2551265909607023e+00 -3.2743792879791109e+00 
-3.2939534481709645e+00 -3.3138498800110332e+00 -3.3340691509756666e+00 -3.3546115763428674e+00 
-3.3754772072229766e+00 -3.3966658188334504e+00 -3.4181768982789444e+00 -3.4400096324682186e+00 
-3.4621628959939263e+00 -3.4846352390305428e+00 -3.5074248749857229e+00 -3.5305296682087177e+00 
-3.5539471223057602e+00 -3.5776743674837981e+00 -3.6017081487969551e+00 -3.6260448148699127e+00 
-3.6506803055761630e+00 -3.6756101410384128e+00 -3.7008294103821298e+00 -3.7263327611405250e+00 
-3.7521143888635589e+00 -3.7781680267200195e+00 -3.8044869366138321e+00 -3.8310638994171584e+00 
-3.8578912065778264e+00 -3.8849606526542719e+00 -3.9122635276743472e+00 -3.9397906105854115e+00 
-3.9675321632667480e+00 -3.9954779254424926e+00 -4.0236171110056000e+00 -4.0519384043827298e+00 
-4.0804299574729690e+00 -4.1090793890084267e+00 -4.1378737844114930e+00 -4.1667996957353557e+00 
-4.1958431436679353e+00 -4.2249896212664000e+00 -4.2542240970741778e+00 -4.2835310209934647e+00 
-4.3128943317572039e+00 -4.3422974636412608e+00 -4.3717233567935443e+00 -4.4011544680543082e+00 
-4.4305727818923959e+00 -4.4599598251985171e+00 -4.4892966822687184e+00 -4.5185640102173679e+00 
-4.5477420576824805e+00 -4.5768106842028180e+00 -4.6057493802648750e+00 -4.6345372899767954e+00 
-4.6631532352348390e+00 -4.6915757401166500e+00 -4.7197830574846105e+00 -4.7477531973083069e+00 
-4.7754639555723735e+00 -4.8028929452275859e+00 -4.8300176279635245e+00 -4.8568153470789461e+00 
-4.8832633626093500e+00 -4.9093388866422627e+00 -4.9350191196746094e+00 -4.9602812890147341e+00 
-4.9851026871417981e+00 -5.0094607118642669e+00 -5.0333329070914363e+00 -5.0566970035391146e+00 
-5.0795309618267162e+00 -5.1018130152704968e+00 -5.1235217128328463e+00 -5.1446359636749817e+00 
-5.1651350814914236e+00 -5.1849988290198068e+00 -5.2042074631587640e+00 -5.2227417801596445e+00 
-5.2405831605723776e+00 -5.2577136142688365e+00 -5.2741158255374021e+00 -5.2897731973485902e+00 
-5.3046698953627764e+00 -5.3187908916768807e+00 -5.3321220077218925e+00 -5.3446499558663545e+00 
-5.3563623805848311e+00 -5.3672478986206382e+00 -5.3772961371514549e+00 -5.3864977714074804e+00 
-5.3948445601567467e+00 -5.4023293792948346e+00 -5.4089462542007736e+00 -5.4146903895230949e+00 
-5.4195581968049806e+00 -5.4235473196063140e+00 -5.4266566562753127e+00 -5.4288863798435107e+00 
-5.4302379549035971e+00 -5.4307141516337136e+00 -5.4303190562506662e+00 -5.4290580784735569e+00 
-5.4269379552186621e+00 -5.4239667503853806e+00 -5.4201538514776724e+00 -5.4155099619912379e+00 
-5.4100470895924531e+00 -5.4037785307264175e+00 -5.3967188509811912e+00 -5.3888838611063550e+00 
-5.3802905892426773e+00 -5.3709572489706163e+00 -5.3609032031406230e+00 -5.3501489239885096e+00 
-5.3387159493276792e+00 -5.3266268349027905e+00 -5.3139051032857134e+00 -5.3005751893812425e+00 
-5.2866623828382133e+00 -5.2721927675313935e+00 -5.2571931583648066e+00 -5.2416910358285724e+00 
-5.2257144785283565e+00 -5.2092920941248435e+00 -5.1924529489342985e+00 -5.1752264965647798e+00 
-5.1576425061383517e+00 -5.1397309903724047e+00 -5.1215221338829675e+00 -5.1030462222627886e+00 
-5.0843335722404968e+00 -5.0654144632588798e+00 -5.0463190710707559e+00 -5.0270774035516501e+00 
-5.0077192390996563e+00 -4.9882740680948752e+00 -4.9687710376135312e+00 -4.9492388997073649e+00 
-4.9297059636071880e+00 -4.9102000520278413e+00 -4.8907484617272612e+00 -4.8713779285966421e+00 
-4.8521145974023874e+00 -4.8329839962447991e+00 -4.8140110158306912e+00 -4.7952198936305672e+00 
-4.7766342029225495e+00 -4.7582768466609044e+00 -4.7401700561482336e+00 -4.7223353944517665e+00 
-4.7047937644226447e+00 -4.6875654211968838e+00 -4.6706699890146570e+00 -4.6541264821877366e+00 
-4.6379533300428477e+00 -4.6221684055878045e+00 -4.6067890576930592e+00 -4.5918321465768006e+00 
-4.5773140823298046e+00 -4.5632508662180413e+00 -4.5496581345356315e+00 -4.5365512047483323e+00 
-4.5239451236533794e+00 -4.5118547173270391e+00 -4.5002946425936630e+00 -4.4892794397710363e+00 
-4.4788235864653689e+00 -4.4689415521730389e+00 -4.4596478534696704e+00 -4.4509571095609530e+00 
-4.4428840980006559e+00 -4.4354438103710274e+00 -4.4286515077327850e+00 -4.4225227756745422e+00 
-4.4170735787744277e+00 -4.4123203143249299e+00 -4.4082798651604103e+00 -4.4049696514309904e+00 
-4.4024076811912032e+00 -4.4006125996583432e+00 -4.3996037370107075e+00 -4.3994011545963678e+00 
-4.4000256894195875e+00 -4.4014989967854028e+00 -4.4038435909729730e+00 -4.4070828838032323e+00 
-4.4112412209802265e+00 -4.4163439160635276e+00 -4.4224172819299881e+00 -4.4294886595849938e+00 
-4.4375864441611430e+00 -4.4467401079427544e+00 -4.4569802202427553e+00 -4.4683384639420813e+00 
-4.4808476484961375e+00 -4.4945417191959693e+00 -4.5094557624533049e+00 -4.5256260068703549e+00 
-4.5430898198337806e+00 -4.5618856993571404e+00 -4.5820532608780553e+00 -4.6036332186975146e+00 
-4.6266673617370131e+00 -4.6511985232596009e+00 -4.6772705441952578e+00 -4.7049282296898989e+00 
-4.7342172984751318e+00 -4.7651843246543786e+00 -4.7978766714775496e+00 -4.8323424166668456e+00 
-4.8686302688559975e+00 -4.9067894746934950e+00 -4.9468697161587416e+00 -4.9889209976516486e+00 
-5.0329935224189999e+00 -5.0791375578962468e+00 -5.1274032895716024e+00 -5.1778406630011231e+00 
-5.2304992136481516e+00 -5.2854278842710407e+00 -5.3426748296354907e+00 -5.4022872084034113e+00 
-5.4643109621393009e+00 -5.5287905814643938e+00 -5.5957688595046422e+00 -5.6652866329143601e+00 
-5.7373825108929797e+00 -5.8120925927800942e+00 -5.8894501749933337e+00 -5.9694854482676964e+00 
-6.0522251863763774e+00 -6.1376924277437164e+00 -6.2259061516033549e+00 -6.3168809506299368e+00 
-6.4106267022493002e+00 -6.5071482411112544e+00 -6.6064450355235733e+00 -6.7085108709431900e+00 
-6.8133335439217664e+00 -6.9208945702197804e+00 -7.0311689110931468e+00 -7.1441247220348751e+00 
-7.2597231285206254e+00 -7.3779180335522954e+00 -7.4986559619860484e+00 -7.6218759467935069e+00 
-7.7475094625238219e+00 -7.8754804112832355e+00 -8.0057051665379522e+00 -8.1380926799609306e+00 
-8.2725446563724176e+00 -8.4089558015657317e+00 -8.5472141474522019e+00 -8.6872014584889445e+00 
-8.8287937227871129e+00 -8.9718617305928952e+00 -9.1162717420206150e+00 -9.2618862449753792e+00 
-9.4085648031182476e+00 -9.5561649925315884e+00 -9.7045434243932043e+00 -9.8535568495114561e+00 
-1.0003063338972755e+01 -1.0152923533443881e+01 -1.0303001951853565e+01 -1.0453168348243654e+01 
-1.0603299103592102e+01 -1.0753278637338289e+01 -1.0903000821227771e+01 -1.1052370375975840e+01 
-1.1201304229167000e+01 -1.1349732810763561e+01 -1.1497601260668281e+01 -1.1644870521041137e+01 
-1.1791518284518647e+01 -1.1937539768234158e+01 -1.2082948282652881e+01 -1.2227775563776952e+01 
-1.2372071837352426e+01 -1.2515905354385431e+01 -1.2659362739031588e+01 -1.2802546722304355e+01 
-1.2945575732735332e+01 -1.3088581981975421e+01 -1.3231709355531223e+01 -1.3375110880701184e+01 
-1.3518945770043842e+01 -1.3663376049438984e+01 -1.3808562784983099e+01 -1.3954661938781014e+01 
-1.4101819891631740e+01 -1.4250168686109436e+01 -1.4399821054334023e+01 -1.4550865312020633e+01 
-1.4703360210943593e+01 -1.4857329857992029e+01 -1.5012758822769149e+01 -1.5169587564902610e+01 
-1.5327708326491031e+01 -1.5486961639652133e+01 -1.5647133607475679e+01 -1.5807954115725064e+01 
-1.5969096131089715e+01 -1.6130176234783036e+01 -1.6290756524303891e+01 -1.6450348000258067e+01 
-1.6608415524996605e+01 -1.6764384409538344e+01 -1.6917648642084334e+01 -1.7067580726219482e+01 
-1.7213543038588472e+01 -1.7354900558641429e+01 -1.7491034753787648e+01 -1.7621358333412886e+01 
-1.7745330516194752e+01 -1.7862472377118156e+01 -1.7972381779400962e+01 -1.8074747329563429e+01 
-1.8169360745036659e+01 -1.8256126988858227e+01 -1.8335071508173375e+01 -1.8406343924778643e+01 
-1.8470217562499442e+01 -1.8527084272128874e+01 -1.8577444124042913e+01 -1.8621889694068987e+01 
-1.8661084887409377e+01 -1.8695739587297233e+01 -1.8726571965286560e+01 -1.8754285696248353e+01 
-1.8779518400844761e+01 -1.8802807834970466e+01 -1.8824550365956576e+01 -1.8844962879427026e+01 
-1.8864049095849456e+01 -1.8881572739689936e+01 -1.8897040048190167e+01 -1.8909694017208281e+01 
-1.8918522525518938e+01 -1.8922282043012249e+01 -1.8919538000049002e+01 -1.8908722070373148e+01 
-1.8888205614271598e+01 -1.8856387360524423e+01 -1.8811792121371795e+01 -1.8753175986968817e+01 
-1.8679632116175910e+01 -1.8590690021278725e+01 -1.8486400259087532e+01 -1.8367395819417514e+01 
-1.8234921403415356e+01 -1.8090822361257860e+01 -1.7937486466446316e+01 -1.7777734061970051e+01 
-1.7614655489449468e+01 -1.7451399081741002e+01 -1.7290918215112583e+01 -1.7135691683930105e+01 
-1.6987437513598838e+01 -1.6846845653031533e+01 -1.6713359046066014e+01 -1.6585034590429313e+01 
-1.6458514704295414e+01 -1.6329136039083700e+01 -1.6191193943184004e+01 -1.6038369559856701e+01 
-1.5864311252385880e+01 -1.5663344091574967e+01 -1.5431261490909197e+01 -1.5166133229786833e+01 
-1.4869046030792690e+01 -1.4544679114377177e+01 -1.4201610909927105e+01 -1.3852258413852200e+01 
-1.3512368441686705e+01 -1.3200042719483557e+01 -1.2934096887854727e+01 -1.4254020312171242e+01 
-1.4120561439284174e+01 -1.3949701864322703e+01 -1.3768308351590752e+01 -1.3590696667547491e+01 
-1.3415380706495576e+01 -1.3242489943231867e+01 -1.3071979632617911e+01 -1.2903803949199109e+01 
-1.2737894180545091e+01 -1.2574158960124883e+01 -1.2412485477307191e+01 -1.2252744500777734e+01 
-1.2094799365557947e+01 -1.1938518929597221e+01 -1.1783851299470944e+01 -1.1631060054022999e+01 
-1.1480525950353112e+01 -1.1332197750151774e+01 -1.1185836364526150e+01 -1.1041364835318154e+01 
-1.0898758810816998e+01 -1.0757994249613208e+01 -1.0619047416646293e+01 -1.0481894879433716e+01 
-1.0346513504430060e+01 -1.0212880454273431e+01 -1.0080973178233247e+01 -9.9507694187397391e+00 
-9.8222472011535871e+00 -9.6953848314132074e+00 -9.5701608928262250e+00 -9.4465542426661475e+00 
-9.3245440088257947e+00 -9.2041095864866911e+00 -9.0852306348470773e+00 -8.9678870738997052e+00 
-8.8520590812476048e+00 -8.7377270889541911e+00 -8.6248717804702100e+00 -8.5134740875716339e+00 
-8.4035151873098872e+00 -8.2949764988601871e+00 -8.1878396807546494e+00 -8.0820866279603223e+00 
-7.9776994687748264e+00 -7.8746605619713028e+00 -7.7729524939812285e+00 -7.6725580759262986e+00 
-7.5734603406586656e+00 -7.4756425402136077e+00 -7.3790881429992110e+00 -7.2837808332662677e+00 
-7.1897044986283385e+00 -7.0968432422779548e+00 -7.0051813702249923e+00 -6.9147033912048750e+00 
-6.8253940140614446e+00 -6.7372381451623413e+00 -6.6502208858461680e+00 -6.5643275299022337e+00 
-6.4795435610823287e+00 -6.3958546506446226e+00 -6.3132466549290251e+00 -6.2317056129644062e+00 
-6.1512177441065816e+00 -6.0717694457071367e+00 -5.9933472908126939e+00 -5.9159380258940129e+00 
-5.8395285686048526e+00 -5.7641060055699249e+00 -5.6896575902015982e+00 -5.6161707405453694e+00 
-5.5436330371528157e+00 -5.4720322209825598e+00 -5.4013561913284303e+00 -5.3315930037742607e+00 
-5.2627308681754110e+00 -5.1947581466663371e+00 -5.1276633516937613e+00 -5.0614351440755465e+00 
-4.9960623310842349e+00 -4.9315338645552647e+00 -4.8678388390212524e+00 -4.8049664898683240e+00 
-4.7429061915159716e+00 -4.6816474556217260e+00 -4.6211799293101272e+00 -4.5614933934222766e+00 
-4.5025777607886539e+00 -4.4444230745244431e+00 -4.3870195063467623e+00 -4.3303573549136471e+00 
-4.2744270441845362e+00 -4.2192191218019612e+00 -4.1647242574938828e+00 -4.1109332414970554e+00 
-4.0578369830004037e+00 -4.0054265086087071e+00 -3.9536929608260469e+00 -3.9026275965588400e+00 
-3.8522217856382479e+00 -3.8024670093616919e+00 -3.7533548590530215e+00 -3.7048770346415525e+00 
-3.6570253432593169e+00 -3.6097916978563220e+00 -3.5631681158339399e+00 -3.5171467176957774e+00 
-3.4717197257157588e+00 -3.4268794626241807e+00 -3.3826183503099552e+00 -3.3389289085398945e+00 
-3.2958037536944977e+00 -3.2532355975201295e+00 -3.2112172458972807e+00 -3.1697415976248005e+00 
-3.1288016432196506e+00 -3.0883904637323338e+00 -3.0485012295775764e+00 -3.0091271993801971e+00 
-2.9702617188356184e+00 -2.9318982195854058e+00 -2.8940302181071429e+00 -2.8566513146187718e+00 
-2.8197551919968356e+00 -2.7833356147091175e+00 -2.7473864277606288e+00 -2.7119015556534594e+00 
-2.6768750013599791e+00 -2.6423008453094430e+00 -2.6081732443873933e+00 -2.5744864309482609e+00 
-2.5412347118406200e+00 -2.5084124674450106e+00 -2.4760141507241875e+00 -2.4440342862857136e+00 
-2.4124674694847976e+00 -2.3813083653947773e+00 -2.3505517080871607e+00 -2.3201922996087156e+00 
-2.2902250091499532e+00 -2.2606447721675349e+00 -2.2314465895311826e+00 -2.2026255266785824e+00 
-2.1741767127815832e+00 -2.1460953399230607e+00 -2.1183766622841627e+00 -2.0910159953425143e+00 
-2.0640087150803308e+00 -2.0373502572030024e+00 -2.0110361163677561e+00 -1.9850618454222515e+00 
-1.9594230546528686e+00 -1.9341154110430223e+00 -1.9091346375407219e+00 -1.8844765123358349e+00 
-1.8601368681465380e+00 -1.8361115915148745e+00 -1.8123966221123546e+00 -1.7889879520524243e+00 
-1.7658816252142371e+00 -1.7430737365871434e+00 -1.7205604315467715e+00 -1.6983379053234695e+00 
-1.6764024022483843e+00 -1.6547502151692808e+00 -1.6333776848149999e+00 -1.6122811991770536e+00 
-1.5914571928991388e+00 -1.5709021466746740e+00 -1.5506125866518710e+00 -1.5305850838468456e+00 
-1.5108162535639056e+00 -1.4913027548237194e+00 -1.4720412897985429e+00 -1.4530286032549555e+00 
-1.4342614820036543e+00 -1.4157367543564934e+00 -1.3974512895904088e+00 -1.3794019974183340e+00 
-1.3615858274669221e+00 -1.3439997687610696e+00 -1.3266408492149979e+00 -1.3095061351299659e+00 
-1.2925927306985119e+00 -1.2758977775150524e+00 -1.2594184540927609e+00 -1.2431519753867306e+00 
-1.2270955923233731e+00 -1.2112465913357340e+00 -1.1956022939048954e+00 -1.1801600561073853e+00 
-1.1649172681682620e+00 -1.1498713540200656e+00 -1.1350197708674938e+00 -1.1203600087576746e+00 
-1.1058895901558909e+00 -1.0916060695269594e+00 -1.0775070329219147e+00 -1.0635900975700048e+00 
-1.0498529114760402e+00 -1.0362931530228576e+00 -1.0229085305790140e+00 -1.0096967821114515e+00 
-9.9665567480325623e-01 -9.8378300467623347e-01 -9.7107659621849163e-01 -9.5853430201677481e-01 
-9.4615400239350333e-01 -9.3393360504857459e-01 -9.2187104470576609e-01 -9.0996428276364016e-01 
-8.9821130695110418e-01 -8.8661013098727282e-01 -8.7515879424579635e-01 -8.6385536142350960e-01 
-8.5269792221336316e-01 -8.4168459098157367e-01 -8.3081350644895124e-01 -8.2008283137633520e-01 
-8.0949075225409839e-01 -7.9903547899565730e-01 -7.8871524463494946e-01 -7.7852830502780390e-01 
-7.6847293855718035e-01 -7.5854744584221312e-01 -7.4875014945100937e-01 -7.3907939361716080e-01 
-7.2953354395991377e-01 -7.2011098720795663e-01 -7.1081013092677126e-01 -7.0162940324950951e-01 
-6.9256725261133500e-01 -6.8362214748723660e-01 -6.7479257613315058e-01 -6.6607704633050246e-01 
-6.5747408513401207e-01 -6.4898223862276139e-01 -6.4060007165447830e-01 -6.3232616762299387e-01 
-6.2415912821883635e-01 -6.1609757319290692e-01 -6.0814014012321893e-01 -6.0028548418464400e-01 
-5.9253227792163399e-01 -5.8487921102387685e-01 -5.7732499010485172e-01 -5.6986833848324392e-01 
-5.6250799596718115e-01 -5.5524271864126051e-01 -5.4807127865632155e-01 -5.4099246402193812e-01 
-5.3400507840158906e-01 -5.2710794091047319e-01 -5.2029988591593945e-01 -5.1357976284048945e-01 
-5.0694643596732913e-01 -5.0039878424842787e-01 -4.9393570111506291e-01 -4.8755609429080127e-01 
-4.8125888560690527e-01 -4.7504301082011968e-01 -4.6890741943281106e-01 -4.6285107451543156e-01 
-4.5687295253127552e-01 -4.5097204316349898e-01 -4.4514734914437420e-01 -4.3939788608674862e-01 
-4.3372268231768119e-01 -4.2812077871422738e-01 -4.2259122854134518e-01 -4.1713309729189435e-01 
-4.1174546252870298e-01 -4.0642741372867308e-01 -4.0117805212889990e-01 -3.9599649057477837e-01 
-3.9088185337007453e-01 -3.8583327612892698e-01 -3.8084990562976573e-01 -3.7593089967111554e-01 
-3.7107542692926154e-01 -3.6628266681775407e-01 -3.6155180934872705e-01 -3.5688205499600817e-01 
-3.5227261455999753e-01 -3.4772270903429037e-01 -3.4323156947402367e-01 -3.3879843686592237e-01 
-3.3442256200002463e-01 -3.3010320534306281e-01 -3.2583963691348156e-01 -3.2163113615806849e-01 
-3.1747699183017941e-01 -3.1337650186953503e-01 -3.0932897328357356e-01 -3.0533372203032993e-01 
-3.0139007290283309e-01 -2.9749735941499450e-01 -2.9365492368896945e-01 -2.8986211634397502e-01 
-2.8611829638654257e-01 -2.8242283110218863e-01 -2.7877509594848471e-01 -2.7517447444950771e-01 
-2.7162035809165458e-01 -2.6811214622080165e-01 -2.6464924594079292e-01 -2.6123107201323897e-01 
-2.5785704675861043e-01 -2.5452659995860893e-01 -2.5123916875979818e-01 -2.4799419757848112e-01 
-2.4479113800680527e-01 -2.4162944872007933e-01 -2.3850859538528843e-01 -2.3542805057079122e-01 
-2.3238729365718200e-01 -2.2938581074930509e-01 -2.2642309458940521e-01 -2.2349864447139983e-01 
-2.2061196615625847e-01 -2.1776257178847536e-01 -2.1494997981362049e-01 -2.1217371489695594e-01 
-2.0943330784310282e-01 -2.0672829551674682e-01 -2.0405822076436642e-01 -2.0142263233697363e-01 
-1.9882108481385100e-01 -1.9625313852727500e-01 -1.9371835948821189e-01 -1.9121631931297081e-01 
-1.8874659515080694e-01 -1.8630876961245871e-01 -1.8390243069960779e-01 -1.8152717173525076e-01 
-1.7918259129496925e-01 -1.7686829313908847e-01 -1.7458388614571183e-01 -1.7232898424462031e-01 
-1.7010320635202583e-01 
</PP_LOCAL>


<PP_NONLOCAL>
  <PP_BETA>
  1  0      Beta    L
  1152  
 0.0000000000000000e+00  0.0000000000000000e+00  0.0000000000000000e+00  0.0000000000000000e+00 
 0.0000000000000000e+00  0.0000000000000000e+00  0.0000000000000000e+00  0.0000000000000000e+00 
 0.0000000000000000e+00  0.0000000000000000e+00  0.0000000000000000e+00  0.0000000000000000e+00 
 0.0000000000000000e+00  0.0000000000000000e+00  0.0000000000000000e+00  0.0000000000000000e+00 
 0.0000000000000000e+00  0.0000000000000000e+00  0.0000000000000000e+00  0.0000000000000000e+00 
 0.0000000000000000e+00  0.0000000000000000e+00  0.0000000000000000e+00  0.0000000000000000e+00 
 0.0000000000000000e+00  0.0000000000000000e+00  0.0000000000000000e+00  0.0000000000000000e+00 
 0.0000000000000000e+00  0.0000000000000000e+00  0.0000000000000000e+00  0.0000000000000000e+00 
 0.0000000000000000e+00  0.0000000000000000e+00  0.0000000000000000e+00  0.0000000000000000e+00 
 0.0000000000000000e+00  0.0000000000000000e+00  0.0000000000000000e+00  0.0000000000000000e+00 
 0.0000000000000000e+00  0.0000000000000000e+00  0.0000000000000000e+00  0.0000000000000000e+00 
 0.0000000000000000e+00  0.0000000000000000e+00  0.0000000000000000e+00  0.0000000000000000e+00 
 0.0000000000000000e+00  0.0000000000000000e+00  0.0000000000000000e+00  0.0000000000000000e+00 
 0.0000000000000000e+00  0.0000000000000000e+00  0.0000000000000000e+00  0.0000000000000000e+00 
 0.0000000000000000e+00  0.0000000000000000e+00  0.0000000000000000e+00  0.0000000000000000e+00 
 0.0000000000000000e+00  0.0000000000000000e+00  0.0000000000000000e+00  0.0000000000000000e+00 
 0.0000000000000000e+00  0.0000000000000000e+00  0.0000000000000000e+00  0.0000000000000000e+00 
 0.0000000000000000e+00  0.0000000000000000e+00  0.0000000000000000e+00  0.0000000000000000e+00 
 0.0000000000000000e+00  0.0000000000000000e+00  0.0000000000000000e+00  0.0000000000000000e+00 
 0.0000000000000000e+00  0.0000000000000000e+00  0.0000000000000000e+00  0.0000000000000000e+00 
 0.0000000000000000e+00  0.0000000000000000e+00  0.0000000000000000e+00  0.0000000000000000e+00 
 0.0000000000000000e+00  0.0000000000000000e+00  0.0000000000000000e+00  0.0000000000000000e+00 
 0.0000000000000000e+00  0.0000000000000000e+00  0.0000000000000000e+00  0.0000000000000000e+00 
 0.0000000000000000e+00  0.0000000000000000e+00  0.0000000000000000e+00  0.0000000000000000e+00 
 0.0000000000000000e+00  0.0000000000000000e+00  0.0000000000000000e+00  0.0000000000000000e+00 
 0.0000000000000000e+00  0.0000000000000000e+00  0.0000000000000000e+00  0.0000000000000000e+00 
 0.0000000000000000e+00  0.0000000000000000e+00  0.0000000000000000e+00  0.0000000000000000e+00 
 0.0000000000000000e+00  0.0000000000000000e+00  0.0000000000000000e+00  0.0000000000000000e+00 
 0.0000000000000000e+00  0.0000000000000000e+00  0.0000000000000000e+00  0.0000000000000000e+00 
 0.0000000000000000e+00  0.0000000000000000e+00  0.0000000000000000e+00  0.0000000000000000e+00 
 0.0000000000000000e+00  0.0000000000000000e+00  0.0000000000000000e+00  0.0000000000000000e+00 
 0.0000000000000000e+00  0.0000000000000000e+00  0.0000000000000000e+00  0.0000000000000000e+00 
 0.0000000000000000e+00  0.0000000000000000e+00  0.0000000000000000e+00  0.0000000000000000e+00 
 0.0000000000000000e+00  0.0000000000000000e+00  0.0000000000000000e+00  0.0000000000000000e+00 
 0.0000000000000000e+00  0.0000000000000000e+00  0.0000000000000000e+00  0.0000000000000000e+00 
 0.0000000000000000e+00  0.0000000000000000e+00  0.0000000000000000e+00  0.0000000000000000e+00 
 0.0000000000000000e+00  0.0000000000000000e+00  0.0000000000000000e+00  0.0000000000000000e+00 
 0.0000000000000000e+00  0.0000000000000000e+00  0.0000000000000000e+00  0.0000000000000000e+00 
 0.0000000000000000e+00  0.0000000000000000e+00  0.0000000000000000e+00  0.0000000000000000e+00 
 0.0000000000000000e+00  0.0000000000000000e+00  0.0000000000000000e+00  0.0000000000000000e+00 
 0.0000000000000000e+00  0.0000000000000000e+00  0.0000000000000000e+00  0.0000000000000000e+00 
 0.0000000000000000e+00  0.0000000000000000e+00  0.0000000000000000e+00  0.0000000000000000e+00 
 0.0000000000000000e+00  0.0000000000000000e+00  0.0000000000000000e+00  0.0000000000000000e+00 
 0.0000000000000000e+00  0.0000000000000000e+00  0.0000000000000000e+00  0.0000000000000000e+00 
 0.0000000000000000e+00  0.0000000000000000e+00  0.0000000000000000e+00  0.0000000000000000e+00 
 0.0000000000000000e+00  0.0000000000000000e+00  0.0000000000000000e+00  0.0000000000000000e+00 
 0.0000000000000000e+00  0.0000000000000000e+00  0.0000000000000000e+00  0.0000000000000000e+00 
 0.0000000000000000e+00  0.0000000000000000e+00  0.0000000000000000e+00  0.0000000000000000e+00 
 0.0000000000000000e+00  0.0000000000000000e+00  0.0000000000000000e+00  0.0000000000000000e+00 
 0.0000000000000000e+00  0.0000000000000000e+00  0.0000000000000000e+00  0.0000000000000000e+00 
 0.0000000000000000e+00  0.0000000000000000e+00  0.0000000000000000e+00  0.0000000000000000e+00 
 0.0000000000000000e+00  0.0000000000000000e+00  0.0000000000000000e+00  0.0000000000000000e+00 
 0.0000000000000000e+00  0.0000000000000000e+00  0.0000000000000000e+00  0.0000000000000000e+00 
 0.0000000000000000e+00  0.0000000000000000e+00  0.0000000000000000e+00  0.0000000000000000e+00 
 0.0000000000000000e+00  0.0000000000000000e+00  0.0000000000000000e+00  0.0000000000000000e+00 
 0.0000000000000000e+00  0.0000000000000000e+00  0.0000000000000000e+00  0.0000000000000000e+00 
 0.0000000000000000e+00  0.0000000000000000e+00  0.0000000000000000e+00  0.0000000000000000e+00 
 0.0000000000000000e+00  0.0000000000000000e+00  0.0000000000000000e+00  0.0000000000000000e+00 
 0.0000000000000000e+00  0.0000000000000000e+00  0.0000000000000000e+00  0.0000000000000000e+00 
 0.0000000000000000e+00  0.0000000000000000e+00  0.0000000000000000e+00  0.0000000000000000e+00 
 0.0000000000000000e+00  0.0000000000000000e+00  0.0000000000000000e+00  0.0000000000000000e+00 
 0.0000000000000000e+00  0.0000000000000000e+00  0.0000000000000000e+00  0.0000000000000000e+00 
 0.0000000000000000e+00  0.0000000000000000e+00  0.0000000000000000e+00  0.0000000000000000e+00 
 0.0000000000000000e+00  0.0000000000000000e+00  0.0000000000000000e+00  0.0000000000000000e+00 
 0.0000000000000000e+00  0.0000000000000000e+00  0.0000000000000000e+00  0.0000000000000000e+00 
 0.0000000000000000e+00  0.0000000000000000e+00  0.0000000000000000e+00  0.0000000000000000e+00 
 0.0000000000000000e+00  0.0000000000000000e+00  0.0000000000000000e+00  0.0000000000000000e+00 
 0.0000000000000000e+00  0.0000000000000000e+00  0.0000000000000000e+00  0.0000000000000000e+00 
 0.0000000000000000e+00  0.0000000000000000e+00  0.0000000000000000e+00  0.0000000000000000e+00 
 0.0000000000000000e+00  0.0000000000000000e+00  0.0000000000000000e+00  0.0000000000000000e+00 
 0.0000000000000000e+00  0.0000000000000000e+00  0.0000000000000000e+00  0.0000000000000000e+00 
 0.0000000000000000e+00  0.0000000000000000e+00  0.0000000000000000e+00  0.0000000000000000e+00 
 0.0000000000000000e+00  0.0000000000000000e+00  0.0000000000000000e+00  0.0000000000000000e+00 
 0.0000000000000000e+00  0.0000000000000000e+00  0.0000000000000000e+00  0.0000000000000000e+00 
 0.0000000000000000e+00  0.0000000000000000e+00  0.0000000000000000e+00  0.0000000000000000e+00 
 0.0000000000000000e+00  0.0000000000000000e+00  0.0000000000000000e+00  0.0000000000000000e+00 
 0.0000000000000000e+00  0.0000000000000000e+00  0.0000000000000000e+00  0.0000000000000000e+00 
 0.0000000000000000e+00  0.0000000000000000e+00  0.0000000000000000e+00  0.0000000000000000e+00 
 0.0000000000000000e+00  0.0000000000000000e+00  0.0000000000000000e+00  0.0000000000000000e+00 
 0.0000000000000000e+00  0.0000000000000000e+00  0.0000000000000000e+00  0.0000000000000000e+00 
 0.0000000000000000e+00  0.0000000000000000e+00  0.0000000000000000e+00  0.0000000000000000e+00 
 0.0000000000000000e+00  0.0000000000000000e+00  0.0000000000000000e+00  0.0000000000000000e+00 
 0.0000000000000000e+00  0.0000000000000000e+00  0.0000000000000000e+00  0.0000000000000000e+00 
 0.0000000000000000e+00  0.0000000000000000e+00  0.0000000000000000e+00  0.0000000000000000e+00 
 0.0000000000000000e+00  0.0000000000000000e+00  0.0000000000000000e+00  0.0000000000000000e+00 
 0.0000000000000000e+00  0.0000000000000000e+00  0.0000000000000000e+00  0.0000000000000000e+00 
 0.0000000000000000e+00  0.0000000000000000e+00  0.0000000000000000e+00  0.0000000000000000e+00 
 0.0000000000000000e+00  0.0000000000000000e+00  0.0000000000000000e+00  0.0000000000000000e+00 
 0.0000000000000000e+00  0.0000000000000000e+00  0.0000000000000000e+00  0.0000000000000000e+00 
 0.0000000000000000e+00  0.0000000000000000e+00  0.0000000000000000e+00  0.0000000000000000e+00 
 0.0000000000000000e+00  0.0000000000000000e+00  0.0000000000000000e+00  0.0000000000000000e+00 
 0.0000000000000000e+00  0.0000000000000000e+00  0.0000000000000000e+00  0.0000000000000000e+00 
 0.0000000000000000e+00  0.0000000000000000e+00  0.0000000000000000e+00  0.0000000000000000e+00 
 0.0000000000000000e+00  0.0000000000000000e+00  0.0000000000000000e+00  0.0000000000000000e+00 
 0.0000000000000000e+00  0.0000000000000000e+00  0.0000000000000000e+00  0.0000000000000000e+00 
 0.0000000000000000e+00  0.0000000000000000e+00  0.0000000000000000e+00  0.0000000000000000e+00 
 0.0000000000000000e+00  0.0000000000000000e+00  0.0000000000000000e+00  0.0000000000000000e+00 
 0.0000000000000000e+00  0.0000000000000000e+00  0.0000000000000000e+00  0.0000000000000000e+00 
 0.0000000000000000e+00  0.0000000000000000e+00  0.0000000000000000e+00  0.0000000000000000e+00 
 0.0000000000000000e+00  0.0000000000000000e+00  0.0000000000000000e+00  0.0000000000000000e+00 
 0.0000000000000000e+00  0.0000000000000000e+00  0.0000000000000000e+00  0.0000000000000000e+00 
 0.0000000000000000e+00  0.0000000000000000e+00  0.0000000000000000e+00  0.0000000000000000e+00 
 0.0000000000000000e+00  0.0000000000000000e+00  0.0000000000000000e+00  0.0000000000000000e+00 
 0.0000000000000000e+00  0.0000000000000000e+00  0.0000000000000000e+00  0.0000000000000000e+00 
 0.0000000000000000e+00  0.0000000000000000e+00  0.0000000000000000e+00  0.0000000000000000e+00 
 0.0000000000000000e+00  0.0000000000000000e+00  0.0000000000000000e+00  0.0000000000000000e+00 
 0.0000000000000000e+00  0.0000000000000000e+00  0.0000000000000000e+00  0.0000000000000000e+00 
 0.0000000000000000e+00  0.0000000000000000e+00  0.0000000000000000e+00  -1.1302252428584385e-02 
 -1.1450210173815952e-02  -1.1600106681881849e-02  -1.1751967430846040e-02  -1.1905818236510669e-02 
 -1.2061685257008806e-02  -1.2219594997464289e-02  -1.2379574314719746e-02  -1.2541650422133918e-02 
 -1.2705850894449498e-02  -1.2872203672732764e-02  -1.3040737069386334e-02  -1.3211479773236055e-02 
 -1.3384460854693780e-02  -1.3559709770996955e-02  -1.3737256371526632e-02  -1.3917130903205396e-02 
 -1.4099364015976374e-02  -1.4283986768365124e-02  -1.4471030633125725e-02  -1.4660527502972609e-02 
 -1.4852509696400057e-02  -1.5047009963590461e-02  -1.5244061492413570e-02  -1.5443697914517995e-02 
 -1.5645953311517163e-02  -1.5850862221271168e-02  -1.6058459644266474e-02  -1.6268781050095698e-02 
 -1.6481862384038815e-02  -1.6697740073748399e-02  -1.6916451036040628e-02  -1.7138032683794154e-02 
 -1.7362522932959295e-02  -1.7589960209679442e-02  -1.7820383457527199e-02  -1.8053832144857482e-02 
 -1.8290346272280215e-02  -1.8529966380254736e-02  -1.8772733556808904e-02  -1.9018689445385172e-02 
 -1.9267876252816694e-02  -1.9520336757435763e-02  -1.9776114317318037e-02  -2.0035252878665050e-02 
 -2.0297796984328029e-02  -2.0563791782476717e-02  -2.0833283035415488e-02  -2.1106317128550933e-02 
 -2.1382941079513884e-02  -2.1663202547439267e-02  -2.1947149842407782e-02  -2.2234831935052931e-02 
 -2.2526298466337073e-02  -2.2821599757500848e-02  -2.3120786820189625e-02  -2.3423911366761436e-02 
 -2.3731025820780672e-02  -2.4042183327701985e-02  -2.4357437765749102e-02  -2.4676843756992854e-02 
 -2.5000456678634247e-02  -2.5328332674496537e-02  -2.5660528666732407e-02  -2.5997102367751077e-02 
 -2.6338112292371246e-02  -2.6683617770205309e-02  -2.7033678958281248e-02  -2.7388356853907683e-02 
 -2.7747713307788937e-02  -2.8111811037396447e-02  -2.8480713640603218e-02  -2.8854485609588410e-02 
 -2.9233192345019306e-02  -2.9616900170517723e-02  -3.0005676347419189e-02  -3.0399589089832500e-02 
 -3.0798707580007773e-02  -3.1203101984021552e-02  -3.1612843467788372e-02  -3.2028004213406909e-02 
 -3.2448657435850771e-02  -3.2874877400013741e-02  -3.3306739438118994e-02  -3.3744319967503371e-02 
 -3.4187696508787259e-02  -3.4636947704441021e-02  -3.5092153337759696e-02  -3.5553394352258592e-02 
 -3.6020752871500868e-02  -3.6494312219371196e-02  -3.6974156940808224e-02  -3.7460372823009430e-02 
 -3.7953046917123250e-02  -3.8452267560442899e-02  -3.8958124399116945e-02  -3.9470708411393052e-02 
 -3.9990111931411020e-02  -4.0516428673562296e-02  -4.1049753757433242e-02  -4.1590183733351091e-02 
 -4.2137816608551017e-02  -4.2692751873984046e-02  -4.3255090531786722e-02  -4.3824935123432739e-02 
 -4.4402389758589143e-02  -4.4987560144699852e-02  -4.5580553617319254e-02  -4.6181479171221014e-02 
 -4.6790447492307367e-02  -4.7407570990344816e-02  -4.8032963832553260e-02  -4.8666741978077792e-02 
 -4.9309023213371043e-02  -4.9959927188517286e-02  -5.0619575454529941e-02  -5.1288091501654406e-02 
 -5.1965600798710460e-02  -5.2652230833509450e-02  -5.3348111154382559e-02  -5.4053373412857937e-02 
 -5.4768151407525570e-02  -5.5492581129131566e-02  -5.6226800806942076e-02  -5.6970950956422899e-02 
 -5.7725174428278431e-02  -5.8489616458896970e-02  -5.9264424722252476e-02  -6.0049749383311958e-02 
 -6.0845743153001418e-02  -6.1652561344784779e-02  -6.2470361932912034e-02  -6.3299305612394843e-02 
 -6.4139555860770775e-02  -6.4991279001717819e-02  -6.5854644270585613e-02  -6.6729823881909275e-02 
 -6.7616993098977118e-02  -6.8516330305523884e-02  -6.9428017079623858e-02  -7.0352238269863324e-02 
 -7.1289182073870291e-02  -7.2239040119287251e-02  -7.3202007547271464e-02  -7.4178283098611977e-02 
 -7.5168069202556795e-02  -7.6171572068445076e-02  -7.7189001780242197e-02  -7.8220572394081783e-02 
 -7.9266502038917913e-02  -8.0327013020398491e-02  -8.1402331928071739e-02  -8.2492689746041528e-02 
 -8.3598321967192663e-02  -8.4719468711109580e-02  -8.5856374845815972e-02  -8.7009290113468168e-02 
 -8.8178469260136588e-02  -8.9364172169816750e-02  -9.0566664002812589e-02  -9.1786215338641092e-02 
 -9.3023102323609788e-02  -9.4277606823224822e-02  -9.5550016579589100e-02  -9.6840625373956365e-02 
 -9.8149733194609734e-02  -9.9477646410238610e-02  -1.0082467794899076e-01  -1.0219114748338055e-01 
 -1.0357738162123990e-01  -1.0498371410289996e-01  -1.0641048600479514e-01  -1.0785804594968761e-01 
 -1.0932675032371081e-01  -1.1081696350043185e-01  -1.1232905807214222e-01  -1.1386341508857876e-01 
 -1.1542042430328803e-01  -1.1700048442784367e-01  -1.1860400339412622e-01  -1.2023139862488116e-01 
 -1.2188309731276527e-01  -1.2355953670809214e-01  -1.2526116441548918e-01  -1.2698843869967069e-01 
 -1.2874182880053492e-01  -1.3052181525778198e-01  -1.3232889024525052e-01  -1.3416355791516091e-01 
 -1.3602633475244677e-01  -1.3791774993934450e-01  -1.3983834573040910e-01  -1.4178867783809865e-01 
 -1.4376931582906899e-01  -1.4578084353129697e-01  -1.4782385945213686e-01  -1.4989897720739342e-01 
 -1.5200682596147330e-01  -1.5414805087865260e-01  -1.5632331358547349e-01  -1.5853329264425095e-01 
 -1.6077868403763806e-01  -1.6306020166417073e-01  -1.6537857784466189e-01  -1.6773456383928761e-01 
 -1.7012893037515259e-01  -1.7256246818408205e-01  -1.7503598855033009e-01  -1.7755032386784242e-01 
 -1.8010632820665448e-01  -1.8270487788793760e-01  -1.8534687206714429e-01  -1.8803323332463262e-01 
 -1.9076490826307596e-01  -1.9354286811088209e-01  -1.9636810933077350e-01  -1.9924165423258480e-01 
 -2.0216455158925339e-01  -2.0513787725488322e-01  -2.0816273478366859e-01  -2.1124025604836749e-01 
 -2.1437160185691723e-01  -2.1755796256567750e-01  -2.2080055868769494e-01  -2.2410064149427153e-01 
 -2.2745949360802090e-01  -2.3087842958549676e-01  -2.3435879648738001e-01  -2.3790197443410849e-01 
 -2.4150937714474988e-01  -2.4518245245682818e-01  -2.4892268282473315e-01  -2.5273158579427352e-01 
 -2.5661071445086719e-01  -2.6056165783881380e-01  -2.6458604134905184e-01  -2.6868552707277998e-01 
 -2.7286181411829979e-01  -2.7711663888845833e-01  -2.8145177531607452e-01  -2.8586903505478178e-01 
 -2.9037026762278234e-01  -2.9495736049707549e-01  -2.9963223915583920e-01  -3.0439686706674551e-01 
 -3.0925324561915024e-01  -3.1420341399822949e-01  -3.1924944899932572e-01  -3.2439346478094727e-01 
 -3.2963761255504481e-01  -3.3498408021339854e-01  -3.4043509188913040e-01  -3.4599290745253997e-01 
 -3.5165982194061085e-01  -3.5743816491966662e-01  -3.6333029978072945e-01  -3.6933862296713688e-01 
 -3.7546556313392121e-01  -3.8171358023827406e-01  -3.8808516456013858e-01  -3.9458283565151997e-01 
 -4.0120914121251006e-01  -4.0796665589118536e-01  -4.1485798000350715e-01  -4.2188573816801667e-01 
 -4.2905257784851281e-01  -4.3636116779595019e-01  -4.4381419637845787e-01  -4.5141436978569249e-01 
 -4.5916441009055026e-01  -4.6706705314770114e-01  -4.7512504630428448e-01  -4.8334114589357047e-01 
 -4.9171811447729857e-01  -5.0025871779686937e-01  -5.0896572138753882e-01  -5.1784188680332499e-01 
 -5.2688996739352711e-01  -5.3611270356465235e-01  -5.4551281745429880e-01  -5.5509300693618446e-01 
 -5.6485593886839536e-01  -5.7480424149001452e-01  -5.8494049586505759e-01  -5.9526722626722639e-01 
 -6.0578688939472214e-01  -6.1650186230165072e-01  -6.2741442893174859e-01  -6.3852676514167850e-01 
 -6.4984092210542144e-01  -6.6135880799885649e-01  -6.7308216787478448e-01  -6.8501256165401825e-01 
 -6.9715134017800517e-01  -7.0949961929320282e-01  -7.2205825196729034e-01  -7.3482779847251511e-01 
 -7.4780849471186328e-01  -7.6100021880935420e-01  -7.7440245613595471e-01  -7.8801426299679955e-01 
 -8.0183422926267756e-01  -8.1586044028754723e-01  -8.3009043851277176e-01  -8.4452118521541630e-01 
 -8.5914902291014383e-01  -8.7396963895880320e-01  -8.8897803097585215e-01  -9.0416847463734418e-01 
 -9.1953449450316038e-01  -9.3506883844209976e-01  -9.5076345620420855e-01  -9.6660948261065394e-01 
 -9.8259722572566222e-01  -9.9871616023596799e-01  -1.0149549260897188e+00  -1.0313013322398716e+00 
 -1.0477423650998019e+00  -1.0642642010556358e+00  -1.0808522220994035e+00  -1.0974910333594208e+00 
 -1.1141644810238491e+00  -1.1308556688970950e+00  -1.1475469716168072e+00  -1.1642200424146227e+00 
 -1.1808558132513498e+00  -1.1974344852228163e+00  -1.2139355073412819e+00  -1.2303375421725631e+00 
 -1.2466184173689070e+00  -1.2627550628942332e+00  -1.2787234346927672e+00  -1.2944984266934674e+00 
 -1.3100537743436806e+00  -1.3253619542806676e+00  -1.3403940862132089e+00  -1.3551198445096098e+00 
 -1.3695073882649227e+00  -1.3835233196213692e+00  -1.3971326807002653e+00  -1.4102989995227018e+00 
 -1.4229843946040879e+00  -1.4351497463752705e+00  -1.4467549411133904e+00  -1.4577591896119733e+00 
 -1.4681214184048805e+00  -1.4778007260941681e+00  -1.4867568914339890e+00  -1.4949509136254302e+00 
 -1.5023455592351591e+00  -1.5089058848332746e+00  -1.5145997005151137e+00  -1.5193979376468583e+00 
 -1.5232748851736162e+00  -1.5262082632957847e+00  -1.5281791117329617e+00  -1.5291714823649010e+00 
 -1.5291719425998804e+00  -1.5281689157321861e+00  -1.5261519066193430e+00  -1.5231106834545831e+00 
 -1.5190345068818918e+00  -1.5139115133824608e+00  -1.5077283676583579e+00  -1.5004702955702267e+00 
 -1.4921215923700775e+00  -1.4826666686894672e+00  -1.4720916485483939e+00  -1.4603864709467995e+00 
 -1.4475473730465862e+00  -1.4335795546689556e+00  -1.4184997493378857e+00  -1.4023383668746909e+00 
 -1.3851408381625161e+00  -1.3669677954999688e+00  -1.3478937713577384e+00  -1.3280041998346555e+00 
 -1.3073906582600618e+00  -1.2861444831758455e+00  -1.2643491187053708e+00  0.0000000000000000e+00 
 0.0000000000000000e+00  0.0000000000000000e+00  0.0000000000000000e+00  0.0000000000000000e+00 
 0.0000000000000000e+00  0.0000000000000000e+00  0.0000000000000000e+00  0.0000000000000000e+00 
 0.0000000000000000e+00  0.0000000000000000e+00  0.0000000000000000e+00  0.0000000000000000e+00 
 0.0000000000000000e+00  0.0000000000000000e+00  0.0000000000000000e+00  0.0000000000000000e+00 
 0.0000000000000000e+00  0.0000000000000000e+00  0.0000000000000000e+00  0.0000000000000000e+00 
 0.0000000000000000e+00  0.0000000000000000e+00  0.0000000000000000e+00  0.0000000000000000e+00 
 0.0000000000000000e+00  0.0000000000000000e+00  0.0000000000000000e+00  0.0000000000000000e+00 
 0.0000000000000000e+00  0.0000000000000000e+00  0.0000000000000000e+00  0.0000000000000000e+00 
 0.0000000000000000e+00  0.0000000000000000e+00  0.0000000000000000e+00  0.0000000000000000e+00 
 0.0000000000000000e+00  0.0000000000000000e+00  0.0000000000000000e+00  0.0000000000000000e+00 
 0.0000000000000000e+00  0.0000000000000000e+00  0.0000000000000000e+00  0.0000000000000000e+00 
 0.0000000000000000e+00  0.0000000000000000e+00  0.0000000000000000e+00  0.0000000000000000e+00 
 0.0000000000000000e+00  0.0000000000000000e+00  0.0000000000000000e+00  0.0000000000000000e+00 
 0.0000000000000000e+00  0.0000000000000000e+00  0.0000000000000000e+00  0.0000000000000000e+00 
 0.0000000000000000e+00  0.0000000000000000e+00  0.0000000000000000e+00  0.0000000000000000e+00 
 0.0000000000000000e+00  0.0000000000000000e+00  0.0000000000000000e+00  0.0000000000000000e+00 
 0.0000000000000000e+00  0.0000000000000000e+00  0.0000000000000000e+00  0.0000000000000000e+00 
 0.0000000000000000e+00  0.0000000000000000e+00  0.0000000000000000e+00  0.0000000000000000e+00 
 0.0000000000000000e+00  0.0000000000000000e+00  0.0000000000000000e+00  0.0000000000000000e+00 
 0.0000000000000000e+00  0.0000000000000000e+00  0.0000000000000000e+00  0.0000000000000000e+00 
 0.0000000000000000e+00  0.0000000000000000e+00  0.0000000000000000e+00  0.0000000000000000e+00 
 0.0000000000000000e+00  0.0000000000000000e+00  0.0000000000000000e+00  0.0000000000000000e+00 
 0.0000000000000000e+00  0.0000000000000000e+00  0.0000000000000000e+00  0.0000000000000000e+00 
 0.0000000000000000e+00  0.0000000000000000e+00  0.0000000000000000e+00  0.0000000000000000e+00 
 0.0000000000000000e+00  0.0000000000000000e+00  0.0000000000000000e+00  0.0000000000000000e+00 
 0.0000000000000000e+00  0.0000000000000000e+00  0.0000000000000000e+00  0.0000000000000000e+00 
 0.0000000000000000e+00  0.0000000000000000e+00  0.0000000000000000e+00  0.0000000000000000e+00 
 0.0000000000000000e+00  0.0000000000000000e+00  0.0000000000000000e+00  0.0000000000000000e+00 
 0.0000000000000000e+00  0.0000000000000000e+00  0.0000000000000000e+00  0.0000000000000000e+00 
 0.0000000000000000e+00  0.0000000000000000e+00  0.0000000000000000e+00  0.0000000000000000e+00 
 0.0000000000000000e+00  0.0000000000000000e+00  0.0000000000000000e+00  0.0000000000000000e+00 
 0.0000000000000000e+00  0.0000000000000000e+00  0.0000000000000000e+00  0.0000000000000000e+00 
 0.0000000000000000e+00  0.0000000000000000e+00  0.0000000000000000e+00  0.0000000000000000e+00 
 0.0000000000000000e+00  0.0000000000000000e+00  0.0000000000000000e+00  0.0000000000000000e+00 
 0.0000000000000000e+00  0.0000000000000000e+00  0.0000000000000000e+00  0.0000000000000000e+00 
 0.0000000000000000e+00  0.0000000000000000e+00  0.0000000000000000e+00  0.0000000000000000e+00 
 0.0000000000000000e+00  0.0000000000000000e+00  0.0000000000000000e+00  0.0000000000000000e+00 
 0.0000000000000000e+00  0.0000000000000000e+00  0.0000000000000000e+00  0.0000000000000000e+00 
 0.0000000000000000e+00  0.0000000000000000e+00  0.0000000000000000e+00  0.0000000000000000e+00 
 0.0000000000000000e+00  0.0000000000000000e+00  0.0000000000000000e+00  0.0000000000000000e+00 
 0.0000000000000000e+00  0.0000000000000000e+00  0.0000000000000000e+00  0.0000000000000000e+00 
 0.0000000000000000e+00  0.0000000000000000e+00  0.0000000000000000e+00  0.0000000000000000e+00 
 0.0000000000000000e+00  0.0000000000000000e+00  0.0000000000000000e+00  0.0000000000000000e+00 
 0.0000000000000000e+00  0.0000000000000000e+00  0.0000000000000000e+00  0.0000000000000000e+00 
 0.0000000000000000e+00  0.0000000000000000e+00  0.0000000000000000e+00  0.0000000000000000e+00 
 0.0000000000000000e+00  0.0000000000000000e+00  0.0000000000000000e+00  0.0000000000000000e+00 
 0.0000000000000000e+00  0.0000000000000000e+00  0.0000000000000000e+00  0.0000000000000000e+00 
 0.0000000000000000e+00  0.0000000000000000e+00  0.0000000000000000e+00  0.0000000000000000e+00 
 0.0000000000000000e+00  0.0000000000000000e+00  0.0000000000000000e+00  0.0000000000000000e+00 
 0.0000000000000000e+00  0.0000000000000000e+00  0.0000000000000000e+00  0.0000000000000000e+00 
 0.0000000000000000e+00  0.0000000000000000e+00  0.0000000000000000e+00  0.0000000000000000e+00 
 0.0000000000000000e+00  0.0000000000000000e+00  0.0000000000000000e+00  0.0000000000000000e+00 
 0.0000000000000000e+00  0.0000000000000000e+00  0.0000000000000000e+00  0.0000000000000000e+00 
 0.0000000000000000e+00  0.0000000000000000e+00  0.0000000000000000e+00  0.0000000000000000e+00 
 0.0000000000000000e+00  0.0000000000000000e+00  0.0000000000000000e+00  0.0000000000000000e+00 
 0.0000000000000000e+00  0.0000000000000000e+00  0.0000000000000000e+00  0.0000000000000000e+00 
 0.0000000000000000e+00  0.0000000000000000e+00  0.0000000000000000e+00  0.0000000000000000e+00 
 0.0000000000000000e+00  0.0000000000000000e+00  0.0000000000000000e+00  0.0000000000000000e+00 
 0.0000000000000000e+00  0.0000000000000000e+00  0.0000000000000000e+00  0.0000000000000000e+00 
 0.0000000000000000e+00  0.0000000000000000e+00  0.0000000000000000e+00  0.0000000000000000e+00 
 0.0000000000000000e+00  0.0000000000000000e+00  0.0000000000000000e+00  0.0000000000000000e+00 
 0.0000000000000000e+00  0.0000000000000000e+00  0.0000000000000000e+00  0.0000000000000000e+00 
 0.0000000000000000e+00  0.0000000000000000e+00  0.0000000000000000e+00  0.0000000000000000e+00 
 0.0000000000000000e+00  0.0000000000000000e+00  0.0000000000000000e+00  0.0000000000000000e+00 
 0.0000000000000000e+00  0.0000000000000000e+00  0.0000000000000000e+00  0.0000000000000000e+00 
 0.0000000000000000e+00  0.0000000000000000e+00  0.0000000000000000e+00  0.0000000000000000e+00 
 0.0000000000000000e+00  0.0000000000000000e+00  0.0000000000000000e+00  0.0000000000000000e+00 
 0.0000000000000000e+00  0.0000000000000000e+00  0.0000000000000000e+00  0.0000000000000000e+00 
 0.0000000000000000e+00  0.0000000000000000e+00  0.0000000000000000e+00  0.0000000000000000e+00 
 0.0000000000000000e+00  0.0000000000000000e+00  0.0000000000000000e+00  0.0000000000000000e+00 
 0.0000000000000000e+00  0.0000000000000000e+00  0.0000000000000000e+00  0.0000000000000000e+00 
 0.0000000000000000e+00  0.0000000000000000e+00  0.0000000000000000e+00  0.0000000000000000e+00 
 0.0000000000000000e+00  0.0000000000000000e+00  0.0000000000000000e+00  0.0000000000000000e+00 
 0.0000000000000000e+00  0.0000000000000000e+00  0.0000000000000000e+00  0.0000000000000000e+00 
 0.0000000000000000e+00  0.0000000000000000e+00  0.0000000000000000e+00  0.0000000000000000e+00 
 0.0000000000000000e+00  0.0000000000000000e+00  0.0000000000000000e+00  0.0000000000000000e+00 
 0.0000000000000000e+00  0.0000000000000000e+00  0.0000000000000000e+00  0.0000000000000000e+00 
 0.0000000000000000e+00  0.0000000000000000e+00  0.0000000000000000e+00  0.0000000000000000e+00 
 0.0000000000000000e+00  0.0000000000000000e+00  0.0000000000000000e+00  0.0000000000000000e+00 
 0.0000000000000000e+00  0.0000000000000000e+00  0.0000000000000000e+00  0.0000000000000000e+00 
 0.0000000000000000e+00  0.0000000000000000e+00  0.0000000000000000e+00  0.0000000000000000e+00 
 0.0000000000000000e+00  0.0000000000000000e+00  0.0000000000000000e+00  0.0000000000000000e+00 
 0.0000000000000000e+00  0.0000000000000000e+00  0.0000000000000000e+00  0.0000000000000000e+00 
 0.0000000000000000e+00  0.0000000000000000e+00  0.0000000000000000e+00  0.0000000000000000e+00 
 0.0000000000000000e+00  0.0000000000000000e+00  0.0000000000000000e+00  0.0000000000000000e+00 
 0.0000000000000000e+00 
  </PP_BETA>
  <PP_BETA>
  2  1      Beta    L
  1152  
 -7.6207340533987164e-08  -7.8214714161049402e-08  -8.0274963913215966e-08  -8.2389482597764517e-08 
 -8.4559699709836960e-08  -8.6787082398832413e-08  -8.9073136460256286e-08  -9.1419407353695217e-08 
 -9.3827481247606625e-08  -9.6298986091628844e-08  -9.8835592717136939e-08  -1.0143901596678876e-07 
 -1.0411101585382313e-07  -1.0685339875189632e-07  -1.0966801861625914e-07  -1.1255677823710138e-07 
 -1.1552163052591003e-07  -1.1856457983571218e-07  -1.2168768331609349e-07  -1.2489305230390998e-07 
 -1.2818285375063170e-07  -1.3155931168728471e-07  -1.3502470872798028e-07  -1.3858138761304898e-07 
 -1.4223175279282294e-07  -1.4597827205313448e-07  -1.4982347818363372e-07  -1.5376997069005138e-07 
 -1.5782041755156286e-07  -1.6197755702444315e-07  -1.6624419949323361e-07  -1.7062322937066719e-07 
 -1.7511760704764264e-07  -1.7973037089456007e-07  -1.8446463931537585e-07  -1.8932361285576123e-07 
 -1.9431057636679411e-07  -1.9942890122564213e-07  -2.0468204761474257e-07  -2.1007356686101674e-07 
 -2.1560710383670228e-07  -2.2128639942342569e-07  -2.2711529304117934e-07  -2.3309772524391658e-07 
 -2.3923774038351542e-07  -2.4553948934391355e-07  -2.5200723234726531e-07  -2.5864534183401124e-07 
 -2.6545830541881665e-07  -2.7245072892436777e-07  -2.7962733949508356e-07  -2.8699298879284512e-07 
 -2.9455265627690317e-07  -3.0231145257018080e-07  -3.1027462291425118e-07  -3.1844755071531705e-07 
 -3.2683576118359964e-07  -3.3544492506859073e-07  -3.4428086249269261e-07  -3.5334954688584539e-07 
 -3.6265710902378896e-07  -3.7220984117270142e-07  -3.8201420134301082e-07  -3.9207681765525378e-07 
 -4.0240449282093755e-07  -4.1300420874143141e-07  -4.2388313122799584e-07  -4.3504861484614369e-07 
 -4.4650820788760477e-07  -4.5826965747325887e-07  -4.7034091479048232e-07  -4.8273014046845137e-07 
 -4.9544571009503896e-07  -5.0849621987902827e-07  -5.2189049246147674e-07  -5.3563758288015507e-07 
 -5.4974678469109640e-07  -5.6422763625139389e-07  -5.7908992716748920e-07  -5.9434370491331751e-07 
 -6.0999928162278385e-07  -6.2606724106115164e-07  -6.4255844578007301e-07  -6.5948404446108295e-07 
 -6.7685547945253000e-07  -6.9468449450503997e-07  -7.1298314271073130e-07  -7.3176379465156345e-07 
 -7.5103914676232278e-07  -7.7082222991388518e-07  -7.9112641822258379e-07  -8.1196543809161583e-07 
 -8.3335337749060763e-07  -8.5530469547961872e-07  -8.7783423198401264e-07  -9.0095721782680406e-07 
 -9.2468928502527473e-07  -9.4904647735880609e-07  -9.7404526121507742e-07  -9.9970253672197173e-07 
 -1.0260356491726959e-06  -1.0530624007518534e-06  -1.0808010625703983e-06  -1.1092703870175901e-06 
 -1.1384896204383154e-06  -1.1684785161443513e-06  -1.1992573477683388e-06  -1.2308469229695286e-06 
 -1.2632685975005420e-06  -1.2965442896446645e-06  -1.3306964950334279e-06  -1.3657483018545085e-06 
 -1.4017234064602079e-06  -1.4386461293870812e-06  -1.4765414317975332e-06  -1.5154349323545013e-06 
 -1.5553529245406386e-06  -1.5963223944336927e-06  -1.6383710389501129e-06  -1.6815272845691972e-06 
 -1.7258203065504681e-06  -1.7712800486572412e-06  -1.8179372433997272e-06  -1.8658234328113655e-06 
 -1.9149709897724233e-06  -1.9654131398952721e-06  -2.0171839839861399e-06  -2.0703185210985460e-06 
 -2.1248526721939596e-06  -2.1808233044257219e-06  -2.2382682560626117e-06  -2.2972263620689315e-06 
 -2.3577374803583986e-06  -2.4198425187395720e-06  -2.4835834625710698e-06  -2.5490034031452215e-06 
 -2.6161465668194048e-06  -2.6850583449146923e-06  -2.7557853244020904e-06  -2.8283753193970558e-06 
 -2.9028774034836080e-06  -2.9793419428899130e-06  -3.0578206305377040e-06  -3.1383665209886327e-06 
 -3.2210340663110998e-06  -3.3058791528918911e-06  -3.3929591392174224e-06  -3.4823328946502170e-06 
 -3.5740608392267589e-06  -3.6682049845036697e-06  -3.7648289754798240e-06  -3.8639981336226883e-06 
 -3.9657795010280574e-06  -4.0702418857429756e-06  -4.1774559082825109e-06  -4.2874940493718135e-06 
 -4.4004306989457220e-06  -4.5163422064391445e-06  -4.6353069324020108e-06  -4.7574053014739175e-06 
 -4.8827198567540930e-06  -5.0113353156035560e-06  -5.1433386269171568e-06  -5.2788190299041700e-06 
 -5.4178681144172700e-06  -5.5605798828705765e-06  -5.7070508137887267e-06  -5.8573799270298229e-06 
 -6.0116688507264653e-06  -6.1700218899900438e-06  -6.3325460974247097e-06  -6.4993513454988812e-06 
 -6.6705504008229084e-06  -6.8462590003833844e-06  -7.0265959297855093e-06  -7.2116831035563856e-06 
 -7.4016456475636425e-06  -7.5966119836049401e-06  -7.7967139162257100e-06  -8.0020867218237095e-06 
 -8.2128692401006580e-06  -8.4292039679228231e-06  -8.6512371556539125e-06  -8.8791189060254974e-06 
 -9.1130032756117399e-06  -9.3530483789770466e-06  -9.5994164955670684e-06  -9.8522741794153063e-06 
 -1.0111792371739367e-05  -1.0378146516503290e-05  -1.0651516679023676e-05  -1.0932087667700156e-05 
 -1.1220049158952136e-05  -1.1515595825446748e-05  -1.1818927467704138e-05  -1.2130249149169539e-05 
 -1.2449771334843133e-05  -1.2777710033561562e-05  -1.3114286944027252e-05  -1.3459729604684231e-05 
 -1.3814271547541826e-05  -1.4178152456050077e-05  -1.4551618327133861e-05  -1.4934921637495008e-05 
 -1.5328321514294923e-05  -1.5732083910333168e-05  -1.6146481783840261e-05  -1.6571795283006561e-05 
 -1.7008311935371478e-05  -1.7456326842201511e-05  -1.7916142877988255e-05  -1.8388070895201413e-05 
 -1.8872429934434996e-05  -1.9369547440088982e-05  -1.9879759481732205e-05  -2.0403410981295949e-05 
 -2.0940855946252057e-05  -2.1492457708933153e-05  -2.2058589172156549e-05  -2.2639633061318043e-05 
 -2.3235982183126229e-05  -2.3848039691151654e-05  -2.4476219358371061e-05  -2.5120945856890339e-05 
 -2.5782655045035458e-05  -2.6461794262005981e-05  -2.7158822630289303e-05  -2.7874211366041105e-05 
 -2.8608444097640953e-05  -2.9362017192639335e-05  -3.0135440093316094e-05  -3.0929235661077995e-05 
 -3.1743940529927653e-05  -3.2580105469243056e-05  -3.3438295756112967e-05  -3.4319091557479495e-05 
 -3.5223088322346783e-05  -3.6150897184320304e-05  -3.7103145374749457e-05  -3.8080476646752227e-05 
 -3.9083551710408992e-05  -4.0113048679419389e-05  -4.1169663529523906e-05  -4.2254110569001294e-05 
 -4.3367122921558037e-05  -4.4509453021937783e-05  -4.5681873124584858e-05  -4.6885175825706719e-05 
 -4.8120174599086769e-05  -4.9387704346011427e-05  -5.0688621959681335e-05  -5.2023806904490233e-05 
 -5.3394161810561373e-05  -5.4800613083944469e-05  -5.6244111532885153e-05  -5.7725633010589882e-05 
 -5.9246179074922068e-05  -6.0806777665474287e-05  -6.2408483798474037e-05  -6.4052380279993912e-05 
 -6.5739578437947228e-05  -6.7471218873364574e-05  -6.9248472231458593e-05  -7.1072539992998639e-05 
 -7.2944655286529870e-05  -7.4866083721986156e-05  -7.6838124246260102e-05  -7.8862110021308204e-05 
 -8.0939409325385319e-05  -8.3071426478016955e-05  -8.5259602789335270e-05  -8.7505417534420026e-05 
 -8.9810388953302762e-05  -9.2176075277310989e-05  -9.4604075782445590e-05  -9.7096031870503734e-05 
 -9.9653628178676939e-05  -1.0227859371837614e-04  -1.0497270304405212e-04  -1.0773777745280171e-04 
 -1.1057568621557055e-04  -1.1348834784078483e-04  -1.1647773137126560e-04  -1.1954585771530249e-04 
 -1.2269480101278728e-04  -1.2592669003732828e-04  -1.2924370963529678e-04  -1.3264810220277402e-04 
 -1.3614216920140144e-04  -1.3972827271415439e-04  -1.4340883704209409e-04  -1.4718635034317390e-04 
 -1.5106336631421255e-04  -1.5504250591716370e-04  -1.5912645915085597e-04  -1.6331798686939616e-04 
 -1.6761992264846494e-04  -1.7203517470076993e-04  -1.7656672784194550e-04  -1.8121764550823151e-04 
 -1.8599107182729350e-04  -1.9089023374358361e-04  -1.9591844319967886e-04  -2.0107909937507062e-04 
 -2.0637569098391778e-04  -2.1181179863331753e-04  -2.1739109724368779e-04  -2.2311735853289415e-04 
 -2.2899445356580142e-04  -2.3502635537097657e-04  -2.4121714162630295e-04  -2.4757099741532700e-04 
 -2.5409221805620155e-04  -2.6078521200512871e-04  -2.6765450383627276e-04  -2.7470473730015183e-04 
 -2.8194067846257789e-04  -2.8936721892626265e-04  -2.9698937913726883e-04  -3.0481231177854125e-04 
 -3.1284130525280411e-04  -3.2108178725719067e-04  -3.2953932845200675e-04  -3.3821964622611289e-04 
 -3.4712860856147144e-04  -3.5627223799946463e-04  -3.6565671571166719e-04  -3.7528838567781769e-04 
 -3.8517375897382231e-04  -3.9531951817267137e-04  -4.0573252186125973e-04  -4.1641980927614811e-04 
 -4.2738860506140236e-04  -4.3864632415172678e-04  -4.5020057678418584e-04  -4.6205917364189959e-04 
 -4.7423013113319211e-04  -4.8672167680975312e-04  -4.9954225492747210e-04  -5.1270053215370884e-04 
 -5.2620540342484363e-04  -5.4006599795807105e-04  -5.5429168542149283e-04  -5.6889208226668282e-04 
 -5.8387705822799058e-04  -5.9925674299298425e-04  -6.1504153304852620e-04  -6.3124209870710928e-04 
 -6.4786939131820291e-04  -6.6493465066946899e-04  -6.8244941258284648e-04  -7.0042551671064190e-04 
 -7.1887511453687771e-04  -7.3781067758930843e-04  -7.5724500586764256e-04  -7.7719123649366644e-04 
 -7.9766285258909967e-04  -8.1867369238718861e-04  -8.4023795858417338e-04  -8.6237022793694633e-04 
 -8.8508546111338584e-04  -9.0839901280199986e-04  -9.3232664208771398e-04  -9.5688452310080407e-04 
 -9.8208925594614601e-04  -1.0079578779201754e-03  -1.0345078750231213e-03  -1.0617571937742661e-03 
 -1.0897242533382243e-03  -1.1184279579704059e-03  -1.1478877097900601e-03  -1.1781234218895336e-03 
 -1.2091555317885532e-03  -1.2410050152426428e-03  -1.2736934004149445e-03  -1.3072427824210649e-03 
 -1.3416758382566755e-03  -1.3770158421179963e-03  -1.4132866811254559e-03  -1.4505128714611491e-03 
 -1.4887195749309534e-03  -1.5279326159624849e-03  -1.5681784990503351e-03  -1.6094844266603488e-03 
 -1.6518783176050320e-03  -1.6953888259024297e-03  -1.7400453601312139e-03  -1.7858781032950039e-03 
 -1.8329180332093229e-03  -1.8811969434248765e-03  -1.9307474647013122e-03  -1.9816030870458525e-03 
 -2.0337981823316774e-03  -2.0873680275113127e-03  -2.1423488284405766e-03  -2.1987777443291841e-03 
 -2.2566929128344441e-03  -2.3161334758149414e-03  -2.3771396057615138e-03  -2.4397525329233343e-03 
 -2.5040145731473301e-03  -2.5699691564496489e-03  -2.6376608563384433e-03  -2.7071354199075894e-03 
 -2.7784397987216901e-03  -2.8516221805130284e-03  -2.9267320217118056e-03  -3.0038200808315584e-03 
 -3.0829384527321113e-03  -3.1641406037831547e-03  -3.2474814079519951e-03  -3.3330171838397708e-03 
 -3.4208057326909594e-03  -3.5109063774016749e-03  -3.6033800025529828e-03  -3.6982890954960386e-03 
 -3.7956977885166289e-03  -3.8956719021073991e-03  -3.9982789893767568e-03  -4.1035883816242166e-03 
 -4.2116712351127680e-03  -4.3226005790695313e-03  -4.4364513649468992e-03  -4.5533005169771015e-03 
 -4.6732269840541064e-03  -4.7963117929774746e-03  -4.9226381030938460e-03  -5.0522912623725928e-03 
 -5.1853588649530798e-03  -5.3219308102020572e-03  -5.4620993633205895e-03  -5.9793918331013515e-03 
 -6.1368756957853460e-03  -6.2985068082237680e-03  -6.4643943573330113e-03  -6.6346504030780377e-03 
 -6.8093899539832621e-03  -6.9887310446228998e-03  -7.1727948151426059e-03  -7.3617055928652505e-03 
 -7.5555909760350280e-03  -7.7545819197557056e-03  -7.9588128241800931e-03  -8.1684216250092773e-03 
 -8.3835498863617398e-03  -8.6043428960739556e-03  -8.8309497634955717e-03  -9.0635235198442202e-03 
 -9.3022212211860949e-03  -9.5472040541106883e-03  -9.7986374441693964e-03  -1.0056691167149788e-02 
 -1.0321539463258889e-02  -1.0593361154290937e-02  -1.0872339763856707e-02  -1.1158663640753597e-02 
 -1.1452526085558008e-02  -1.1754125480522596e-02  -1.2063665422864387e-02  -1.2381354861530703e-02 
 -1.2707408237532906e-02  -1.3042045627939633e-02  -1.3385492893623830e-02  -1.3737981830859983e-02 
 -1.4099750326870599e-02  -1.4471042519423263e-02  -1.4852108960582115e-02  -1.5243206784720202e-02 
 -1.5644599880901704e-02  -1.6056559069745933e-02  -1.6479362284887361e-02  -1.6913294759148916e-02 
 -1.7358649215548888e-02  -1.7815726063263981e-02  -1.8284833598675016e-02  -1.8766288211623825e-02 
 -1.9260414597013501e-02  -1.9767545971887367e-02  -2.0288024298124860e-02  -2.0822200510896220e-02 
 -2.1370434753020726e-02  -2.1933096615377169e-02  -2.2510565383518040e-02  -2.3103230290643227e-02 
 -2.3711490777091598e-02  -2.4335756756513525e-02  -2.4976448888890092e-02  -2.5633998860569163e-02 
 -2.6308849671492360e-02  -2.7001455929789694e-02  -2.7712284153924377e-02  -2.8441813082572161e-02 
 -2.9190533992425785e-02  -2.9958951024117036e-02  -3.0747581516454278e-02  -3.1556956349177427e-02 
 -3.2387620294435648e-02  -3.3240132377198188e-02  -3.4115066244812184e-02  -3.5013010545926412e-02 
 -3.5934569319002595e-02  -3.6880362390642650e-02  -3.7851025783961587e-02  -3.8847212137242050e-02 
 -3.9869591133110484e-02  -4.0918849938477733e-02  -4.1995693655492806e-02  -4.3100845783761658e-02 
 -4.4235048694086739e-02  -4.5399064113987170e-02  -4.6593673625264946e-02  -4.7819679173882662e-02 
 -4.9077903592425240e-02  -5.0369191135421147e-02  -5.1694408027799503e-02  -5.3054443026766374e-02 
 -5.4450207997382517e-02  -5.5882638502131828e-02  -5.7352694404767257e-02  -5.8861360488728885e-02 
 -6.0409647090424248e-02  -6.1998590747668975e-02  -6.3629254863581008e-02  -6.5302730386226943e-02 
 -6.7020136504316069e-02  -6.8782621359238766e-02  -7.0591362773745323e-02  -7.2447568997556638e-02 
 -7.4352479470202085e-02  -7.6307365601368443e-02  -7.8313531569047745e-02  -8.0372315135761763e-02 
 -8.2485088483137806e-02  -8.4653259065102002e-02  -8.6878270479950073e-02  -8.9161603361543898e-02 
 -9.1504776289873330e-02  -9.3909346721210776e-02  -9.6376911938070950e-02  -9.8909110019173005e-02 
 -1.0150762082958635e-01  -1.0417416703122161e-01  -1.0691051511380487e-01  -1.0971847644645262e-01 
 -1.1259990834993654e-01  -1.1555671518969880e-01  -1.1859084948964731e-01  -1.2170431306672524e-01 
 -1.2489915818620927e-01  -1.2817748873765258e-01  -1.3154146143134035e-01  -1.3499328701507654e-01 
 -1.3853523151106747e-01  -1.4216961747260873e-01  -1.4589882526021508e-01  -1.4972529433677387e-01 
 -1.5365152458121237e-01  -1.5768007762010400e-01  -1.6181357817654118e-01  -1.6605471543551323e-01 
 -1.7040624442492372e-01  -1.7487098741127563e-01  -1.7945183530893158e-01  -1.8415174910173138e-01 
 -1.8897376127562021e-01  -1.9392097726077723e-01  -1.9899657688160527e-01  -2.0420381581274819e-01 
 -2.0954602703914368e-01  -2.1502662231791950e-01  -2.2064909363973509e-01  -2.2641701468696238e-01 
 -2.3233404228585219e-01  -2.3840391784960724e-01  -2.4463046880899181e-01  -2.5101761002685113e-01 
 -2.5756934519260560e-01  -2.6428976819247080e-01  -2.7118306445081325e-01  -2.7825351223771111e-01 
 -2.8550548393739622e-01  -2.9294344727186544e-01  -3.0057196647353512e-01  -3.0839570340034883e-01 
 -3.1641941858630862e-01  -3.2464797221988645e-01  -3.3308632504226732e-01  -3.4173953915683225e-01 
 -3.5061277874071489e-01  -3.5971131064867845e-01  -3.6904050489893181e-01  -3.7860583502985762e-01 
 -3.8841287831594612e-01  -3.9846731583053269e-01  -4.0877493234219453e-01  -4.1934161603092718e-01 
 -4.3017335800941930e-01  -4.4127625163395995e-01  -4.5265649158867671e-01  -4.6432037272595289e-01 
 -4.7627428864503540e-01  -4.8852472998992247e-01  -5.0107828244677555e-01  -5.1394162442017299e-01 
 -5.2712152436662985e-01  -5.4062483776292114e-01  -5.5445850368583416e-01  -5.6862954097912188e-01 
 -5.8314504398255607e-01  -5.9801217779717919e-01  -6.1323817306005357e-01  -6.2883032020108376e-01 
 -6.4479596315384047e-01  -6.6114249249168944e-01  -6.7787733796007710e-01  -6.9500796037540613e-01 
 -7.1254184286067990e-01  -7.3048648138799144e-01  -7.4884937459795975e-01  -7.6763801286647493e-01 
 -7.8685986658954921e-01  -8.0652237365776314e-01  -8.2663292609277450e-01  -8.4719885581956778e-01 
 -8.6822741954974003e-01  -8.8972578275305247e-01  -9.1170100269682386e-01  -9.3416001053547271e-01 
 -9.5710959243585325e-01  -9.8055636972766347e-01  -1.0045067780726262e+00  -1.0289670456509517e+00 
 -1.0539431703691755e+00  -1.0794408960996476e+00  -1.1054656879688498e+00  -1.1320227067194122e+00 
 -1.1591167821791188e+00  -1.1867523858795048e+00  -1.2149336028767257e+00  -1.2436641028383835e+00 
 -1.2729471104719305e+00  -1.3027853753829293e+00  -1.3331811414652734e+00  -1.3641361159399246e+00 
 -1.3956514381742151e+00  -1.4277276484299704e+00  -1.4603646567057866e+00  -1.4935617118564208e+00 
 -1.5273173711905947e+00  -1.5616294707673068e+00  -1.5964950966297231e+00  -1.6319105572350119e+00 
 -1.6678713573575730e+00  -1.7043721737618709e+00  -1.7414068329592789e+00  -1.7789682913804641e+00 
 -1.8170486183107415e+00  -1.8556389819498023e+00  -1.8947296389691761e+00  -1.9343099279495879e+00 
 -1.9743682670862648e+00  -2.0148921565517233e+00  -2.0558681859026571e+00  -2.0972820469089783e+00 
 -2.1391185521685125e+00  -2.1813616598489602e+00  -2.2239945048692400e+00  -2.2669994367937458e+00 
 -2.3103580646649120e+00  -2.3540513089405359e+00  -2.3980594606319250e+00  -2.4423622476558648e+00 
 -2.4869389083172968e+00  -2.5317682717290411e+00  -2.5768288448499868e+00  -2.6220989056825612e+00 
 -2.6675566020144879e+00  -2.7131800549178022e+00  -2.7589474660308664e+00  -2.8048372274464115e+00 
 -2.8508280328117768e+00  -2.8968989880173313e+00  -2.9430297196078796e+00  -2.9892004788013153e+00 
 -3.0353922387424910e+00  -3.0815867823614229e+00  -3.1277667779481693e+00  -3.1739158393074560e+00 
 -3.2200185671200567e+00  -3.2660605679228802e+00  -3.3120284469331511e+00  -3.3579097707936683e+00 
 -3.4036929962158071e+00  -3.4493673604558746e+00  -3.4949227295912659e+00  -3.5403494006778349e+00 
 -3.5856378540837950e+00  -3.6307784526219655e+00  -3.6757610845561448e+00  -3.7205747481539602e+00 
 -3.7652070762113237e+00  -3.8096437998968211e+00  -3.8538681523694258e+00  -3.8978602139201821e+00 
 -3.9415962018845989e+00  -3.9850477102711186e+00  -4.0281809059502516e+00  -4.0709556903415827e+00 
 -4.1133248378078084e+00  -4.1552331243930780e+00  -4.1966164630960954e+00  -4.2374010645029916e+00 
 -4.2775026442676598e+00  -4.3168257756630943e+00  -4.3552629740035496e+00  -4.3926946286995898e+00 
 -4.4289883820237437e+00  -4.4639990475841627e+00  -4.4975686827600692e+00  -4.5295269177192079e+00 
 -4.5596915739856536e+00  -4.5878696029822272e+00  -4.6138583736933905e+00  -4.6374473324917851e+00 
 -4.6584200538501408e+00  -4.6765566922508688e+00  -4.6916368376105737e+00  -4.7034427644076562e+00 
 -4.7117630709664482e+00  -4.7163965688417173e+00  -4.7171566321307790e+00  -4.7138755899771851e+00 
 -4.7064093385527972e+00  -4.6946419640977552e+00  -4.6784902723560320e+00  -4.6579080863164251e+00 
 -4.6328901574361572e+00  -4.6034755233931550e+00  -4.5697501361163635e+00  -4.5318485779475699e+00 
 -4.4899546865666222e+00  -4.4443009148955621e+00  -4.3951662699262384e+00  -4.3428726975568734e+00 
 -4.2877798157235860e+00  -4.2302779426865511e+00  -4.1707794228251052e+00  -4.1097083184754934e+00 
 -4.0474886115292961e+00  -3.9845311450577809e+00  -3.9212196239454151e+00  -3.8578960909136777e+00 
 -3.7948463887572368e+00  -3.7322862102948053e+00  -3.6703484193210452e+00  -3.6090723879757318e+00 
 -3.5483961391789061e+00  -3.4881520867238769e+00  -3.4280671387399488e+00  -3.3677678467224439e+00 
 -3.3067911521306068e+00  -3.2446010880666321e+00  -3.1806115402529036e+00  -3.1142148569024517e+00 
 -3.0448157288292039e+00  -2.9718693481768144e+00  -2.8949224177999495e+00  -2.8136551406568353e+00 
 -2.7279219071727452e+00  -2.6377880442771402e+00  -2.5435597408285409e+00  -2.4458041526962888e+00 
 -2.3453567633491010e+00  -2.2433133653585760e+00  -2.1410045619864100e+00  -2.0399514876021221e+00 
 -1.9418025052432879e+00  -1.8482519474701027e+00  -1.7609434777470434e+00  -1.6813622967433692e+00 
 -1.6107221078997824e+00  -1.5498543630585595e+00  -1.4991086770419773e+00  -1.4582742568866640e+00 
 -1.4265325351150691e+00  -1.4024507349184567e+00  -1.3840246392586901e+00  -1.3687762521317208e+00 
 -1.3539082610754711e+00  -1.3365122931503652e+00  -1.3138221042328184e+00  -1.2834964394218797e+00 
 -1.2439099218843848e+00  -1.1944247075021275e+00  -1.1356116367441000e+00  -1.0693880955874180e+00 
 -9.9904154812090384e-01  -9.2911327973704561e-01  -8.6512651422946585e-01  -8.1315653479983019e-01 
 -7.7925708658181847e-01  -7.6877604636734209e-01  -7.8561258328018202e-01  -8.3148588871249796e-01 
 -9.0529977344366053e-01  -1.0026954297520412e+00  -1.1158836406695913e+00  -1.2338345736311214e+00 
 -1.3428782441556033e+00  -1.4277054540748171e+00  -1.4729058006717144e+00  -1.9980091986531920e-01 
 -1.5200595746674983e-01  -1.3650258867867754e-01  -1.2976929956613664e-01  -1.1921495100232112e-01 
 -1.0532647240392758e-01  -8.7599728133028160e-02  -6.6109426871749297e-02  -4.1497474082557280e-02 
 -1.5072028165479704e-02  1.1173955791753020e-02  3.4623347946038850e-02  5.2185278831235429e-02 
 6.0522053445343622e-02  5.6435573843414522e-02  3.6423580933529466e-02  4.6891927151814922e-03 
 -4.6455690102626795e-04  4.6023511457047256e-05  -4.5595359611900043e-06  4.5171169853928653e-07 
 -4.4751977984003348e-08  4.4343759348459363e-09  -4.4068893395608681e-10  4.3987927393164716e-11 
 -4.1341820474028872e-12  -1.4650056621708288e-13  8.4608611272428793e-14  -1.5968748720795101e-13 
 1.7306308303970904e-13  -2.0270292791557940e-13  -2.9389789032603074e-13  -4.0017125421729334e-14 
 1.8132040280384023e-14  -1.6496418901891220e-13  1.4903272803119579e-13  -2.7668243456350734e-13 
 5.3431434979350561e-13  -6.7811161316982712e-13  1.4884304275586614e-13  1.3634781657549487e-13 
 -2.8631876938309441e-13  8.9290839180490855e-14  -1.3322134038084216e-14  -2.1895683001686934e-13 
 -3.8283454681738982e-14  3.8528645916625024e-14  -1.2554115818156798e-13  2.1336064356852280e-14 
 9.7289924079816437e-14  -2.5299585768174403e-14  3.4999111583037154e-14  4.4066751742936353e-10 
 4.0500272422169531e-10  3.7687207864644685e-10  3.5606692552254632e-10  3.4172826316736366e-10 
 3.3371220455930183e-10  3.3149844928575996e-10  3.3386436641432673e-10  3.4042038064692998e-10 
 3.4976230932194381e-10  3.6114099455012293e-10  3.7314521669290017e-10  3.8503036390729398e-10 
 3.9570836991809568e-10  4.0443223305116082e-10  0.0000000000000000e+00  0.0000000000000000e+00 
 0.0000000000000000e+00  0.0000000000000000e+00  0.0000000000000000e+00  0.0000000000000000e+00 
 0.0000000000000000e+00  0.0000000000000000e+00  0.0000000000000000e+00  0.0000000000000000e+00 
 0.0000000000000000e+00  0.0000000000000000e+00  0.0000000000000000e+00  0.0000000000000000e+00 
 0.0000000000000000e+00  0.0000000000000000e+00  0.0000000000000000e+00  0.0000000000000000e+00 
 0.0000000000000000e+00  0.0000000000000000e+00  0.0000000000000000e+00  0.0000000000000000e+00 
 0.0000000000000000e+00  0.0000000000000000e+00  0.0000000000000000e+00  0.0000000000000000e+00 
 0.0000000000000000e+00  0.0000000000000000e+00  0.0000000000000000e+00  0.0000000000000000e+00 
 0.0000000000000000e+00  0.0000000000000000e+00  0.0000000000000000e+00  0.0000000000000000e+00 
 0.0000000000000000e+00  0.0000000000000000e+00  0.0000000000000000e+00  0.0000000000000000e+00 
 0.0000000000000000e+00  0.0000000000000000e+00  0.0000000000000000e+00  0.0000000000000000e+00 
 0.0000000000000000e+00  0.0000000000000000e+00  0.0000000000000000e+00  0.0000000000000000e+00 
 0.0000000000000000e+00  0.0000000000000000e+00  0.0000000000000000e+00  0.0000000000000000e+00 
 0.0000000000000000e+00  0.0000000000000000e+00  0.0000000000000000e+00  0.0000000000000000e+00 
 0.0000000000000000e+00  0.0000000000000000e+00  0.0000000000000000e+00  0.0000000000000000e+00 
 0.0000000000000000e+00  0.0000000000000000e+00  0.0000000000000000e+00  0.0000000000000000e+00 
 0.0000000000000000e+00  0.0000000000000000e+00  0.0000000000000000e+00  0.0000000000000000e+00 
 0.0000000000000000e+00  0.0000000000000000e+00  0.0000000000000000e+00  0.0000000000000000e+00 
 0.0000000000000000e+00  0.0000000000000000e+00  0.0000000000000000e+00  0.0000000000000000e+00 
 0.0000000000000000e+00  0.0000000000000000e+00  0.0000000000000000e+00  0.0000000000000000e+00 
 0.0000000000000000e+00  0.0000000000000000e+00  0.0000000000000000e+00  0.0000000000000000e+00 
 0.0000000000000000e+00  0.0000000000000000e+00  0.0000000000000000e+00  0.0000000000000000e+00 
 0.0000000000000000e+00  0.0000000000000000e+00  0.0000000000000000e+00  0.0000000000000000e+00 
 0.0000000000000000e+00  0.0000000000000000e+00  0.0000000000000000e+00  0.0000000000000000e+00 
 0.0000000000000000e+00  0.0000000000000000e+00  0.0000000000000000e+00  0.0000000000000000e+00 
 0.0000000000000000e+00  0.0000000000000000e+00  0.0000000000000000e+00  0.0000000000000000e+00 
 0.0000000000000000e+00  0.0000000000000000e+00  0.0000000000000000e+00  0.0000000000000000e+00 
 0.0000000000000000e+00  0.0000000000000000e+00  0.0000000000000000e+00  0.0000000000000000e+00 
 0.0000000000000000e+00  0.0000000000000000e+00  0.0000000000000000e+00  0.0000000000000000e+00 
 0.0000000000000000e+00  0.0000000000000000e+00  0.0000000000000000e+00  0.0000000000000000e+00 
 0.0000000000000000e+00  0.0000000000000000e+00  0.0000000000000000e+00  -0.0000000000000000e+00 
 -0.0000000000000000e+00  -0.0000000000000000e+00  -0.0000000000000000e+00  -0.0000000000000000e+00 
 -0.0000000000000000e+00  -0.0000000000000000e+00  -0.0000000000000000e+00  -0.0000000000000000e+00 
 -0.0000000000000000e+00  -0.0000000000000000e+00  -0.0000000000000000e+00  -0.0000000000000000e+00 
 -0.0000000000000000e+00  -0.0000000000000000e+00  -0.0000000000000000e+00  -0.0000000000000000e+00 
 -0.0000000000000000e+00  -0.0000000000000000e+00  -0.0000000000000000e+00  -0.0000000000000000e+00 
 -0.0000000000000000e+00  -0.0000000000000000e+00  -0.0000000000000000e+00  -0.0000000000000000e+00 
 -0.0000000000000000e+00  -0.0000000000000000e+00  -0.0000000000000000e+00  -0.0000000000000000e+00 
 -0.0000000000000000e+00  -0.0000000000000000e+00  -0.0000000000000000e+00  -0.0000000000000000e+00 
 -0.0000000000000000e+00  -0.0000000000000000e+00  -0.0000000000000000e+00  -0.0000000000000000e+00 
 -0.0000000000000000e+00  -0.0000000000000000e+00  -0.0000000000000000e+00  -0.0000000000000000e+00 
 -0.0000000000000000e+00  -0.0000000000000000e+00  -0.0000000000000000e+00  -0.0000000000000000e+00 
 -0.0000000000000000e+00  -0.0000000000000000e+00  -0.0000000000000000e+00  -0.0000000000000000e+00 
 -0.0000000000000000e+00  -0.0000000000000000e+00  -0.0000000000000000e+00  -0.0000000000000000e+00 
 -0.0000000000000000e+00  -0.0000000000000000e+00  -0.0000000000000000e+00  -0.0000000000000000e+00 
 -0.0000000000000000e+00  -0.0000000000000000e+00  -0.0000000000000000e+00  -0.0000000000000000e+00 
 -0.0000000000000000e+00  -0.0000000000000000e+00  -0.0000000000000000e+00  -0.0000000000000000e+00 
 -0.0000000000000000e+00  -0.0000000000000000e+00  -0.0000000000000000e+00  -0.0000000000000000e+00 
 -0.0000000000000000e+00  -0.0000000000000000e+00  -0.0000000000000000e+00  -0.0000000000000000e+00 
 -0.0000000000000000e+00  -0.0000000000000000e+00  -0.0000000000000000e+00  -0.0000000000000000e+00 
 -0.0000000000000000e+00  -0.0000000000000000e+00  -0.0000000000000000e+00  -0.0000000000000000e+00 
 -0.0000000000000000e+00  -0.0000000000000000e+00  -0.0000000000000000e+00  -0.0000000000000000e+00 
 -0.0000000000000000e+00  -0.0000000000000000e+00  -0.0000000000000000e+00  -0.0000000000000000e+00 
 -0.0000000000000000e+00  -0.0000000000000000e+00  -0.0000000000000000e+00  -0.0000000000000000e+00 
 -0.0000000000000000e+00  -0.0000000000000000e+00  -0.0000000000000000e+00  -0.0000000000000000e+00 
 -0.0000000000000000e+00  -0.0000000000000000e+00  -0.0000000000000000e+00  -0.0000000000000000e+00 
 -0.0000000000000000e+00  -0.0000000000000000e+00  -0.0000000000000000e+00  -0.0000000000000000e+00 
 -0.0000000000000000e+00  -0.0000000000000000e+00  -0.0000000000000000e+00  -0.0000000000000000e+00 
 -0.0000000000000000e+00  -0.0000000000000000e+00  -0.0000000000000000e+00  -0.0000000000000000e+00 
 -0.0000000000000000e+00  -0.0000000000000000e+00  -0.0000000000000000e+00  -0.0000000000000000e+00 
 -0.0000000000000000e+00  -0.0000000000000000e+00  -0.0000000000000000e+00  -0.0000000000000000e+00 
 -0.0000000000000000e+00  -0.0000000000000000e+00  -0.0000000000000000e+00  -0.0000000000000000e+00 
 -0.0000000000000000e+00  -0.0000000000000000e+00  -0.0000000000000000e+00  -0.0000000000000000e+00 
 -0.0000000000000000e+00  -0.0000000000000000e+00  -0.0000000000000000e+00  -0.0000000000000000e+00 
 -0.0000000000000000e+00  -0.0000000000000000e+00  -0.0000000000000000e+00  -0.0000000000000000e+00 
 -0.0000000000000000e+00  -0.0000000000000000e+00  -0.0000000000000000e+00  -0.0000000000000000e+00 
 -0.0000000000000000e+00  -0.0000000000000000e+00  -0.0000000000000000e+00  -0.0000000000000000e+00 
 -0.0000000000000000e+00  -0.0000000000000000e+00  -0.0000000000000000e+00  -0.0000000000000000e+00 
 -0.0000000000000000e+00  -0.0000000000000000e+00  -0.0000000000000000e+00  -0.0000000000000000e+00 
 -0.0000000000000000e+00 
  </PP_BETA>
  <PP_BETA>
  3  2      Beta    L
  1152  
 -3.4481232746641186e-12  -3.5852568055031347e-12  -3.7278442032232135e-12  -3.8761023707503218e-12 
 -4.0302568373448621e-12  -4.1905421016751587e-12  -4.3572019885351818e-12  -4.5304900197490668e-12 
 -4.7106697998267174e-12  -4.8980154169571116e-12  -5.0928118599492790e-12  -5.2953554517552994e-12 
 -5.5059543002346136e-12  -5.7249287668455396e-12  -5.9526119539768331e-12  -6.1893502116606922e-12 
 -6.4355036644379350e-12  -6.6914467591769153e-12  -6.9575688346794461e-12  -7.2342747139401779e-12 
 -7.5219853199605314e-12  -7.8211383160537353e-12  -8.1321887716151523e-12  -8.4556098543706653e-12 
 -8.7918935501560355e-12  -9.1415514113222664e-12  -9.5051153349054231e-12  -9.8831383717446651e-12 
 -1.0276195567779278e-11  -1.0684884838804423e-11  -1.1109827880016525e-11  -1.1551671111731512e-11 
 -1.2011086662714950e-11  -1.2488773392619466e-11  -1.2985457955085230e-11  -1.3501895903120285e-11 
 -1.4038872838442493e-11  -1.4597205606531340e-11  -1.5177743539207526e-11  -1.5781369746630599e-11 
 -1.6409002460679857e-11  -1.7061596431762337e-11  -1.7740144381172372e-11  -1.8445678511212279e-11 
 -1.9179272075371313e-11  -1.9942041010951293e-11  -2.0735145636622730e-11  -2.1559792417493355e-11 
 -2.2417235800374550e-11  -2.3308780122037056e-11  -2.4235781593358854e-11  -2.5199650362383964e-11 
 -2.6201852659429593e-11  -2.7243913027505657e-11  -2.8327416641438995e-11  -2.9454011719230280e-11 
 -3.0625412029311897e-11  -3.1843399497520576e-11  -3.3109826917750659e-11  -3.4426620770411425e-11 
 -3.5795784152975782e-11  -3.7219399827078304e-11  -3.8699633386797947e-11  -4.0238736552944903e-11 
 -4.1839050598362715e-11  -4.3503009909456750e-11  -4.5233145689365823e-11  -4.7032089808411344e-11 
 -4.8902578807680317e-11  -5.0847458061833208e-11  -5.2869686107468288e-11  -5.4972339143627620e-11 
 -5.7158615711289902e-11  -5.9431841558969643e-11  -6.1795474701823130e-11  -6.4253110681957782e-11 
 -6.6808488037946606e-11  -6.9465493991868030e-11  -7.2228170362522007e-11  -7.5100719713817060e-11 
 -7.8087511747683893e-11  -8.1193089951234866e-11  -8.4422178508288238e-11  -8.7779689485763729e-11 
 -9.1270730305887028e-11  -9.4900611515566567e-11  -9.8674854864761965e-11  -1.0259920170613405e-10 
 -1.0667962172875324e-10  -1.1092232203915076e-10  -1.1533375660352876e-10  -1.1992063606549214e-10 
 -1.2468993795423493e-10  -1.2964891729871374e-10  -1.3480511766395034e-10  -1.4016638262625411e-10 
 -1.4574086770482020e-10  -1.5153705276785316e-10  -1.5756375493208788e-10  -1.6383014197533229e-10 
 -1.7034574628243275e-10  -1.7712047934587689e-10  -1.8416464684309494e-10  -1.9148896431339123e-10 
 -1.9910457345835426e-10  -2.0702305909054737e-10  -2.1525646675625021e-10  -2.2381732105907174e-10 
 -2.3271864471230000e-10  -2.4197397834897422e-10  -2.5159740111981285e-10  -2.6160355211033311e-10 
 -2.7200765260974005e-10  -2.8282552926545998e-10  -2.9407363815854353e-10  -3.0576908983655655e-10 
 -3.1792967534204715e-10  -3.3057389327617267e-10  -3.4372097793866798e-10  -3.5739092858694690e-10 
 -3.7160453985886055e-10  -3.8638343340538118e-10  -4.0175009078133585e-10  -4.1772788764421937e-10 
 -4.3434112931311676e-10  -4.5161508774181852e-10  -4.6957603996237712e-10  -4.8825130805758687e-10 
 -5.0766930072318752e-10  -5.2785955648302178e-10  -5.4885278862287915e-10  -5.7068093191138438e-10 
 -5.9337719117900572e-10  -6.1697609182906594e-10  -6.4151353235761467e-10  -6.6702683896203713e-10 
 -6.9355482232148085e-10  -7.2113783663546927e-10  -7.4981784101051309e-10  -7.7963846328810371e-10 
 -8.1064506641117460e-10  -8.4288481743000387e-10  -8.7640675925250792e-10  -9.1126188524809694e-10 
 -9.4750321681855103e-10  -9.8518588405395494e-10  -1.0243672095963427e-09  -1.0651067958386624e-09 
 -1.1074666155916877e-09  -1.1515111063568018e-09  -1.1973072683480694e-09  -1.2449247664126956e-09 
 -1.2944360360049264e-09  -1.3459163933745897e-09  -1.3994441501378996e-09  -1.4551007324048109e-09 
 -1.5129708046441210e-09  -1.5731423984747966e-09  -1.6357070465793652e-09  -1.7007599219431574e-09 
 -1.7683999826311461e-09  -1.8387301223226707e-09  -1.9118573268330161e-09  -1.9878928368599290e-09 
 -2.0669523172026925e-09  -2.1491560327111167e-09  -2.2346290312321622e-09  -2.3235013338324238e-09 
 -2.4159081325859258e-09  -2.5119899962280268e-09  -2.6118930839883144e-09  -2.7157693679278062e-09 
 -2.8237768641185832e-09  -2.9360798730176427e-09  -3.0528492294005281e-09  -3.1742625622350238e-09 
 -3.3005045648901722e-09  -3.4317672760916778e-09  -3.5682503720511169e-09  -3.7101614702132952e-09 
 -3.8577164450838567e-09  -4.0111397566176014e-09  -4.1706647916669515e-09  -4.3365342190101373e-09 
 -4.5090003584990799e-09  -4.6883255648884990e-09  -4.8747826269302586e-09  -5.0686551823399072e-09 
 -5.2702381492667416e-09  -5.4798381749238094e-09  -5.6977741020601917e-09  -5.9243774539852679e-09 
 -6.1599929388826872e-09  -6.4049789741814432e-09  -6.6597082317813911e-09  -6.9245682049629303e-09 
 -7.1999617978430912e-09  -7.4863079382747195e-09  -7.7840422151211981e-09  -8.0936175408760449e-09 
 -8.4155048406354693e-09  -8.7501937684718384e-09  -9.0981934522980594e-09  -9.4600332683557051e-09 
 -9.8362636465051934e-09  -1.0227456907543147e-08  -1.0634208133820397e-08  -1.1057136074485478e-08 
 -1.1496884086730233e-08  -1.1954121114469622e-08  -1.2429542705944624e-08  -1.2923872071796059e-08 
 -1.3437861185218985e-08  -1.3972291925871218e-08  -1.4527977269276332e-08  -1.5105762523530114e-08 
 -1.5706526615192245e-08  -1.6331183426319088e-08  -1.6980683184671582e-08  -1.7656013909213097e-08 
 -1.8358202913096312e-08  -1.9088318366425246e-08  -1.9847470921170257e-08  -2.0636815400707506e-08 
 -2.1457552556552910e-08  -2.2310930894964141e-08  -2.3198248576187790e-08  -2.4120855389242207e-08 
 -2.5080154805239478e-08  -2.6077606112370753e-08  -2.7114726635802058e-08  -2.8193094045858360e-08 
 -2.9314348758006723e-08  -3.0480196428289771e-08  -3.1692410548006013e-08  -3.2952835141583385e-08 
 -3.4263387571751324e-08  -3.5626061456277631e-08  -3.7042929700708598e-08  -3.8516147651724642e-08 
 -4.0047956375909802e-08  -4.1640686068922450e-08  -4.3296759600253081e-08  -4.5018696198963457e-08 
 -4.6809115286011944e-08  -4.8670740458996933e-08  -5.0606403635379189e-08  -5.2619049360487292e-08 
 -5.4711739286858838e-08  -5.6887656831732663e-08  -5.9150112019776776e-08  -6.1502546518420426e-08 
 -6.3948538873449593e-08  -6.6491809952831617e-08  -6.9136228607050419e-08  -7.1885817554562645e-08 
 -7.4744759501331138e-08  -7.7717403503742789e-08  -8.0808271584591470e-08  -8.4022065612192845e-08 
 -8.7363674453094437e-08  -9.0838181409264354e-08  -9.4450871951072044e-08  -9.8207241757826721e-08 
 -1.0211300507810463e-07  -1.0617410342258648e-07  -1.1039671460262735e-07  -1.1478726212831284e-07 
 -1.1935242498029677e-07  -1.2409914777028889e-07  -1.2903465130565157e-07  -1.3416644357417487e-07 
 -1.3950233116574620e-07  -1.4505043114828780e-07  -1.5081918341603519e-07  -1.5681736352893731e-07 
 -1.6305409606271731e-07  -1.6953886848990286e-07  -1.7628154561294587e-07  -1.8329238457139020e-07 
 -1.9058205044592108e-07  -1.9816163248303474e-07  -2.0604266096501646e-07  -2.1423712475089139e-07 
 -2.2275748951503890e-07  -2.3161671671121744e-07  -2.4082828329085606e-07  -2.5040620220560985e-07 
 -2.6036504372538145e-07  -2.7071995760423670e-07  -2.8148669612794310e-07  -2.9268163807819804e-07 
 -3.0432181365001634e-07  -3.1642493036017430e-07  -3.2900939998614842e-07  -3.4209436657652950e-07 
 -3.5569973557552811e-07  -3.6984620410590155e-07  -3.8455529245636353e-07  -3.9984937682139938e-07 
 -4.1575172334329992e-07  -4.3228652350821628e-07  -4.4947893095009135e-07  -4.6735509971847514e-07 
 -4.8594222406845195e-07  -5.0526857983322674e-07  -5.2536356744233231e-07  -5.4625775665091129e-07 
 -5.6798293304813713e-07  -5.9057214641556196e-07  -6.1405976100895686e-07  -6.3848150784018198e-07 
 -6.6387453903864437e-07  -6.9027748437505575e-07  -7.1773051003352446e-07  -7.4627537972141627e-07 
 -7.7595551820998324e-07  -8.0681607740246128e-07  -8.3890400503017888e-07  -8.7226811608124249e-07 
 -9.0695916707046527e-07  -9.4302993326363696e-07  -9.8053528897360728e-07  -1.0195322910504102e-06 
 -1.0600802656925179e-06  -1.1022408987113274e-06  -1.1460783293862811e-06  -1.1916592480534558e-06 
 -1.2390529975761899e-06  -1.2883316788521433e-06  -1.3395702605174534e-06  -1.3928466930149166e-06 
 -1.4482420271998407e-06  -1.5058405376641306e-06  -1.5657298509663117e-06  -1.6280010789626926e-06 
 -1.6927489574426414e-06  -1.7600719902790225e-06  -1.8300725993132102e-06  -1.9028572802029170e-06 
 -1.9785367644700382e-06  -2.0572261879952466e-06  -2.1390452662158675e-06  -2.2241184762937677e-06 
 -2.3125752465305898e-06  -2.4045501533187844e-06  -2.5001831259282468e-06  -2.5996196594404121e-06 
 -2.7030110361540706e-06  -2.8105145557999688e-06  -2.9222937749147702e-06  -3.0385187557389729e-06 
 -3.1593663250176927e-06  -3.2850203430985321e-06  -3.4156719837362723e-06  -3.5515200250306079e-06 
 -3.6927711519399060e-06  -3.8396402708318831e-06  -3.9923508365501657e-06  -4.1511351924949549e-06 
 -4.3162349242358440e-06  -4.4879012271953615e-06  -4.6663952889634108e-06  -4.8519886868249704e-06 
 -5.0449638011066341e-06  -5.2456142449717609e-06  -5.4542453113191137e-06  -5.6711744374656635e-06 
 -5.8967316883218424e-06  -6.1312602587952933e-06  -6.3751169961887414e-06  -6.6286729433880973e-06 
 -6.8923139036684761e-06  -7.1664410279789977e-06  -7.4514714256012576e-06  -7.7478387991126253e-06 
 -8.0559941046216106e-06  -8.3764062382821974e-06  -8.7095627501333571e-06  -9.0559705863522056e-06 
 -9.4161568610521618e-06  -9.7906696588030982e-06  -1.0180078869096827e-05  -1.0584977054030560e-05 
 -1.1005980350531505e-05  -1.1443729408498242e-05  -1.1898890366289969e-05  -1.2372155865051203e-05 
 -1.2864246103419383e-05  -1.3375909934223884e-05  -1.3907926004849932e-05  -1.4461103943006821e-05 
 -1.5036285589709741e-05  -1.5634346281357046e-05  -1.6256196182858602e-05  -1.6902781673850408e-05 
 -1.7575086790110889e-05  -1.8274134722379199e-05  -1.9000989374863284e-05  -1.9756756985817178e-05 
 -2.0542587812661878e-05  -2.1359677884222402e-05  -2.2209270822757832e-05  -2.3092659738565738e-05 
 -2.4011189200055787e-05  -2.4966257282301581e-05  -2.5959317697199992e-05  -2.6991882008493236e-05 
 -2.8065521935037866e-05  -2.9181871745840825e-05  -3.0342630750522693e-05  -3.1549565889016004e-05 
 -3.2804514424456476e-05  -3.4109386743385216e-05  -3.5466169267543635e-05  -3.6876927481714433e-05 
 -3.8343809082239589e-05  -3.9869047251032148e-05  -4.1454964060091076e-05  -4.3103974011728304e-05 
 -4.4818587719927010e-05  -4.6601415738465351e-05  -4.8455172541665955e-05  -5.0382680663867107e-05 
 -5.2386875003954529e-05  -5.4470807301546344e-05  -5.6637650791688917e-05  -5.8890705045195444e-05 
 -6.1233401002044112e-05  -6.3669306205552196e-05  -6.6202130245348971e-05  -7.3077381236017939e-05 
 -7.5984449153996015e-05  -7.9007182417103759e-05  -8.2150184421374769e-05  -8.5418241863970056e-05 
 -8.8816332047884683e-05  -9.2349630478138684e-05  -9.6023518761110741e-05  -9.9843592819137705e-05 
 -1.0381567143298951e-04  -1.0794580512533806e-04  -1.1224028539886360e-04  -1.1670565434318863e-04 
 -1.2134871462540276e-04  -1.2617653987953233e-04  -1.3119648551092466e-04  -1.3641619993216549e-04 
 -1.4184363624780586e-04  -1.4748706440587868e-04  -1.5335508383490190e-04  -1.5945663658582359e-04 
 -1.6580102099914072e-04  -1.7239790591824398e-04  -1.7925734547088242e-04  -1.8638979444152775e-04 
 -1.9380612425834003e-04  -2.0151763961937571e-04  -2.0953609578369244e-04  -2.1787371655402493e-04 
 -2.2654321297878725e-04  -2.3555780280227763e-04  -2.4493123069312339e-04  -2.5467778928221953e-04 
 -2.6481234104267057e-04  -2.7535034104557345e-04  -2.8630786062681945e-04  -2.9770161200154340e-04 
 -3.0954897386430754e-04  -3.2186801801466252e-04  -3.3467753704931894e-04  -3.4799707316383692e-04 
 -3.6184694810848379e-04  -3.7624829434469823e-04  -3.9122308745050881e-04  -4.0679417982518212e-04 
 -4.2298533574543207e-04  -4.3982126782764224e-04  -4.5732767495274853e-04  -4.7553128171274125e-04 
 -4.9445987944012353e-04  -5.1414236888416810e-04  -5.3460880460038068e-04  -5.5589044112231009e-04 
 -5.7801978098761110e-04  -6.0103062469322619e-04  -6.2495812265756011e-04  -6.4983882927071028e-04 
 -6.7571075911711058e-04  -7.0261344545834669e-04  -7.3058800106751251e-04  -7.5967718151015288e-04 
 -7.8992545097075295e-04  -8.2137905072770081e-04  -8.5408607038388741e-04  -8.8809652196445593e-04 
 -9.2346241699774656e-04  -9.6023784670020405e-04  -9.9847906539094855e-04  -1.0382445772668255e-03 
 -1.0795952266740459e-03  -1.1225942920181455e-03  -1.1673075834596630e-03  -1.2138035445490244e-03 
 -1.2621533579603441e-03  -1.3124310554903241e-03  -1.3647136324952511e-03  -1.4190811669461062e-03 
 -1.4756169432891188e-03  -1.5344075813067354e-03  -1.5955431701817828e-03  -1.6591174079763878e-03 
 -1.7252277467450076e-03  -1.7939755435094067e-03  -1.8654662173362374e-03  -1.9398094127610148e-03 
 -2.0171191698195000e-03  -2.0975141009527565e-03  -2.1811175750641168e-03  -2.2680579090217719e-03 
 -2.3584685669036805e-03  -2.4524883673043758e-03  -2.5502616990256848e-03  -2.6519387454951725e-03 
 -2.7576757182633592e-03  -2.8676350999483780e-03  -2.9819858970122001e-03  -3.1009039027628639e-03 
 -3.2245719710003811e-03  -3.3531803007334801e-03  -3.4869267324174839e-03  -3.6260170561756631e-03 
 -3.7706653324898910e-03  -3.9210942258624190e-03  -4.0775353519712457e-03  -4.2402296388623873e-03 
 -4.4094277027436641e-03  -4.5853902389657421e-03  -4.7683884287984734e-03  -4.9587043626390520e-03 
 -5.1566314803041732e-03  -5.3624750290912262e-03  -5.5765525403172851e-03  -5.7991943250675733e-03 
 -6.0307439899220132e-03  -6.2715589734447380e-03  -6.5220111042632199e-03  -6.7824871815852818e-03 
 -7.0533895790370130e-03  -7.3351368727384882e-03  -7.6281644945621271e-03  -7.9329254115581751e-03 
 -8.2498908325629068e-03  -8.5795509430422363e-03  -8.9224156692595258e-03  -9.2790154728941698e-03 
 -9.6499021772755902e-03  -1.0035649826435350e-02  -1.0436855578220819e-02  -1.0854140632753535e-02 
 -1.1288151197556074e-02  -1.1739559490712851e-02  -1.2209064783470999e-02  -1.2697394483731850e-02 
 -1.3205305261922939e-02  -1.3733584220784413e-02  -1.4283050110646140e-02  -1.4854554591812379e-02 
 -1.5448983545714208e-02  -1.6067258436529834e-02  -1.6710337725012726e-02  -1.7379218336308459e-02 
 -1.8074937183575369e-02  -1.8798572749264976e-02  -1.9551246725947286e-02  -2.0334125718600275e-02 
 -2.1148423010312542e-02  -2.1995400393371507e-02  -2.2876370067732181e-02  -2.3792696608881187e-02 
 -2.4745799007120591e-02  -2.5737152780306194e-02  -2.6768292162075213e-02  -2.7840812367592928e-02 
 -2.8956371938834796e-02  -3.0116695171401628e-02  -3.1323574624829591e-02  -3.2578873718321785e-02 
 -3.3884529413771410e-02  -3.5242554987884145e-02  -3.6655042895127360e-02  -3.8124167723142227e-02 
 -3.9652189242143157e-02  -4.1241455549703460e-02  -4.2894406312177571e-02  -4.4613576103845483e-02 
 -4.6401597844674659e-02  -4.8261206337373033e-02  -5.0195241904188594e-02  -5.2206654123598387e-02 
 -5.4298505666803935e-02  -5.6473976233533944e-02  -5.8736366586366301e-02  -6.1089102682304726e-02 
 -6.3535739900019553e-02  -6.6079967360531219e-02  -6.8725612338726552e-02  -7.1476644762441380e-02 
 -7.4337181795292612e-02  -7.7311492498689904e-02  -8.0404002567837432e-02  -8.3619299135700625e-02 
 -8.6962135638066498e-02  -9.0437436732014889e-02  -9.4050303259090681e-02  -9.7806017243520255e-02 
 -1.0171004691467896e-01  -1.0576805174195716e-01  -1.0998588746894283e-01  -1.1436961113254338e-01 
 -1.1892548605143638e-01  -1.2365998676677269e-01  -1.2857980391669160e-01  -1.3369184902465769e-01 
 -1.3900325918011086e-01  -1.4452140158841040e-01  -1.5025387796524053e-01  -1.5620852874921781e-01 
 -1.6239343710465179e-01  -1.6881693268457615e-01  -1.7548759512300172e-01  -1.8241425722278490e-01 
 -1.8960600780498291e-01  -1.9707219418285735e-01  -2.0482242422314162e-01  -2.1286656795502093e-01 
 -2.2121475868649190e-01  -2.2987739358618361e-01  -2.3886513368818646e-01  -2.4818890327613313e-01 
 -2.5785988860269016e-01  -2.6788953590001185e-01  -2.7828954863699357e-01  -2.8907188397926037e-01 
 -3.0024874840892007e-01  -3.1183259246203660e-01  -3.2383610454368589e-01  -3.3627220378237893e-01 
 -3.4915403188874727e-01  -3.6249494398627069e-01  -3.7630849838620389e-01  -3.9060844528336058e-01 
 -4.0540871435430120e-01  -4.2072340124647117e-01  -4.3656675295220604e-01  -4.5295315207031051e-01 
 -4.6989709996492157e-01  -4.8741319884094919e-01  -5.0551613276425500e-01  -5.2422064766509413e-01 
 -5.4354153037342079e-01  -5.6349358674557015e-01  -5.8409161895294870e-01  -6.0535040201385248e-01 
 -6.2728465966094493e-01  -6.4990903964665736e-01  -6.7323808859878842e-01  -6.9728622654702954e-01 
 -7.2206772124797824e-01  -7.4759666244192158e-01  -7.7388693617718030e-01  -8.0095219933823614e-01 
 -8.2880585451024080e-01  -8.5746102530587320e-01  -8.8693053226813523e-01  -9.1722686944618259e-01 
 -9.4836218171827047e-01  -9.8034824290689426e-01  -1.0131964346943469e+00  -1.0469177263034313e+00 
 -1.0815226548554222e+00  -1.1170213062563181e+00  -1.1534232963927973e+00  -1.1907377523398266e+00 
 -1.2289732931937420e+00  -1.2681380100476243e+00  -1.3082394445199095e+00  -1.3492845651349490e+00 
 -1.3912797407347446e+00  -1.4342307099779794e+00  -1.4781425458573492e+00  -1.5230196140411374e+00 
 -1.5688655237251350e+00  -1.6156830695689122e+00  -1.6634741631922259e+00  -1.7122397526274737e+00 
 -1.7619797280706704e+00  -1.8126928122519588e+00  -1.8643764337658093e+00  -1.9170265817703427e+00 
 -1.9706376405919088e+00  -2.0252022029668053e+00  -2.0807108609250360e+00  -2.1371519736824816e+00 
 -2.1945114123654386e+00  -2.2527722819558287e+00  -2.3119146215214639e+00  -2.3719150845903796e+00 
 -2.4327466024434057e+00  -2.4943780341341051e+00  -2.5567738081945488e+00  -2.6198935622400699e+00 
 -2.6836917880280797e+00  -2.7481175226085215e+00  -2.8131139083897292e+00  -2.8786180965513926e+00 
 -2.9445608988162575e+00  -3.0108666517239757e+00  -3.0774531315934075e+00  -3.1442315656997963e+00 
 -3.2111067564938458e+00  -3.2779773352803998e+00  -3.3447361619231084e+00  -3.4112708850230238e+00 
 -3.4774646756040628e+00  -3.5431971438743952e+00  -3.6083454451604329e+00  -3.6727855754050909e+00 
 -3.7363938511338954e+00  -3.7990485610485876e+00  -3.8606317677911872e+00  -3.9210312295534711e+00 
 -3.9801423645556722e+00  -4.0378704246357842e+00  -4.0941322543766132e+00  -4.1488583234292937e+00 
 -4.2019943618522024e+00  -4.2535027392772324e+00  -4.3033634436429828e+00  -4.3515745481546286e+00 
 -4.3981520551472988e+00  -4.4431290043690650e+00  -4.4865537445515811e+00  -4.5284872762599617e+00 
 -4.5689995991819723e+00  -4.6081650214309988e+00  -4.6460564287819439e+00  -4.6827385554250771e+00 
 -4.7182603525272873e+00  -4.7526466143871415e+00  -4.7858890887853214e+00  -4.8179373741649298e+00 
 -4.8486899810039414e+00  -4.8779860087927620e+00  -4.9055979589092011e+00  -4.9312262587223472e+00 
 -4.9544961103677263e+00  -4.9749572903301758e+00  -4.9920875046100042e+00  -5.0052998441929386e+00 
 -5.0139547776093085e+00  -5.0173769571191187e+00  -5.0148769002793525e+00  -5.0057773376991417e+00 
 -4.9894436959578341e+00  -4.9653178210540485e+00  -4.9329536572719634e+00  -4.8920531973604611e+00 
 -4.8425006455125565e+00  -4.7843924080704596e+00  -4.7180602951260715e+00  -4.6440852090365787e+00 
 -4.5632986605090178e+00  -4.4767697204559243e+00  -4.3857755182207603e+00  -4.2917541544716293e+00 
 -4.1962399111004229e+00  -4.1007819020300156e+00  -4.0068487751933963e+00  -3.9157236900148313e+00 
 -3.8283954581290698e+00  -3.7454533297787398e+00  -3.6669942754973004e+00  -3.5925525746011560e+00 
 -3.5210618741796553e+00  -3.4508594195199742e+00  -3.3797406852726573e+00  -3.3050700078866613e+00 
 -3.2239489646181378e+00  -3.1334392137453957e+00  -3.0308305130716571e+00  -2.9139380655378728e+00 
 -2.7814067913943608e+00  -2.6329943579277080e+00  -2.4698006877612748e+00  -2.2944101067294920e+00 
 -2.1109140776048276e+00  -1.9247881485734413e+00  -1.7426065361372789e+00  -1.5715914346462028e+00 
 -1.4190110248568195e+00  -1.2914591256413352e+00  -1.1940690018349218e+00  -1.1297321694994789e+00 
 -1.0984079770594291e+00  -1.0966188112126432e+00  -1.1172262383874403e+00  -1.1495721087660291e+00 
 -1.1800453356154110e+00  -1.1930754548339046e+00  -1.1726821042409841e+00  5.0451947759808130e-02 
 1.6233265185074847e-01  2.4631455995188209e-01  3.2312024992245886e-01  4.0269387678797353e-01 
 4.8192452093734889e-01  5.5775383851678906e-01  6.2603671281051076e-01  6.8201108884766881e-01 
 7.2077521214003193e-01  7.3789421917364284e-01  7.3005800451055103e-01  6.9570890301158028e-01 
 6.3554282308226617e-01  5.5278641710075049e-01  4.5316677622454382e-01  3.4452190280092881e-01 
 2.3603592474389010e-01  1.3724293200263232e-01  5.6011188807401434e-02  4.4198305074068149e-03 
 -4.3787126824877378e-04  4.3379775383022491e-05  -4.2976322400735557e-06  4.2586168715302747e-07 
 -4.3118840622470920e-08  1.3283638363329658e-08  -8.8809540546780756e-08  8.5817332369676379e-07 
 -8.5019020167414098e-08  8.4220875346728990e-09  -8.3429292035910816e-10  8.2509722842677172e-11 
 -7.8037726858001312e-12  5.7582721001947375e-13  -2.3525214012154620e-13  6.8938152596973531e-14 
 3.4857404553859310e-13  -6.9406842966284235e-13  -4.9469387558701813e-13  7.4847933288471213e-13 
 -5.6526298973331451e-13  1.0116957211116312e-13  2.0197876847696785e-14  -7.1634709045169706e-14 
 -1.0356551717730123e-13  2.3958949584956847e-13  -1.0162573430916434e-13  -1.6468121601865043e-13 
 3.2240592044373339e-13  -1.5827202420318727e-13  1.9587841730968447e-13  9.8705401334773673e-10 
 9.3279957217658296e-10  8.9266832967909785e-10  8.6733760623722470e-10  8.5710369643537662e-10 
 8.6188678573245970e-10  8.8177736136958523e-10  9.1531094651702276e-10  9.6197782413575978e-10 
 1.0196924749729774e-09  1.0859172712575808e-09  1.1585298544181529e-09  1.2342265593762694e-09 
 1.3106215659410733e-09  1.3843947316925871e-09  1.4534886028561466e-09  1.5149543750963756e-09 
 1.5675902072398301e-09  1.6094862703877841e-09  0.0000000000000000e+00  0.0000000000000000e+00 
 0.0000000000000000e+00  0.0000000000000000e+00  0.0000000000000000e+00  0.0000000000000000e+00 
 0.0000000000000000e+00  0.0000000000000000e+00  0.0000000000000000e+00  0.0000000000000000e+00 
 0.0000000000000000e+00  0.0000000000000000e+00  0.0000000000000000e+00  0.0000000000000000e+00 
 0.0000000000000000e+00  0.0000000000000000e+00  0.0000000000000000e+00  0.0000000000000000e+00 
 0.0000000000000000e+00  0.0000000000000000e+00  0.0000000000000000e+00  0.0000000000000000e+00 
 0.0000000000000000e+00  0.0000000000000000e+00  0.0000000000000000e+00  0.0000000000000000e+00 
 0.0000000000000000e+00  0.0000000000000000e+00  0.0000000000000000e+00  0.0000000000000000e+00 
 0.0000000000000000e+00  0.0000000000000000e+00  0.0000000000000000e+00  0.0000000000000000e+00 
 0.0000000000000000e+00  0.0000000000000000e+00  0.0000000000000000e+00  0.0000000000000000e+00 
 0.0000000000000000e+00  0.0000000000000000e+00  0.0000000000000000e+00  0.0000000000000000e+00 
 0.0000000000000000e+00  0.0000000000000000e+00  0.0000000000000000e+00  0.0000000000000000e+00 
 0.0000000000000000e+00  0.0000000000000000e+00  0.0000000000000000e+00  0.0000000000000000e+00 
 0.0000000000000000e+00  0.0000000000000000e+00  0.0000000000000000e+00  0.0000000000000000e+00 
 0.0000000000000000e+00  0.0000000000000000e+00  0.0000000000000000e+00  0.0000000000000000e+00 
 0.0000000000000000e+00  0.0000000000000000e+00  0.0000000000000000e+00  0.0000000000000000e+00 
 0.0000000000000000e+00  0.0000000000000000e+00  0.0000000000000000e+00  0.0000000000000000e+00 
 0.0000000000000000e+00  0.0000000000000000e+00  0.0000000000000000e+00  0.0000000000000000e+00 
 0.0000000000000000e+00  0.0000000000000000e+00  0.0000000000000000e+00  0.0000000000000000e+00 
 0.0000000000000000e+00  0.0000000000000000e+00  0.0000000000000000e+00  0.0000000000000000e+00 
 0.0000000000000000e+00  0.0000000000000000e+00  0.0000000000000000e+00  0.0000000000000000e+00 
 0.0000000000000000e+00  0.0000000000000000e+00  0.0000000000000000e+00  0.0000000000000000e+00 
 0.0000000000000000e+00  0.0000000000000000e+00  0.0000000000000000e+00  0.0000000000000000e+00 
 0.0000000000000000e+00  0.0000000000000000e+00  0.0000000000000000e+00  0.0000000000000000e+00 
 0.0000000000000000e+00  0.0000000000000000e+00  0.0000000000000000e+00  0.0000000000000000e+00 
 0.0000000000000000e+00  0.0000000000000000e+00  0.0000000000000000e+00  0.0000000000000000e+00 
 0.0000000000000000e+00  0.0000000000000000e+00  0.0000000000000000e+00  0.0000000000000000e+00 
 0.0000000000000000e+00  0.0000000000000000e+00  0.0000000000000000e+00  0.0000000000000000e+00 
 0.0000000000000000e+00  0.0000000000000000e+00  0.0000000000000000e+00  0.0000000000000000e+00 
 0.0000000000000000e+00  0.0000000000000000e+00  0.0000000000000000e+00  0.0000000000000000e+00 
 0.0000000000000000e+00  0.0000000000000000e+00  0.0000000000000000e+00  0.0000000000000000e+00 
 0.0000000000000000e+00  0.0000000000000000e+00  0.0000000000000000e+00  0.0000000000000000e+00 
 0.0000000000000000e+00  0.0000000000000000e+00  0.0000000000000000e+00  0.0000000000000000e+00 
 0.0000000000000000e+00  0.0000000000000000e+00  0.0000000000000000e+00  0.0000000000000000e+00 
 0.0000000000000000e+00  0.0000000000000000e+00  0.0000000000000000e+00  0.0000000000000000e+00 
 0.0000000000000000e+00  0.0000000000000000e+00  0.0000000000000000e+00  0.0000000000000000e+00 
 0.0000000000000000e+00  0.0000000000000000e+00  0.0000000000000000e+00  0.0000000000000000e+00 
 0.0000000000000000e+00  0.0000000000000000e+00  0.0000000000000000e+00  0.0000000000000000e+00 
 0.0000000000000000e+00  0.0000000000000000e+00  0.0000000000000000e+00  0.0000000000000000e+00 
 0.0000000000000000e+00  0.0000000000000000e+00  0.0000000000000000e+00  0.0000000000000000e+00 
 0.0000000000000000e+00  0.0000000000000000e+00  0.0000000000000000e+00  0.0000000000000000e+00 
 0.0000000000000000e+00  0.0000000000000000e+00  0.0000000000000000e+00  0.0000000000000000e+00 
 0.0000000000000000e+00  0.0000000000000000e+00  0.0000000000000000e+00  0.0000000000000000e+00 
 0.0000000000000000e+00  0.0000000000000000e+00  0.0000000000000000e+00  0.0000000000000000e+00 
 0.0000000000000000e+00  0.0000000000000000e+00  0.0000000000000000e+00  0.0000000000000000e+00 
 0.0000000000000000e+00  0.0000000000000000e+00  0.0000000000000000e+00  0.0000000000000000e+00 
 0.0000000000000000e+00  0.0000000000000000e+00  0.0000000000000000e+00  0.0000000000000000e+00 
 0.0000000000000000e+00  0.0000000000000000e+00  0.0000000000000000e+00  0.0000000000000000e+00 
 0.0000000000000000e+00  0.0000000000000000e+00  0.0000000000000000e+00  0.0000000000000000e+00 
 0.0000000000000000e+00  0.0000000000000000e+00  0.0000000000000000e+00  0.0000000000000000e+00 
 0.0000000000000000e+00  0.0000000000000000e+00  0.0000000000000000e+00  0.0000000000000000e+00 
 0.0000000000000000e+00  0.0000000000000000e+00  0.0000000000000000e+00  0.0000000000000000e+00 
 0.0000000000000000e+00  0.0000000000000000e+00  0.0000000000000000e+00  0.0000000000000000e+00 
 0.0000000000000000e+00  0.0000000000000000e+00  0.0000000000000000e+00  0.0000000000000000e+00 
 0.0000000000000000e+00  0.0000000000000000e+00  0.0000000000000000e+00  0.0000000000000000e+00 
 0.0000000000000000e+00  0.0000000000000000e+00  0.0000000000000000e+00  0.0000000000000000e+00 
 0.0000000000000000e+00  0.0000000000000000e+00  0.0000000000000000e+00  0.0000000000000000e+00 
 0.0000000000000000e+00  0.0000000000000000e+00  0.0000000000000000e+00  0.0000000000000000e+00 
 0.0000000000000000e+00  0.0000000000000000e+00  0.0000000000000000e+00  0.0000000000000000e+00 
 0.0000000000000000e+00  0.0000000000000000e+00  0.0000000000000000e+00  0.0000000000000000e+00 
 0.0000000000000000e+00  0.0000000000000000e+00  0.0000000000000000e+00  0.0000000000000000e+00 
 0.0000000000000000e+00  0.0000000000000000e+00  0.0000000000000000e+00  0.0000000000000000e+00 
 0.0000000000000000e+00  0.0000000000000000e+00  0.0000000000000000e+00  0.0000000000000000e+00 
 0.0000000000000000e+00  0.0000000000000000e+00  0.0000000000000000e+00  0.0000000000000000e+00 
 0.0000000000000000e+00  0.0000000000000000e+00  0.0000000000000000e+00  0.0000000000000000e+00 
 0.0000000000000000e+00  0.0000000000000000e+00  0.0000000000000000e+00  0.0000000000000000e+00 
 0.0000000000000000e+00  0.0000000000000000e+00  0.0000000000000000e+00  0.0000000000000000e+00 
 0.0000000000000000e+00  0.0000000000000000e+00  0.0000000000000000e+00  0.0000000000000000e+00 
 0.0000000000000000e+00 
  </PP_BETA>
  <PP_DIJ>
 3   Number of nonzero Dij
 1 1 -8.9679601015924126e-01 
 2 2 -5.4411543354577585e-01 
 3 3 -5.6635637248173021e-01 
  </PP_DIJ>
</PP_NONLOCAL>
<PP_PSWFC>
S    0   2.00          Wavefunction
 2.7407516705512826e-05  2.7766140428549500e-05  2.8129456695525016e-05  2.8497526907757956e-05 
 2.8870413269995245e-05  2.9248178800924765e-05  2.9630887343825749e-05  3.0018603577358425e-05 
 3.0411393026494847e-05  3.0809322073592882e-05  3.1212457969614860e-05  3.1620868845493265e-05 
 3.2034623723644949e-05  3.2453792529636186e-05  3.2878446104000175e-05  3.3308656214209355e-05 
 3.3744495566804262e-05  3.4186037819681036e-05  3.4633357594539942e-05  3.5086530489496517e-05 
 3.5545633091857881e-05  3.6010742991066189e-05  3.6481938791811493e-05  3.6959300127316015e-05 
 3.7442907672792469e-05  3.7932843159078359e-05  3.8429189386448724e-05  3.8932030238609508e-05 
 3.9441450696874228e-05  3.9957536854525980e-05  4.0480375931367476e-05  4.1010056288461368e-05 
 4.1546667443063497e-05  4.2090300083751595e-05  4.2641046085751894e-05  4.3198998526466198e-05 
 4.3764251701202324e-05  4.4336901139110147e-05  4.4917043619326376e-05  4.5504777187330432e-05 
 4.6100201171514481e-05  4.6703416199969999e-05  4.7314524217494447e-05  4.7933628502820036e-05 
 4.8560833686068215e-05  4.9196245766432333e-05  4.9839972130091929e-05  5.0492121568361196e-05 
 5.1152804296075081e-05  5.1822131970215768e-05  5.2500217708783227e-05  5.3187176109912255e-05 
 5.3883123271240016e-05  5.4588176809526824e-05  5.5302455880533742e-05  5.6026081199160075e-05 
 5.6759175059844919e-05  5.7501861357234776e-05  5.8254265607122445e-05  5.9016514967659463e-05 
 5.9788738260846157e-05  6.0571065994302992e-05  6.1363630383326704e-05  6.2166565373235100e-05 
 6.2980006662004143e-05  6.3804091723201423e-05  6.4638959829219536e-05  6.5484752074813449e-05 
 6.6341611400946155e-05  6.7209682618945933e-05  6.8089112434979965e-05  6.8980049474848203e-05 
 6.9882644309101317e-05  7.0797049478488032e-05  7.1723419519734589e-05  7.2661910991662112e-05 
 7.3612682501645517e-05  7.4575894732418631e-05  7.5551710469230236e-05  7.6540294627354966e-05 
 7.7541814279964984e-05  7.8556438686365403e-05  7.9584339320600076e-05  8.0625689900430995e-05 
 8.1680666416697343e-05  8.2749447163058470e-05  8.3832212766126081e-05  8.4929146215990866e-05 
 8.6040432897148246e-05  8.7166260619829305e-05  8.8306819651741083e-05  8.9462302750222629e-05 
 9.0632905194821642e-05  9.1818824820297438e-05  9.3020262050055755e-05  9.4237419930020958e-05 
 9.5470504162951559e-05  9.6719723143204802e-05  9.7985287991956229e-05  9.9267412592879482e-05 
 1.0056631362829412e-04  1.0188221061578517e-04  1.0321532594530281e-04  1.0456588491674708e-04 
 1.0593411577804428e-04  1.0732024976372208e-04  1.0872452113398882e-04  1.1014716721432481e-04 
 1.1158842843559073e-04  1.1304854837466208e-04  1.1452777379559426e-04  1.1602635469132705e-04 
 1.1754454432593435e-04  1.1908259927742693e-04  1.2064077948111524e-04  1.2221934827353988e-04 
 1.2381857243697622e-04  1.2543872224452223e-04  1.2708007150577578e-04  1.2874289761310965e-04 
 1.3042748158855245e-04  1.3213410813128239e-04  1.3386306566574301e-04  1.3561464639038828e-04 
 1.3738914632706572e-04  1.3918686537104559e-04  1.4100810734170467e-04  1.4285318003387333e-04 
 1.4472239526985457e-04  1.4661606895212387e-04  1.4853452111671805e-04  1.5047807598732343e-04 
 1.5244706203007140e-04  1.5444181200905102e-04  1.5646266304254842e-04  1.5850995666002123e-04 
 1.6058403885981979e-04  1.6268526016766224e-04  1.6481397569587653e-04  1.6697054520341552e-04 
 1.6915533315665969e-04  1.7136870879101333e-04  1.7361104617330842e-04  1.7588272426502451e-04 
 1.7818412698633528e-04  1.8051564328099422e-04  1.8287766718206878e-04  1.8527059787853481e-04 
 1.8769483978274228e-04  1.9015080259876424e-04  1.9263890139164012e-04  1.9515955665752409e-04 
 1.9771319439475344e-04  2.0030024617584484e-04  2.0292114922043408e-04  2.0557634646917007e-04 
 2.0826628665857443e-04  2.1099142439688352e-04  2.1375222024088008e-04  2.1654914077373215e-04 
 2.1938265868384923e-04  2.2225325284477184e-04  2.2516140839610538e-04  2.2810761682551318e-04 
 2.3109237605178359e-04  2.3411619050898235e-04  2.3717957123170795e-04  2.4028303594146179e-04 
 2.4342710913414822e-04  2.4661232216872058e-04  2.4983921335698666e-04  2.5310832805458972e-04 
 2.5642021875317978e-04  2.5977544517379199e-04  2.6317457436144466e-04  2.6661818078097931e-04 
 2.7010684641415057e-04  2.7364116085798972e-04  2.7722172142445416e-04  2.8084913324138115e-04 
 2.8452400935476309e-04  2.8824697083236017e-04  2.9201864686867186e-04  2.9583967489127698e-04 
 2.9971070066857179e-04  3.0363237841891271e-04  3.0760537092119076e-04  3.1163034962685109e-04 
 3.1570799477337986e-04  3.1983899549927554e-04  3.2402404996052624e-04  3.2826386544860934e-04 
 3.3255915851003638e-04  3.3691065506746381e-04  3.4131909054238715e-04  3.4578520997944137e-04 
 3.5030976817232765e-04  3.5489352979139002e-04  3.5953726951286000e-04  3.6424177214979285e-04 
 3.6900783278471930e-04  3.7383625690402974e-04  3.7872786053412332e-04  3.8368347037933239e-04 
 3.8870392396165611e-04  3.9379006976232388e-04  3.9894276736520675e-04  4.0416288760211150e-04 
 4.0945131269997325e-04  4.1480893642997590e-04  4.2023666425862325e-04  4.2573541350078852e-04 
 4.3130611347476811e-04  4.3694970565936255e-04  4.4266714385301516e-04  4.4845939433503388e-04 
 4.5432743602892312e-04  4.6027226066785347e-04  4.6629487296229703e-04  4.7239629076985972e-04 
 4.7857754526733253e-04  4.8483968112499797e-04  4.9118375668321832e-04  4.9761084413133558e-04 
 5.0412202968890994e-04  5.1071841378933685e-04  5.1740111126586264e-04  5.2417125154003981e-04 
 5.3102997881264403e-04  5.3797845225709716e-04  5.4501784621541725e-04  5.5214935039673663e-04 
 5.5937417007841865e-04  5.6669352630980699e-04  5.7410865611864448e-04  5.8162081272019055e-04 
 5.8923126572908322e-04  5.9694130137396737e-04  6.0475222271494042e-04  6.1266534986384046e-04 
 6.2068202020742135e-04  6.2880358863344921e-04  6.3703142775975940e-04  6.4536692816631450e-04 
 6.5381149863029994e-04  6.6236656636429699e-04  6.7103357725757922e-04  6.7981399612056356e-04 
 6.8870930693246807e-04  6.9772101309220765e-04  7.0685063767258322e-04  7.1609972367778912e-04 
 7.2546983430430833e-04  7.3496255320520888e-04  7.4457948475791533e-04  7.5432225433547703e-04 
 7.6419250858140054e-04  7.7419191568807325e-04  7.8432216567883757e-04  7.9458497069376265e-04 
 8.0498206527915609e-04  8.1551520668087137e-04  8.2618617514145702e-04  8.3699677420119947e-04 
 8.4794883100310894e-04  8.5904419660190316e-04  8.7028474627704128e-04  8.8167237984985395e-04 
 8.9320902200483790e-04  9.0489662261515136e-04  9.1673715707238498e-04  9.2873262662064560e-04 
 9.4088505869502814e-04  9.5319650726451339e-04  9.6566905317936906e-04  9.7830480452310324e-04 
 9.9110589696902699e-04  1.0040744941414938e-03  1.0172127879818800e-03  1.0305229991193548e-03 
 1.0440073772465166e-03  1.0576682014999577e-03  1.0715077808458105e-03  1.0855284544703594e-03 
 1.0997325921757704e-03  1.1141225947810104e-03  1.1287008945280261e-03  1.1434699554932518e-03 
 1.1584322740045133e-03  1.1735903790634052e-03  1.1889468327732024e-03  1.2045042307723909e-03 
 1.2202652026738899e-03  1.2362324125100299e-03  1.2524085591833795e-03  1.2687963769234764e-03 
 1.2853986357495683e-03  1.3022181419394183e-03  1.3192577385042650e-03  1.3365203056700259e-03 
 1.3540087613648022e-03  1.3717260617128117e-03  1.3896752015347771e-03  1.4078592148549134e-03 
 1.4262811754145554e-03  1.4449441971925449e-03  1.4638514349324453e-03  1.4830060846766882e-03 
 1.5024113843077423e-03  1.5220706140963813e-03  1.5419870972571759e-03  1.5621642005112671e-03 
 1.5826053346565596e-03  1.6033139551453971e-03  1.6242935626698356e-03  1.6455477037546193e-03 
 1.6670799713579519e-03  1.6888940054801749e-03  1.7109934937804443e-03  1.7333821722015400e-03 
 1.7560638256028747e-03  1.7790422884018543e-03  1.8023214452236741e-03  1.8259052315596708e-03 
 1.8497976344343423e-03  1.8740026930811550e-03  1.8985244996272555e-03  1.9233671997872018e-03 
 1.9485349935658345e-03  1.9740321359704121e-03  1.9998629377321452e-03  2.0260317660372286e-03 
 2.0525430452675228e-03  2.0794012577510066e-03  2.1066109445221229e-03  2.1341767060921741e-03 
 2.1621032032298694e-03  2.1903951577521858e-03  2.2190573533256712e-03  2.2480946362783334e-03 
 2.2775119164222513e-03  2.3073141678870688e-03  2.3375064299644842e-03  2.3680938079639305e-03 
 2.3990814740795525e-03  2.4304746682686706e-03  2.4622786991418603e-03  2.4944989448648035e-03 
 2.5271408540721097e-03  2.5602099467932145e-03  2.5937118153905553e-03  2.6276521255101859e-03 
 2.6620366170449876e-03  2.6968711051106524e-03  2.7321614810346317e-03  2.7679137133581953e-03 
 2.8041338488517809e-03  2.8408280135438797e-03  2.8780024137635310e-03  2.9156633371967239e-03 
 2.9538171539568118e-03  2.9924703176691918e-03  3.0316293665704082e-03  3.0713009246218928e-03 
 3.1114917026385438e-03  3.1522084994323359e-03  3.1934582029711964e-03  3.2352477915533304e-03 
 3.2775843349972145e-03  3.3204749958474903e-03  3.3639270305969656e-03  3.4079477909249489e-03 
 3.4525447249521583e-03  3.4977253785124078e-03  3.5434973964413234e-03  3.5898685238823511e-03 
 3.6368466076102442e-03  3.6844395973723112e-03  3.7326555472476895e-03  3.7815026170248491e-03 
 3.8309890735976236e-03  3.8811232923800327e-03  3.9319137587401232e-03  3.9833690694531304e-03 
 4.0354979341742569e-03  4.0883091769312770e-03  4.1418117376373197e-03  4.1960146736240772e-03 
 4.2509271611957640e-03  4.3065584972040898e-03  4.3629181006445677e-03  4.4200155142744895e-03 
 4.4778604062528024e-03  4.5364625718023344e-03  4.5958319348945453e-03  4.6559785499572567e-03 
 4.7169126036056075e-03  4.7786444163966397e-03  4.8411844446078212e-03  4.9045432820398775e-03 
 4.9687316618442761e-03  5.0337604583757262e-03  5.0996406890701325e-03  5.1663835163482707e-03 
 5.2340002495456289e-03  5.3025023468688389e-03  5.3719014173790394e-03  5.4422092230025860e-03 
 5.5134376805695768e-03  5.5855988638805415e-03  5.6587050058017419e-03  5.7327685003896039e-03 
 5.8078019050445944e-03  5.8838179426950769e-03  5.9608295040116197e-03  6.0388496496521721e-03 
 6.1178916125386330e-03  6.1979688001653098e-03  6.2790947969397102e-03  6.3612833665562191e-03 
 6.4445484544032290e-03  6.5289041900041334e-03  6.6143648894928086e-03  6.7009450581241633e-03 
 6.7886593928202050e-03  6.8775227847523053e-03  6.9675503219602279e-03  7.0587572920084649e-03 
 7.1511591846805276e-03  7.2447716947118979e-03  7.3396107245620708e-03  7.4356923872265666e-03 
 7.5330330090894390e-03  7.6316491328170021e-03  7.7315575202934438e-03  7.8327751555991223e-03 
 7.9353192480321050e-03  8.0392072351738678e-03  8.1444567859998308e-03  8.2510858040354684e-03 
 8.3591124305588769e-03  8.4685550478505022e-03  8.5794322824910042e-03  8.6917630087079267e-03 
 8.8055663517722198e-03  8.9208616914453597e-03  9.0376686654780429e-03  9.1560071731614373e-03 
 9.2758973789318216e-03  9.3973597160296844e-03  9.5204148902142873e-03  9.6450838835346071e-03 
 9.7713879581579274e-03  9.8993486602568757e-03  1.0028987823956288e-02  1.0160327575340780e-02 
 1.0293390336524447e-02  1.0428198829783655e-02  1.0564776081754258e-02  1.0703145427694532e-02 
 1.0843330515815005e-02  1.0985355311676577e-02  1.1129244102658298e-02  1.1275021502496150e-02 
 1.1422712455894267e-02  1.1572342243210154e-02  1.1723936485215258e-02  1.1877521147932550e-02 
 1.2033122547552767e-02  1.2190767355430742e-02  1.2350482603163746e-02  1.2512295687753394e-02 
 1.2676234376853087e-02  1.2842326814102469e-02  1.3010601524551338e-02  1.3181087420174365e-02 
 1.3353813805478964e-02  1.3528810383208358e-02  1.3706107260141764e-02  1.3885734952994031e-02 
 1.4067724394417022e-02  1.4252106939104779e-02  1.4438914370005114e-02  1.4628178904640075e-02 
 1.4819933201537544e-02  1.5014210366776868e-02  1.5211043960651057e-02  1.5410468004448301e-02 
 1.5612516987355695e-02  1.5817225873488147e-02  1.6024630109045455e-02  1.6234765629600554e-02 
 1.6447668867522521e-02  1.6663376759537187e-02  1.6881926754429209e-02  1.7103356820888860e-02 
 1.7327705455507388e-02  1.7555011690924535e-02  1.7785315104132393e-02  1.8018655824939261e-02 
 1.8255074544597977e-02  1.8494612524602921e-02  1.8737311605659997e-02  1.8983214216834483e-02 
 1.9232363384881115e-02  1.9484802743761638e-02  1.9740576544354717e-02  1.9999729664363485e-02 
 2.0262307618426154e-02  2.0528356568435220e-02  2.0797923334071291e-02  2.1071055403557165e-02 
 2.1347800944638659e-02  2.1628208815798505e-02  2.1912328577709844e-02  2.2200210504936421e-02 
 2.2491905597886351e-02  2.2787465595026979e-02  2.3086942985368220e-02  2.3390391021222735e-02 
 2.3697863731250553e-02  2.4009415933796827e-02  2.4325103250531711e-02  2.4644982120400925e-02 
 2.4969109813896866e-02  2.5297544447659789e-02  2.5630344999419033e-02  2.5967571323284890e-02 
 2.6309284165401979e-02  2.6655545179975180e-02  2.7006416945679759e-02  2.7361962982467819e-02 
 2.7722247768783553e-02  2.8087336759200016e-02  2.8457296402491245e-02  2.8832194160153105e-02 
 2.9212098525387583e-02  2.9597079042565692e-02  2.9987206327183706e-02  3.0382552086329596e-02 
 3.0783189139675884e-02  3.1189191441016305e-02  3.1600634100363977e-02  3.2017593406630115e-02 
 3.2440146850901991e-02  3.2868373150340295e-02  3.3302352272717044e-02  3.3742165461614737e-02 
 3.4187895262309496e-02  3.4639625548361461e-02  3.5097441548935876e-02  3.5561429876880178e-02 
 3.6031678557582603e-02  3.6508277058639169e-02  3.6991316320356599e-02  3.7480888787120324e-02 
 3.7977088439656831e-02  3.8480010828221674e-02  3.8989753106745031e-02  3.9506414067968385e-02 
 4.0030094179606179e-02  4.0560895621568914e-02  4.1098922324284207e-02  4.1644280008154497e-02 
 4.2197076224191270e-02  4.2757420395866975e-02  4.3325423862227347e-02  4.3901199922308690e-02 
 4.4484863880905993e-02  4.5076533095739377e-02  4.5676327026068317e-02  4.6284367282804779e-02 
 4.6900777680177787e-02  4.7525684289004777e-02  4.8159215491625947e-02  4.8801502038560471e-02 
 4.9452677106945245e-02  5.0112876360819097e-02  5.0782238013317223e-02  5.1460902890843242e-02 
 5.2149014499288077e-02  5.2846719092367399e-02  5.3554165742152431e-02  5.4271506411869404e-02 
 5.4998896031047795e-02  5.5736492573098401e-02  5.6484457135405230e-02  5.7242954022018504e-02 
 5.8012150829037198e-02  5.8792218532774172e-02  5.9583331580797746e-02  6.0385667985948063e-02 
 6.1199409423427470e-02  6.2024741331068924e-02  6.2861853012887534e-02  6.3710937746023877e-02 
 6.4572192891190566e-02  6.5445820006735919e-02  6.6332024966441264e-02  6.7231018081171365e-02 
 6.8143014224499920e-02  6.9068232962434153e-02  7.0006898687365163e-02  7.0959240756373401e-02 
 7.1925493634020218e-02  7.2905897039757764e-02  7.3900696100093533e-02  7.4910141505643874e-02 
 7.5934489673215783e-02  7.6974002913055020e-02  7.8028949601398764e-02  7.9099604358474421e-02 
 8.0186248232082369e-02  8.1289168886902671e-02  8.2408660799663871e-02  8.3545025460309633e-02 
 8.4698571579299234e-02  8.5869615301172292e-02  8.7058480424506854e-02  8.8265498628395306e-02 
 8.9491009705557054e-02  9.0735361802200251e-02  9.1998911664742791e-02  9.3282024893485929e-02 
 9.4585076203334797e-02  9.5908449691642667e-02  9.7252539113247841e-02  9.8617748162758770e-02 
 1.0000449076412711e-01  1.0141319136753457e-01  1.0284428525360099e-01  1.0429821884490187e-01 
 1.0577545002476180e-01  1.0727644846327018e-01  1.0880169595043537e-01  1.1035168673637340e-01 
 1.1192692787838983e-01  1.1352793959479077e-01  1.1515525562521713e-01  1.1680942359726466e-01 
 1.1849100539911474e-01  1.2020057755785361e-01  1.2193873162312116e-01  1.2370607455567929e-01 
 1.2550322912044465e-01  1.2733083428347500e-01  1.2918954561235094e-01  1.3108003567933205e-01 
 1.3300299446661404e-01  1.3495912977294944e-01  1.3694916762083453e-01  1.3897385266339965e-01 
 1.4103394859007704e-01  1.4313023853005091e-01  1.4526352545243082e-01  1.4743463256202063e-01 
 1.4964440368948737e-01  1.5189370367466884e-01  1.5418341874169730e-01  1.5651445686454496e-01 
 1.5888774812154582e-01  1.6130424503738683e-01  1.6376492291100858e-01  1.6627078012781149e-01 
 1.6882283845451787e-01  1.7142214331500902e-01  1.7406976404542879e-01  1.7676679412682883e-01 
 1.7951435139361815e-01  1.8231357821609093e-01  1.8516564165531205e-01  1.8807173358867224e-01 
 1.9103307080446197e-01  1.9405089506386530e-01  1.9712647312884143e-01  2.0026109675443768e-01 
 2.0345608264417780e-01  2.0671277236725608e-01  2.1003253223639837e-01  2.1341675314535996e-01 
 2.1686685036516093e-01  2.2038426329828831e-01  2.2397045519021730e-01  2.2762691279772360e-01 
 2.3135514601355955e-01  2.3515668744714893e-01  2.3903309196100619e-01  2.4298593616258995e-01 
 2.4701681785126384e-01  2.5112735541991715e-01  2.5531918721061736e-01  2.5959397082336833e-01 
 2.6395338237665134e-01  2.6839911571788505e-01  2.7293288158125456e-01  2.7755640668948445e-01 
 2.8227143279507405e-01  2.8707971565523022e-01  2.9198302393319597e-01  2.9698313801690279e-01 
 3.0208184874378297e-01  3.0728095601822430e-01  3.1258226730545025e-01  3.1798759598261206e-01 
 3.2349875952453849e-01  3.2911757749794013e-01  3.3484586933390681e-01  3.4068545184429272e-01 
 3.4663813644310965e-01  3.5270572602937655e-01  3.5889001148309130e-01  3.6519276772117376e-01 
 3.7161574925552321e-01  3.7816068519079865e-01  3.8482927359543229e-01  3.9162317517580680e-01 
 3.9854400618073832e-01  4.0559333046161206e-01  4.1277265061299245e-01  4.2008339811952533e-01 
 4.2752692243777723e-01  4.3510447894661602e-01  4.4281721570709487e-01  4.5066615898290657e-01 
 4.5865219748552982e-01  4.6677606532447524e-01  4.7503832366269083e-01  4.8343934110033837e-01 
 4.9197927283675175e-01  5.0065803869036463e-01  5.0947530008944353e-01  5.1843043618210483e-01 
 5.2752251925176119e-01  5.3675028966285976e-01  5.4611213060050712e-01  5.5560604290487947e-01 
 5.6522962033562019e-01  5.7498002563079187e-01  5.8485396774727028e-01  5.9484768068246308e-01 
 6.0495690427839544e-01  6.1517686739611743e-01  6.2550227381855761e-01  6.3592729119121916e-01 
 6.4644554324056647e-01  6.5705010541840014e-01  6.6773350400639286e-01  6.7848771857886236e-01 
 6.8930418756565892e-01  7.0017381648397059e-01  7.1108698822329131e-01  7.2203357457856565e-01 
 7.3300294804200505e-01  7.4398399269545656e-01  7.5496511290579416e-01  7.6593423843067199e-01 
 7.7687882450746670e-01  7.8778584554132558e-01  7.9864178114557982e-01  8.0943259353458041e-01 
 8.2014369563743905e-01  8.3075990979883785e-01  8.4126541756103024e-01  8.5164370177201720e-01 
 8.6187748312084145e-01  8.7194865413201794e-01  8.8183821461395251e-01  8.9152621349316308e-01 
 9.0099170280586993e-01  9.1021271027721673e-01  9.1916623730280533e-01  9.2782828915967142e-01 
 9.3617394381847896e-01  9.4417746472057240e-01  9.5181246125880958e-01  9.5905209842892813e-01 
 9.6586935421373554e-01  9.7223731979879435e-01  9.7812953383815127e-01  9.8352033791146576e-01 
 9.8838523633892006e-01  9.9270124002189042e-01  9.9644717139152228e-01  9.9960390634661556e-01 
 1.0021545297194840e+00  1.0040843837472266e+00  1.0053809945611591e+00  1.0060338699769082e+00 
 1.0060341727630777e+00  1.0053742866659106e+00  1.0040473069864089e+00  1.0020465022727520e+00 
 9.9936480715913756e-01  9.9599441669898636e-01  9.9192655766997118e-01  9.8715151024357062e-01 
 9.8165894234873530e-01  9.7543859782201769e-01  9.6848134772920635e-01  9.6078057299131547e-01 
 9.5233379805696383e-01  9.4314444386115548e-01  9.3322351930124026e-01  9.2259103083861183e-01 
 9.1127686721218204e-01  8.9932091809208392e-01  8.8677221799851125e-01  8.7368697357543046e-01 
 8.6012543306582934e-01  8.4614768629989834e-01  8.3180863072721722e-01  8.1715248744774449e-01 
 8.0220737971429923e-01  7.8698642646354200e-01  7.7151043733850355e-01  7.5580402217327280e-01 
 7.3989174044874029e-01  7.2379805354511040e-01  7.0754727805981499e-01  6.9116354026125970e-01 
 6.7467073174200520e-01  6.5809246632961926e-01  6.4145203829309239e-01  6.2477238187451400e-01 
 6.0807603217029149e-01  5.9138508737154816e-01  5.7472117236336329e-01  5.5810540367368588e-01 
 5.4155835575602029e-01  5.2510002858345683e-01  5.0874981652838436e-01  4.9252647850370090e-01 
 4.7644810934661191e-01  4.6053211243646036e-01  4.4479517355398207e-01  4.2925323601106707e-01 
 4.1392147710723853e-01  3.9881428600083629e-01  3.8394524311801043e-01  3.6932710126026314e-01 
 3.5497176860384849e-01  3.4089029381919583e-01  3.2709285356225021e-01  3.1358874260522795e-01 
 3.0038636687806952e-01  2.8749323968202795e-01  2.7491598131257039e-01  2.6266032229025021e-01 
 2.5073111034660628e-01  2.3913232124956946e-01  2.2786707348217997e-01  2.1693764671300850e-01 
 2.0634550392018433e-01  1.9609131695696169e-01  1.8617499527863543e-01  1.7659571749117173e-01 
 1.6735196533359159e-01  1.5844155967050841e-01  1.4986169804920405e-01  1.4160899336765712e-01 
 1.3367951320574858e-01  1.2606881939061051e-01  1.1877200739744523e-01  1.1178374522756952e-01 
 1.0509831145378425e-01  9.8709632177098258e-02  9.2611316695971682e-02  8.6796691746988383e-02 
 8.1258834231731553e-02  7.5990602396300316e-02  7.0984665475358824e-02  6.6233531850256808e-02 
 6.1729575799534607e-02  5.7465062939515046e-02  5.3432174462775692e-02  4.9623030283699750e-02 
 4.6029711194115260e-02  4.2644280119676789e-02  3.9458802550769584e-02  3.6465366202040168e-02 
 3.3656099933843824e-02  3.1023191948442757e-02  2.8558907254942329e-02  2.6255604380676794e-02 
 2.4105751293703636e-02  2.2101940491592083e-02  2.0236903205889094e-02  1.8503522669382801e-02 
 1.6894846394261042e-02  1.5404097413061991e-02  1.4024684440448182e-02  1.2750210921788097e-02 
 1.1574482943790617e-02  1.0491515992526082e-02  9.4955405546508203e-03  8.5810065681535663e-03 
 7.7425867391481560e-03  6.9751787508948197e-03  6.2739064001481049e-03  5.6341197039626433e-03 
 5.0513940271448843e-03  4.5215282865664602e-03  4.0405422935332258e-03  3.6046732993411774e-03 
 3.2103718120757223e-03  2.8542967546700761e-03  2.5333100352904953e-03  2.2444706013274801e-03 
 1.9850280477160184e-03  1.7524158490606263e-03  1.5442442831799883e-03  1.3582931112889479e-03 
 1.1925040771788684e-03  1.0449732845148640e-03  9.1394350781136030e-04  7.9779648884349978e-04 
 6.9504526626495424e-04  6.0432658209233232e-04  5.2439340453796677e-04  4.5410760247716086e-04 
 3.9243280266923030e-04  3.3842745675538436e-04  2.9123814106768561e-04  2.5009310843425523e-04 
 2.1429610748446468e-04  1.8322048146745217e-04  1.5630355531710179e-04  1.3304131664167916e-04 
 1.1298339349777047e-04  9.5728329233473128e-05  8.0919152358941763e-05  6.8239237324178588e-05 
 5.7408450252259877e-05  4.8179572086215803e-05  4.0334990252411622e-05  3.3683648813324568e-05 
 2.8058246167139341e-05  2.3312668638198343e-05  1.9319647777482454e-05  1.5968628841516257e-05 
 1.3163837726331112e-05  1.0822533584959527e-05  8.8734344368355502e-06  7.2553032699922073e-06 
 5.9156824269260513e-06  4.8097644377546172e-06  3.8993879057561912e-06  3.1521475472286100e-06 
 2.5406080273599287e-06  2.0416118049213085e-06  1.6356717905195762e-06  1.3064402263240000e-06 
 1.0402458011617251e-06  8.2569161615802582e-07  6.5330720628359705e-07  5.1524839681356314e-07 
 4.0503932631569990e-07  3.1735149577382340e-07  2.4781520405418414e-07  1.9285920113915074e-07 
 1.4957483107588741e-07  1.1560134572675016e-07  8.9029448012234749e-08  6.8320469722036732e-08 
 5.2238904844183546e-08  3.9796305759370592e-08  3.0204807859520853e-08  2.2838779666458105e-08 
 1.7203301981962197e-08  1.2908362721685536e-08  9.6478156499946628e-09  7.1822930307973861e-09 
 5.3253860113846608e-09  3.9325142029431187e-09  2.8919993959886602e-09  2.1179335066699951e-09 
 1.5445102569332763e-09  1.1215360617314218e-09  8.1089110295199680e-10  5.8375200802810640e-10 
 4.1842210805904973e-10  2.9864421824411998e-10  2.1229492348936995e-10  1.5037921362855599e-10 
 1.0626065954324920e-10  0.0000000000000000e+00  0.0000000000000000e+00  0.0000000000000000e+00 
 0.0000000000000000e+00  0.0000000000000000e+00  0.0000000000000000e+00  0.0000000000000000e+00 
 0.0000000000000000e+00  0.0000000000000000e+00  0.0000000000000000e+00  0.0000000000000000e+00 
 0.0000000000000000e+00  0.0000000000000000e+00  0.0000000000000000e+00  0.0000000000000000e+00 
 0.0000000000000000e+00  0.0000000000000000e+00  0.0000000000000000e+00  0.0000000000000000e+00 
 0.0000000000000000e+00  0.0000000000000000e+00  0.0000000000000000e+00  0.0000000000000000e+00 
 0.0000000000000000e+00  0.0000000000000000e+00  0.0000000000000000e+00  0.0000000000000000e+00 
 0.0000000000000000e+00  0.0000000000000000e+00  0.0000000000000000e+00  0.0000000000000000e+00 
 0.0000000000000000e+00  0.0000000000000000e+00  0.0000000000000000e+00  0.0000000000000000e+00 
 0.0000000000000000e+00  0.0000000000000000e+00  0.0000000000000000e+00  0.0000000000000000e+00 
 0.0000000000000000e+00  0.0000000000000000e+00  0.0000000000000000e+00  0.0000000000000000e+00 
 0.0000000000000000e+00  0.0000000000000000e+00  0.0000000000000000e+00  0.0000000000000000e+00 
 0.0000000000000000e+00  0.0000000000000000e+00  0.0000000000000000e+00  0.0000000000000000e+00 
 0.0000000000000000e+00  0.0000000000000000e+00  0.0000000000000000e+00  0.0000000000000000e+00 
 0.0000000000000000e+00  0.0000000000000000e+00  0.0000000000000000e+00  0.0000000000000000e+00 
 0.0000000000000000e+00  0.0000000000000000e+00  0.0000000000000000e+00  0.0000000000000000e+00 
 0.0000000000000000e+00  0.0000000000000000e+00  0.0000000000000000e+00  0.0000000000000000e+00 
 0.0000000000000000e+00  0.0000000000000000e+00  0.0000000000000000e+00  0.0000000000000000e+00 
 0.0000000000000000e+00  0.0000000000000000e+00  0.0000000000000000e+00  0.0000000000000000e+00 
 0.0000000000000000e+00  0.0000000000000000e+00  0.0000000000000000e+00  0.0000000000000000e+00 
 0.0000000000000000e+00  0.0000000000000000e+00  0.0000000000000000e+00  0.0000000000000000e+00 
 0.0000000000000000e+00  0.0000000000000000e+00  0.0000000000000000e+00  0.0000000000000000e+00 
 0.0000000000000000e+00  0.0000000000000000e+00  0.0000000000000000e+00  0.0000000000000000e+00 
 0.0000000000000000e+00  0.0000000000000000e+00  0.0000000000000000e+00  0.0000000000000000e+00 
 0.0000000000000000e+00  0.0000000000000000e+00  0.0000000000000000e+00  0.0000000000000000e+00 
 0.0000000000000000e+00  0.0000000000000000e+00  0.0000000000000000e+00  0.0000000000000000e+00 
 0.0000000000000000e+00  0.0000000000000000e+00  0.0000000000000000e+00  0.0000000000000000e+00 
 0.0000000000000000e+00  0.0000000000000000e+00  0.0000000000000000e+00  0.0000000000000000e+00 
 0.0000000000000000e+00  0.0000000000000000e+00  0.0000000000000000e+00  0.0000000000000000e+00 
 0.0000000000000000e+00  0.0000000000000000e+00  0.0000000000000000e+00  0.0000000000000000e+00 
 0.0000000000000000e+00  0.0000000000000000e+00  0.0000000000000000e+00  0.0000000000000000e+00 
 0.0000000000000000e+00  0.0000000000000000e+00  0.0000000000000000e+00  0.0000000000000000e+00 
 0.0000000000000000e+00  0.0000000000000000e+00  0.0000000000000000e+00  0.0000000000000000e+00 
 0.0000000000000000e+00  0.0000000000000000e+00  0.0000000000000000e+00  0.0000000000000000e+00 
 0.0000000000000000e+00  0.0000000000000000e+00  0.0000000000000000e+00  0.0000000000000000e+00 
 0.0000000000000000e+00  0.0000000000000000e+00  0.0000000000000000e+00  0.0000000000000000e+00 
 0.0000000000000000e+00  0.0000000000000000e+00  0.0000000000000000e+00  0.0000000000000000e+00 
 0.0000000000000000e+00  0.0000000000000000e+00  0.0000000000000000e+00  0.0000000000000000e+00 
 0.0000000000000000e+00  0.0000000000000000e+00  0.0000000000000000e+00  0.0000000000000000e+00 
 0.0000000000000000e+00  0.0000000000000000e+00  0.0000000000000000e+00  0.0000000000000000e+00 
 0.0000000000000000e+00  0.0000000000000000e+00  0.0000000000000000e+00  0.0000000000000000e+00 
 0.0000000000000000e+00  0.0000000000000000e+00  0.0000000000000000e+00  0.0000000000000000e+00 
 0.0000000000000000e+00 
P    1   6.00          Wavefunction
 3.3397175341836914e-09  3.4276888615401860e-09  3.5179774370909216e-09  3.6106442993508237e-09 
 3.7057520946471709e-09  3.8033651194709010e-09  3.9035493639434842e-09  4.0063725564287593e-09 
 4.1119042093198811e-09  4.2202156660323484e-09  4.3313801492348617e-09  4.4454728103506421e-09 
 4.5625707803626427e-09  4.6827532219570341e-09  4.8061013830401978e-09  4.9326986516653868e-09 
 5.0626306124062435e-09  5.1959851042152049e-09  5.3328522798059964e-09  5.4733246666002846e-09 
 5.6174972292797391e-09  5.7654674339857668e-09  5.9173353142103404e-09  6.0732035384224306e-09 
 6.2331774794758108e-09  6.3973652858451050e-09  6.5658779547382707e-09  6.7388294071349425e-09 
 6.9163365648013476e-09  7.0985194293338422e-09  7.2855011632845931e-09  7.4774081734241237e-09 
 7.6743701961971020e-09  7.8765203854291053e-09  8.0839954023436922e-09  8.2969355079505547e-09 
 8.5154846578673383e-09  8.7397905996390567e-09  8.9700049726211044e-09  9.2062834104931774e-09 
 9.4487856464736226e-09  9.6976756213050948e-09  9.9531215940847658e-09  1.0215296256013894e-08 
 1.0484376847143600e-08  1.0760545276195883e-08  1.1043988243540872e-08  1.1334897367413318e-08 
 1.1633469313453843e-08  1.1939905927662375e-08  1.2254414372853716e-08  1.2577207268707457e-08 
 1.2908502835506999e-08  1.3248525041664729e-08  1.3597503755133190e-08  1.3955674898804527e-08 
 1.4323280610003364e-08  1.4700569404180798e-08  1.5087796342920293e-08  1.5485223206369014e-08 
 1.5893118670211127e-08  1.6311758487302792e-08  1.6741425674091541e-08  1.7182410701946136e-08 
 1.7635011693526277e-08  1.8099534624324821e-08  1.8576293529518836e-08  1.9065610716269260e-08 
 1.9567816981612842e-08  2.0083251836093453e-08  2.0612263733284119e-08  2.1155210305354839e-08 
 2.1712458604845492e-08  2.2284385352807318e-08  2.2871377193480630e-08  2.3473830955680945e-08 
 2.4092153921070367e-08  2.4726764099495400e-08  2.5378090511577499e-08  2.6046573478747202e-08 
 2.6732664920918183e-08  2.7436828662002187e-08  2.8159540743471646e-08  2.8901289746181669e-08 
 2.9662577120669266e-08  3.0443917526152939e-08  3.1245839178461695e-08  3.2068884207129086e-08 
 3.2913609021893212e-08  3.3780584688850824e-08  3.4670397316519599e-08  3.5583648452069719e-08 
 3.6520955487992458e-08  3.7482952079480910e-08  3.8470288572804971e-08  3.9483632444969767e-08 
 4.0523668754955621e-08  4.1591100606843722e-08  4.2686649625140988e-08  4.3811056442625629e-08 
 4.4965081201042895e-08  4.6149504064989477e-08  4.7365125749334438e-08  4.8612768060532633e-08 
 4.9893274452196741e-08  5.1207510595304113e-08  5.2556364963422601e-08  5.3940749433352600e-08 
 5.5361599901589867e-08  5.6819876917027100e-08  5.8316566330320978e-08  5.9852679960364553e-08 
 6.1429256278314899e-08  6.3047361109638616e-08  6.4708088354650248e-08  6.6412560728029853e-08 
 6.8161930517820473e-08  6.9957380364418255e-08  7.1800124060081815e-08  7.3691407369501436e-08 
 7.5632508871982821e-08  7.7624740825814923e-08  7.9669450055405578e-08  8.1768018861785595e-08 
 8.3921865957096053e-08  8.6132447423691082e-08  8.8401257698503845e-08  9.0729830583342351e-08 
 9.3119740281796677e-08  9.5572602463459785e-08  9.8090075356180538e-08  1.0067386086708763e-07 
 1.0332570573314306e-07  1.0604740270200096e-07  1.0884079174397257e-07  1.1170776129591455e-07 
 1.1465024953788302e-07  1.1767024570341554e-07  1.2076979142432740e-07  1.2395098211093054e-07 
 1.2721596836860908e-07  1.3056695745170892e-07  1.3400621475572322e-07  1.3753606534878516e-07 
 1.4115889554349895e-07  1.4487715451017714e-07  1.4869335593256971e-07  1.5261007970720831e-07 
 1.5662997368751137e-07  1.6075575547383131e-07  1.6499021425065344e-07  1.6933621267218690e-07 
 1.7379668879762574e-07  1.7837465807738457e-07  1.8307321539165520e-07  1.8789553714265935e-07 
 1.9284488340201277e-07  1.9792460011465552e-07  2.0313812136083198e-07  2.0848897167765660e-07 
 2.1398076844182956e-07  2.1961722431511584e-07  2.2540214975424198e-07  2.3133945558690274e-07 
 2.3743315565562458e-07  2.4368736953126893e-07  2.5010632529801331e-07  2.5669436241168977e-07 
 2.6345593463341465e-07  2.7039561304049406e-07  2.7751808911663613e-07  2.8482817792356650e-07 
 2.9233082135618247e-07  3.0003109148345364e-07  3.0793419397732297e-07  3.1604547163192910e-07 
 3.2437040797552793e-07  3.3291463097755405e-07  3.4168391685333052e-07  3.5068419396899678e-07 
 3.5992154684929718e-07  3.6940222029093625e-07  3.7913262358428478e-07  3.8911933484628629e-07 
 3.9936910546750019e-07  4.0988886467627903e-07  4.2068572422317364e-07  4.3176698318872674e-07 
 4.4314013291790767e-07  4.5481286208452752e-07  4.6679306188905007e-07  4.7908883139332116e-07 
 4.9170848299581529e-07  5.0466054805110906e-07  5.1795378263737208e-07  5.3159717347577887e-07 
 5.4559994400584466e-07  5.5997156062078653e-07  5.7472173906713314e-07  5.8986045101290069e-07 
 6.0539793078878362e-07  6.2134468230690658e-07  6.3771148616183210e-07  6.5450940691860338e-07 
 6.7174980059276549e-07  6.8944432232741431e-07  7.0760493427246214e-07  7.2624391367145432e-07 
 7.4537386116139211e-07  7.6500770929118102e-07  7.8515873126446224e-07  8.0584054991273539e-07 
 8.2706714690483821e-07  8.4885287219901121e-07  8.7121245374393600e-07  8.9416100743530406e-07 
 9.1771404733464879e-07  9.4188749615735045e-07  9.6669769603689623e-07  9.9216141957268059e-07 
 1.0182958811688163e-06  1.0451187486716048e-06  1.0726481553135566e-06  1.1009027119720185e-06 
 1.1299015197506940e-06  1.1596641828925853e-06  1.1902108220330490e-06  1.2215620878019603e-06 
 1.2537391747841519e-06  1.2867638358475946e-06  1.3206583968489720e-06  1.3554457717266205e-06 
 1.3911494779910166e-06  1.4277936526232938e-06  1.4654030683925382e-06  1.5040031506028788e-06 
 1.5436199942817156e-06  1.5842803818206761e-06  1.6260118010812661e-06  1.6688424639774066e-06 
 1.7128013255474535e-06  1.7579181035285827e-06  1.8042232984467623e-06  1.8517482142359107e-06 
 1.9005249794001703e-06  1.9505865687335873e-06  2.0019668256119092e-06  2.0547004848715521e-06 
 2.1088231962912005e-06  2.1643715486919193e-06  2.2213830946720672e-06  2.2798963759937332e-06 
 2.3399509496378589e-06  2.4015874145456555e-06  2.4648474390643905e-06  2.5297737891160910e-06 
 2.5964103571082364e-06  2.6648021916059418e-06  2.7349955277857087e-06  2.8070378186913379e-06 
 2.8809777673131027e-06  2.9568653595119199e-06  3.0347518978107126e-06  3.1146900360758385e-06 
 3.1967338151120288e-06  3.2809386991948990e-06  3.3673616135657093e-06  3.4560609829137287e-06 
 3.5470967708722218e-06  3.6405305205547446e-06  3.7364253961591589e-06  3.8348462256674818e-06 
 3.9358595446704296e-06  4.0395336413462810e-06  4.1459386026244670e-06  4.2551463615651117e-06 
 4.3672307459864735e-06  4.4822675283732487e-06  4.6003344770994216e-06  4.7215114090002895e-06 
 4.8458802433291910e-06  4.9735250571354377e-06  5.1045321421008265e-06  5.2389900628732180e-06 
 5.3769897169365524e-06  5.5186243960577735e-06  5.6639898493522431e-06  5.8131843480101916e-06 
 5.9663087517280409e-06  6.1234665768894327e-06  6.2847640665420624e-06  6.4503102622176028e-06 
 6.6202170776433551e-06  6.7945993743952440e-06  6.9735750395435099e-06  7.1572650653434497e-06 
 7.3457936310250208e-06  7.5392881867368095e-06  7.7378795397007779e-06  7.9417019426362956e-06 
 8.1508931845130335e-06  8.3655946836941819e-06  8.5859515835328471e-06  8.8121128504862711e-06 
 9.0442313748141649e-06  9.2824640739292316e-06  9.5269719984697525e-06  9.7779204411658092e-06 
 1.0035479048572799e-05  1.0299821935747782e-05  1.0571127803946069e-05  1.0849580061417543e-05 
 1.1135366947384653e-05  1.1428681659285371e-05  1.1729722483367509e-05  1.2038692928722421e-05 
 1.2355801864848783e-05  1.2681263662839313e-05  1.3015298340285842e-05  1.3358131710000794e-05 
 1.3709995532655235e-05  1.4071127673437104e-05  1.4441772262835040e-05  1.4822179861656615e-05 
 1.5212607630392543e-05  1.5613319503041169e-05  1.6024586365510777e-05  1.6446686238720107e-05 
 1.6879904466521033e-05  1.7324533908570013e-05  1.7780875138279073e-05  1.8249236645979570e-05 
 1.8729935047436326e-05  1.9223295297852857e-05  1.9729650911512299e-05  2.0249344187202396e-05 
 2.0782726439576843e-05  2.1330158236609278e-05  2.1892009643300176e-05  2.2468660471801625e-05 
 2.3060500538128485e-05  2.3667929925629667e-05  2.4291359255397219e-05  2.4931209963796206e-05 
 2.5587914587302387e-05  2.6261917054840481e-05  2.6953672987820217e-05  2.7663650008072631e-05 
 2.8392328053895222e-05  2.9140199704418664e-05  2.9907770512514317e-05  3.0695559346467713e-05 
 3.1504098740648303e-05  3.2333935255412297e-05  3.3185629846481985e-05  3.4059758244050366e-05 
 3.4956911341867337e-05  3.5877695596570553e-05  3.6822733437529623e-05  3.7792663687480977e-05 
 3.8788141994237381e-05  3.9809841273763141e-05  4.0858452164914378e-05  4.1934683496151348e-05 
 4.3039262764537457e-05  4.4172936627348498e-05  4.5336471406624390e-05  4.6530653607002888e-05 
 4.7756290447185496e-05  4.9014210405394037e-05  5.0305263779185771e-05  5.1630323260005243e-05 
 5.2990284522859746e-05  5.4386066831517206e-05  5.5818613659633525e-05  5.7288893328230350e-05 
 5.8797899659950846e-05  6.0346652650536697e-05  6.1936199157978477e-05  6.3567613609804131e-05 
 6.5241998728982756e-05  6.6960486278933403e-05  6.8724237828140673e-05  7.0534445534892873e-05 
 7.2392332952672832e-05  7.4299155856742593e-05  7.6256203092480451e-05  7.8264797446041636e-05 
 8.0326296537930295e-05  8.2442093740083452e-05  8.4613619117086900e-05  8.6842340392155699e-05 
 8.9129763938530578e-05  9.1477435796959614e-05  9.3886942719948046e-05  9.6359913243481627e-05 
 9.8898018786944955e-05  1.0150297478197521e-04  1.0417654183101168e-04  1.0692052689632154e-04 
 1.0973678452030189e-04  1.1262721807787896e-04  1.1559378106185095e-04  1.1863847840203412e-04 
 1.2176336781910454e-04  1.2497056121404447e-04  1.2826222609412839e-04  1.3164058703640831e-04 
 1.3510792718968295e-04  1.3866658981596014e-04  1.4231897987244940e-04  1.4606756563514966e-04 
 1.4991488036512175e-04  1.5386352401856610e-04  1.5791616500185612e-04  1.6207554197270572e-04 
 1.6634446568868037e-04  1.7072582090429573e-04  1.7522256831797558e-04  1.7983774657017715e-04 
 1.8457447429402789e-04  1.8943595221984565e-04  1.9442546533495912e-04  1.9954638510027460e-04 
 2.0480217172507911e-04  2.1019637650160288e-04  2.1573264420090906e-04  2.2141471553171620e-04 
 2.2724642966380021e-04  2.3323172681767164e-04  2.3937465092225787e-04  2.4567935234237289e-04 
 2.5215009067780346e-04  2.5879123763588192e-04  2.6560727997947098e-04  2.7260282255233299e-04 
 2.7978259138390773e-04  2.8715143687557231e-04  2.9471433707052070e-04  3.0247640100944146e-04 
 3.1044287217423997e-04  3.1861913202210329e-04  3.2701070361227199e-04  3.3562325532793507e-04 
 3.4446260469573654e-04  3.5353472230543922e-04  3.6284573583235743e-04  3.7240193416525065e-04 
 3.8220977164241565e-04  3.9227587239880839e-04  4.0260703482708650e-04  4.1321023615554576e-04 
 4.2409263714599112e-04  4.3526158691467202e-04  4.4672462787948654e-04  4.5848950083673360e-04 
 4.7056415017080486e-04  4.8295672920024981e-04  4.9567560566378323e-04  5.0872936734985971e-04 
 5.2212682787355685e-04  5.3587703260458779e-04  5.4998926475037339e-04  5.6447305159819730e-04 
 5.7933817092057391e-04  5.9459465754806715e-04  6.1025281011389842e-04  6.2632319797479631e-04 
 6.4281666831266123e-04  6.5974435342172567e-04  6.7711767818600668e-04  6.9494836775198428e-04 
 7.1324845540155217e-04  7.3203029063041063e-04  7.5130654743722693e-04  7.7109023282899176e-04 
 7.9139469554815592e-04  8.1223363502727229e-04  8.3362111057701108e-04  8.5557155081355260e-04 
 8.7809976333153451e-04  9.0122094462886525e-04  9.2495069028988104e-04  9.4930500543350511e-04 
 9.7430031543318662e-04  9.9995347691562704e-04  1.0262817890454223e-03  1.0533030051029645e-03 
 1.0810353443631137e-03  1.1094975042823289e-03  1.1387086730021644e-03  1.1686885421771916e-03 
 1.1994573201356688e-03  1.2310357453814075e-03  1.2634451004455592e-03  1.2967072260972256e-03 
 1.3308445359220275e-03  1.3658800312779786e-03  1.4018373166382536e-03  1.4387406153306694e-03 
 1.4766147856839103e-03  1.5154853375908453e-03  1.5553784494994236e-03  1.5963209858419979e-03 
 1.6383405149141160e-03  1.6814653272141180e-03  1.7257244542551260e-03  1.7711476878613213e-03 
 1.8177655999606548e-03  1.8656095628864268e-03  1.9147117702005309e-03  1.9651052580513307e-03 
 2.0168239270795685e-03  2.0699025648859720e-03  2.1243768690744989e-03  2.1802834708855804e-03 
 2.2376599594339506e-03  2.2965449065660880e-03  2.3569778923525271e-03  2.4189995312308065e-03 
 2.4826514988149605e-03  2.5479765593880714e-03  2.6150185940945394e-03  2.6838226298492823e-03 
 2.7544348689813600e-03  2.8269027196299230e-03  2.9012748269108476e-03  2.9776011048726616e-03 
 3.0559327692610497e-03  3.1363223711112988e-03  3.2188238311887541e-03  3.3034924752976436e-03 
 3.3903850704790840e-03  3.4795598621195386e-03  3.5710766119914439e-03  3.6649966372481486e-03 
 3.7613828503957848e-03  3.8602998002652020e-03  3.9618137140074432e-03  4.0659925401368294e-03 
 4.1729059926461729e-03  4.2826255962190724e-03  4.3952247325647984e-03  4.5107786879017122e-03 
 4.6293647016157026e-03  4.7510620161205826e-03  4.8759519279479571e-03  5.0041178400944807e-03 
 5.1356453156549868e-03  5.2706221327705168e-03  5.4091383409206910e-03  5.5512863185904395e-03 
 5.6971608323416346e-03  5.8468590973205841e-03  6.0004808392329027e-03  6.1581283578179234e-03 
 6.3199065918549549e-03  6.4859231857345755e-03  6.6562885576283816e-03  6.8311159692912328e-03 
 7.0105215975304084e-03  7.1946246073766309e-03  7.3835472269923657e-03  7.5774148243530938e-03 
 7.7763559857381044e-03  7.9805025960670659e-03  8.1899899211198505e-03  8.4049566916767678e-03 
 8.6255451896172040e-03  8.8519013360147062e-03  9.0841747812670307e-03  9.3225189972999129e-03 
 9.5670913718834318e-03  9.8180533051005041e-03  1.0075570308006546e-02  1.0339812103520177e-02 
 1.0610952729584483e-02  1.0889170644638773e-02  1.1174648835440344e-02  1.1467574927276309e-02 
 1.1768141296604924e-02  1.2076545186166014e-02  1.2392988822599966e-02  1.2717679536614060e-02 
 1.3050829885735053e-02  1.3392657779686238e-02  1.3743386608426691e-02  1.4103245372890068e-02 
 1.4472468818459129e-02  1.4851297571212079e-02  1.5239978276975116e-02  1.5638763743215434e-02 
 1.6047913083806875e-02  1.6467691866699996e-02  1.6898372264526253e-02  1.7340233208165051e-02 
 1.7793560543300082e-02  1.8258647189990075e-02  1.8735793305276648e-02  1.9225306448849774e-02 
 1.9727501751789448e-02  2.0242702088398415e-02  2.0771238251139221e-02  2.1313449128684846e-02 
 2.1869681887089196e-02  2.2440292154080155e-02  2.3025644206473864e-02  2.3626111160704785e-02 
 2.4242075166461555e-02  2.4873927603414132e-02  2.5522069281011878e-02  2.6186910641327440e-02 
 2.6868871964915005e-02  2.7568383579644900e-02  2.8285886072470415e-02  2.9021830504074891e-02 
 2.9776678626339620e-02  3.0550903102564909e-02  3.1344987730367896e-02  3.2159427667171225e-02 
 3.2994729658187172e-02  3.3851412266790025e-02  3.4730006107161017e-02  3.5631054079074277e-02 
 3.6555111604682895e-02  3.7502746867149390e-02  3.8474541050950585e-02  3.9471088583671335e-02 
 4.0492997379087396e-02  4.1540889081317561e-02  4.2615399309810308e-02  4.3717177904908956e-02 
 4.4846889173719866e-02  4.6005212135987079e-02  4.7192840769653160e-02  4.8410484255763588e-02 
 4.9658867222344097e-02  5.0938729986857181e-02  5.2250828796812233e-02  5.3595936068074564e-02 
 5.4974840620390888e-02  5.6388347909607048e-02  5.7837280256028231e-02  5.9322477068326954e-02 
 6.0844795062369783e-02  6.2405108474288581e-02  6.4004309267082712e-02  6.5643307329987730e-02 
 6.7323030669801276e-02  6.9044425593304995e-02  7.0808456879865908e-02  7.2616107943246466e-02 
 7.4468380981591545e-02  7.6366297114498036e-02  7.8310896506008532e-02  8.0303238472299601e-02 
 8.2344401572764458e-02  8.4435483683111517e-02  8.6577602049026703e-02  8.8771893318854170e-02 
 9.1019513553673395e-02  9.3321638213052158e-02  9.5679462114664174e-02  9.8094199365857629e-02 
 1.0056708326516142e-01  1.0309936617160362e-01  1.0569231933960940e-01  1.0834723271712712e-01 
 1.1106541470451131e-01  1.1384819187156835e-01  1.1669690863004187e-01  1.1961292685868101e-01 
 1.2259762547790425e-01  1.2565239997092470e-01  1.2877866184806994e-01  1.3197783805087465e-01 
 1.3525137029239079e-01  1.3860071432999532e-01  1.4202733916684152e-01  1.4553272617794036e-01 
 1.4911836815671597e-01  1.5278576827772719e-01  1.5653643897110706e-01  1.6037190070412990e-01 
 1.6429368066518252e-01  1.6830331134528692e-01  1.7240232901220451e-01  1.7659227207204495e-01 
 1.8087467931320464e-01  1.8525108802738238e-01  1.8972303200235804e-01  1.9429203938117140e-01 
 1.9895963038232967e-01  2.0372731487566109e-01  2.0859658980848997e-01  2.1356893647684677e-01 
 2.1864581763655222e-01  2.2382867444913945e-01  2.2911892325776173e-01  2.3451795218846286e-01 
 2.4002711757245337e-01  2.4564774018536031e-01  2.5138110129979763e-01  2.5722843854803012e-01 
 2.6319094159199319e-01  2.6926974759847072e-01  2.7546593651784856e-01  2.8178052616549981e-01 
 2.8821446710559673e-01  2.9476863733788838e-01  3.0144383678882275e-01  3.0824078160922352e-01 
 3.1516009828166314e-01  3.2220231754154605e-01  3.2936786811689772e-01  3.3665707029276010e-01 
 3.4407012930703884e-01  3.5160712858552373e-01  3.5926802282466608e-01  3.6705263093145896e-01 
 3.7496062883045411e-01  3.8299154214851039e-01  3.9114473878829698e-01  3.9941942140183090e-01 
 4.0781461977539479e-01  4.1632918313704026e-01  4.2496177239750654e-01  4.3371085233475309e-01 
 4.4257468373143849e-01  4.5155131547351229e-01  4.6063857661672392e-01  4.6983406842617859e-01 
 4.7913515639226967e-01  4.8853896222429877e-01  4.9804235582101514e-01  5.0764194721520706e-01 
 5.1733407848747459e-01  5.2711481564255236e-01  5.3697994044015618e-01  5.4692494217150855e-01 
 5.5694500937263958e-01  5.6703502146648843e-01  5.7718954032799930e-01  5.8740280177006732e-01 
 5.9766870695357788e-01  6.0798081373223167e-01  6.1833232795250559e-01  6.2871609474125023e-01 
 6.3912458982824771e-01  6.4954991096856174e-01  6.5998376954987603e-01  6.7041748249300837e-01 
 6.8084196457928370e-01  6.9124772136604673e-01  7.0162484288075055e-01  7.1196299831402210e-01 
 7.2225143196198960e-01  7.3247896069668506e-01  7.4263397326929970e-01  7.5270443177272794e-01 
 7.6267787560561784e-01  7.7254142828810946e-01  7.8228180747773468e-01  7.9188533852073928e-01 
 8.0133797184767852e-01  8.1062530448109638e-01  8.1973260586657848e-01  8.2864484816594020e-01 
 8.3734674106343499e-01  8.4582277103380155e-01  8.5405724490733526e-01  8.6203433744558988e-01 
 8.6973814251676063e-01  8.7715272733851368e-01  8.8426218914537025e-01  8.9105071354606757e-01 
 8.9750263377244599e-01  9.0360248999429538e-01  9.0933508789256334e-01  9.1468555575315025e-01 
 9.1963939946977913e-01  9.2418255502811442e-01  9.2830143828107192e-01  9.3198299210839408e-01 
 9.3521473136718025e-01  9.3798478636279758e-01  9.4028194587367142e-01  9.4209570101544693e-01 
 9.4341629139233552e-01  9.4423475501703302e-01  9.4454298334800602e-01  9.4433378246312616e-01 
 9.4360094084170409e-01  9.4233930346013339e-01  9.4054485093920448e-01  9.3821478136077330e-01 
 9.3534759117579469e-01  9.3194315046446075e-01  9.2800276682134764e-01  9.2352923148549337e-01 
 9.1852684118910521e-01  9.1300138972388667e-01  9.0696012455592190e-01  9.0041166603732592e-01 
 8.9336588985900389e-01  8.8583377724464674e-01  8.7782724174753080e-01  8.6935894597842667e-01 
 8.6044212562266598e-01  8.5109044103921461e-01  8.4131787785210066e-01  8.3113871653722027e-01 
 8.2056758648704720e-01  8.0961961205655053e-01  7.9831064668329854e-01  7.8665757685300786e-01 
 7.7467866154512655e-01  7.6239385653794878e-01  7.4982505881246186e-01  7.3699619686668505e-01 
 7.2393309071099543e-01  7.1066301300874590e-01  6.9721390180013465e-01  6.8361320574125783e-01 
 6.6988638330089301e-01  6.5605512436358204e-01  6.4213541065052426e-01  6.2813557310511559e-01 
 6.1405882732696038e-01  5.9991854923511034e-01  5.8573138091656929e-01  5.7151380603640223e-01 
 5.5728212323208148e-01  5.4305241896695811e-01  5.2884053979407886e-01  5.1466206400886816e-01 
 5.0053227270489264e-01  4.8646612029065728e-01  4.7247820457621686e-01  4.5858273659581011e-01 
 4.4479351038788967e-01  4.3112387301590466e-01  4.1758669516552710e-01  4.0419434269984628e-01 
 3.9095864958807314e-01  3.7789089264217784e-01  3.6500176849731159e-01  3.5230137325451710e-01 
 3.3979918516802932e-01  3.2750405070553174e-01  3.1542417424032043e-01  3.0356711155263139e-01 
 2.9193976722723020e-01  2.8054839593999548e-01  2.6939860753187100e-01  2.5849537567823133e-01 
 2.4784304987930300e-01  2.3744537042586128e-01  2.2730548593646238e-01  2.1742597302000052e-01 
 2.0780885759162115e-01  1.9845563736145280e-01  1.8936730502409430e-01  1.8054437170173193e-01 
 1.7198689023359084e-01  1.6369447795704345e-01  1.5566633868867433e-01  1.4790128368378805e-01 
 1.4039775142685973e-01  1.3315382617971366e-01  1.2616725528524622e-01  1.1943546528902826e-01 
 1.1295557699633697e-01  1.0672441962593117e-01  1.0073854425284647e-01  9.4994236750107736e-02 
 8.9487530443864247e-02  8.4214218689074014e-02  7.9169867555167001e-02  7.4349828785170630e-02 
 6.9749253159895747e-02  6.5363104363305335e-02  6.1186173408346881e-02  5.7213093646296453e-02 
 5.3438356348671251e-02  4.9856326820267617e-02  4.6461260975732867e-02  4.3247322290771585e-02 
 4.0208599022789296e-02  3.7339121584390893e-02  3.4632879946377003e-02  3.2083840944274203e-02 
 2.9685965363465246e-02  2.7433224682077827e-02  2.5319617357372350e-02  2.3339184549885861e-02 
 2.1486025189533183e-02  1.9754310298782846e-02  1.8138296499519112e-02  1.6632338641940355e-02 
 1.5230901505552520e-02  1.3928570533774533e-02  1.2720061574706567e-02  1.1600229611093461e-02 
 1.0564076472348114e-02  9.6067575306194638e-03  8.7235873912552501e-03  7.9100445956005860e-03 
 7.1617753608829620e-03  6.4745963879689061e-03  5.8444967730525779e-03  5.2676390638732471e-03 
 4.7403595048848626e-03  4.2591675189467054e-03  3.8207444756032547e-03  3.4219417979087885e-03 
 3.0597784610646053e-03  2.7314379369111547e-03  2.4342646385917144e-03  2.1657599195167264e-03 
 1.9235776801463864e-03  1.7055196351119417e-03  1.5095302918510321e-03  1.3336916902768872e-03 
 1.1762179510722960e-03  1.0354496780332701e-03  9.0984825751998753e-04  7.9799009553847063e-04 
 6.9856083030930534e-04  6.1034955541182606e-04  5.3224308575475492e-04  4.6322029574674467e-04 
 4.0234655615056298e-04  3.4876829322888757e-04  3.0170769095205628e-04  2.6045755426085040e-04 
 2.2437634868062973e-04  1.9288342898484946e-04  1.6545446712197420e-04  1.4161708726363235e-04 
 1.2094671361488338e-04  1.0306263455884676e-04  8.7624284794683536e-05  7.4327745374921543e-05 
 6.2902459958282780e-05  5.3108164168490421e-05  4.4732023687211993e-05  3.7585975607868601e-05 
 3.1504266632550506e-05  2.6341180901388512e-05  2.1968949596013774e-05  1.8275833948345324e-05 
 1.5164372905042988e-05  1.2549786436877300e-05  1.0358525331782085e-05  8.5269582603835455e-06 
 7.0001869432243503e-06  5.7309803695230633e-06  4.6788192080178057e-06  3.8090418013372794e-06 
 3.0920834368399590e-06  2.5028009297984212e-06  2.0198749305129261e-06  1.6252827673147227e-06 
 1.3038350549814736e-06  1.0427697260062421e-06  8.3139757429022788e-07  6.6079383171088410e-07 
 5.2353072288546908e-07  4.1344635821806949e-07  3.2544572655614648e-07  2.5532993368893199e-07 
 1.9965019928439377e-07  1.5558347560264782e-07  1.2082689815901681e-07  9.3508394891981392e-08 
 7.2111496317737466e-08  5.5412174579174351e-08  4.2426016029965204e-08  3.2364209637635300e-08 
 2.4597021015840941e-08  1.8623596682444727e-08  1.4047099475617082e-08  1.0554315138125766e-08 
 7.8989931450024349e-09  5.8882931698537768e-09  4.3718034266554837e-09  3.2326797310727547e-09 
 2.3805257030067719e-09  1.7456962321579532e-09  1.2747592398412702e-09  9.2689591166788227e-10 
 6.7105789065147253e-10  4.8373227520832683e-10  3.4719245031971469e-10  2.4813550575427459e-10 
 1.7662590267457177e-10  1.2528071052048757e-10  8.8644658116736579e-11  -0.0000000000000000e+00 
 -0.0000000000000000e+00  -0.0000000000000000e+00  -0.0000000000000000e+00  -0.0000000000000000e+00 
 -0.0000000000000000e+00  -0.0000000000000000e+00  -0.0000000000000000e+00  -0.0000000000000000e+00 
 -0.0000000000000000e+00  -0.0000000000000000e+00  -0.0000000000000000e+00  -0.0000000000000000e+00 
 -0.0000000000000000e+00  -0.0000000000000000e+00  -0.0000000000000000e+00  -0.0000000000000000e+00 
 -0.0000000000000000e+00  -0.0000000000000000e+00  -0.0000000000000000e+00  -0.0000000000000000e+00 
 -0.0000000000000000e+00  -0.0000000000000000e+00  -0.0000000000000000e+00  -0.0000000000000000e+00 
 -0.0000000000000000e+00  -0.0000000000000000e+00  -0.0000000000000000e+00  -0.0000000000000000e+00 
 -0.0000000000000000e+00  -0.0000000000000000e+00  -0.0000000000000000e+00  -0.0000000000000000e+00 
 -0.0000000000000000e+00  -0.0000000000000000e+00  -0.0000000000000000e+00  -0.0000000000000000e+00 
 -0.0000000000000000e+00  -0.0000000000000000e+00  -0.0000000000000000e+00  -0.0000000000000000e+00 
 -0.0000000000000000e+00  -0.0000000000000000e+00  -0.0000000000000000e+00  -0.0000000000000000e+00 
 -0.0000000000000000e+00  -0.0000000000000000e+00  -0.0000000000000000e+00  -0.0000000000000000e+00 
 -0.0000000000000000e+00  -0.0000000000000000e+00  -0.0000000000000000e+00  -0.0000000000000000e+00 
 -0.0000000000000000e+00  -0.0000000000000000e+00  -0.0000000000000000e+00  -0.0000000000000000e+00 
 -0.0000000000000000e+00  -0.0000000000000000e+00  -0.0000000000000000e+00  -0.0000000000000000e+00 
 -0.0000000000000000e+00  -0.0000000000000000e+00  -0.0000000000000000e+00  -0.0000000000000000e+00 
 -0.0000000000000000e+00  -0.0000000000000000e+00  -0.0000000000000000e+00  -0.0000000000000000e+00 
 -0.0000000000000000e+00  -0.0000000000000000e+00  -0.0000000000000000e+00  -0.0000000000000000e+00 
 -0.0000000000000000e+00  -0.0000000000000000e+00  -0.0000000000000000e+00  -0.0000000000000000e+00 
 -0.0000000000000000e+00  -0.0000000000000000e+00  -0.0000000000000000e+00  -0.0000000000000000e+00 
 -0.0000000000000000e+00  -0.0000000000000000e+00  -0.0000000000000000e+00  -0.0000000000000000e+00 
 -0.0000000000000000e+00  -0.0000000000000000e+00  -0.0000000000000000e+00  -0.0000000000000000e+00 
 -0.0000000000000000e+00  -0.0000000000000000e+00  -0.0000000000000000e+00  -0.0000000000000000e+00 
 -0.0000000000000000e+00  -0.0000000000000000e+00  -0.0000000000000000e+00  -0.0000000000000000e+00 
 -0.0000000000000000e+00  -0.0000000000000000e+00  -0.0000000000000000e+00  -0.0000000000000000e+00 
 -0.0000000000000000e+00  -0.0000000000000000e+00  -0.0000000000000000e+00  -0.0000000000000000e+00 
 -0.0000000000000000e+00  -0.0000000000000000e+00  -0.0000000000000000e+00  -0.0000000000000000e+00 
 -0.0000000000000000e+00  -0.0000000000000000e+00  -0.0000000000000000e+00  -0.0000000000000000e+00 
 -0.0000000000000000e+00  -0.0000000000000000e+00  -0.0000000000000000e+00  -0.0000000000000000e+00 
 -0.0000000000000000e+00  -0.0000000000000000e+00  -0.0000000000000000e+00  -0.0000000000000000e+00 
 -0.0000000000000000e+00  -0.0000000000000000e+00  -0.0000000000000000e+00  -0.0000000000000000e+00 
 -0.0000000000000000e+00  -0.0000000000000000e+00  -0.0000000000000000e+00  -0.0000000000000000e+00 
 -0.0000000000000000e+00  -0.0000000000000000e+00  -0.0000000000000000e+00  -0.0000000000000000e+00 
 -0.0000000000000000e+00  -0.0000000000000000e+00  -0.0000000000000000e+00  -0.0000000000000000e+00 
 -0.0000000000000000e+00  -0.0000000000000000e+00  -0.0000000000000000e+00  -0.0000000000000000e+00 
 -0.0000000000000000e+00  -0.0000000000000000e+00  -0.0000000000000000e+00  -0.0000000000000000e+00 
 -0.0000000000000000e+00  -0.0000000000000000e+00  -0.0000000000000000e+00  -0.0000000000000000e+00 
 -0.0000000000000000e+00  -0.0000000000000000e+00  -0.0000000000000000e+00  -0.0000000000000000e+00 
 -0.0000000000000000e+00 
D    2   0.00          Wavefunction
 1.3985545191637866e-13  1.4541757087492850e-13  1.5120089799422526e-13  1.5721423082978534e-13 
 1.6346671682016156e-13  1.6996786720196027e-13  1.7672757147826595e-13  1.8375611246248202e-13 
 1.9106418192047195e-13  1.9866289683479666e-13  2.0656381631578758e-13  2.1477895918518262e-13 
 2.2332082225906987e-13  2.3220239935795470e-13  2.4143720107286545e-13  2.5103927531756647e-13 
 2.6102322869814390e-13  2.7140424873246801e-13  2.8219812695333701e-13  2.9342128293044085e-13 
 3.0509078924769356e-13  3.1722439747392375e-13  3.2984056516643241e-13  3.4295848394849637e-13 
 3.5659810870352582e-13  3.7078018793028934e-13  3.8552629530538006e-13  4.0085886250093565e-13 
 4.1680121330753709e-13  4.3337759911418791e-13  4.5061323579935431e-13  4.6853434208917452e-13 
 4.8716817944119641e-13  5.0654309351430840e-13  5.2668855728795226e-13  5.4763521589620401e-13 
 5.6941493324493125e-13  5.9206084048293394e-13  6.1560738640080959e-13  6.4009038983420541e-13 
 6.6554709415116661e-13  6.9201622390648132e-13  7.1953804374919378e-13  7.4815441967289236e-13 
 7.7790888270195868e-13  8.0884669511064359e-13  8.4101491927571314e-13  8.7446248926739105e-13 
 9.0924028528751434e-13  9.4540121106812581e-13  9.8300027434824540e-13  1.0220946705512448e-12 
 1.0627438697901105e-12  1.1050097073329450e-12  1.1489564776663312e-12  1.1946510322996316e-12 
 1.2421628814590260e-12  1.2915642998259555e-12  1.3429304364808443e-12  1.3963394292193350e-12 
 1.4518725234149321e-12  1.5096141956088750e-12  1.5696522820152368e-12  1.6320781121367271e-12 
 1.6969866476944775e-12  1.7644766270831106e-12  1.8346507155708661e-12  1.9076156614732619e-12 
 1.9834824585378490e-12  2.0623665147870924e-12  2.1443878280762123e-12  2.2296711686330422e-12 
 2.3183462688575866e-12  2.4105480206700029e-12  2.5064166807072064e-12  2.6060980836802323e-12 
 2.7097438642169345e-12  2.8175116875274698e-12  2.9295654892434696e-12  3.0460757247956991e-12 
 3.1672196287096410e-12  3.2931814842133137e-12  3.4241529035676160e-12  3.5603331195454372e-12 
 3.7019292885031344e-12  3.8491568055052338e-12  4.0022396319818150e-12  4.1614106364170070e-12 
 4.3269119485868004e-12  4.4989953278850887e-12  4.6779225462981848e-12  4.8639657866104621e-12 
 5.0574080564467594e-12  5.2585436187815332e-12  5.4676784395694971e-12  5.6851306531787610e-12 
 5.9112310463344948e-12  6.1463235613092433e-12  6.3907658191253474e-12  6.6449296635654089e-12 
 6.9092017268182955e-12  7.1839840176211222e-12  7.4696945327919946e-12  7.7667678930836582e-12 
 8.0756560043252847e-12  8.3968287448583709e-12  8.7307746803120366e-12  9.0780018068055179e-12 
 9.4390383237080036e-12  9.8144334371316075e-12  1.0204758195379563e-11  1.0610606357620622e-11 
 1.1032595297111093e-11  1.1471366940338346e-11  1.1927588743514602e-11  1.2401954707906265e-11 
 1.2895186435543470e-11  1.3408034226915576e-11  1.3941278222322700e-11  1.4495729588619134e-11 
 1.5072231753154321e-11  1.5671661686788089e-11  1.6294931237932085e-11  1.6942988519646646e-11 
 1.7616819351903172e-11  1.8317448761205984e-11  1.9045942539854737e-11  1.9803408867219607e-11 
 2.0590999995495235e-11  2.1409914002497929e-11  2.2261396614172477e-11  2.3146743099580732e-11 
 2.4067300241255158e-11  2.5024468383913827e-11  2.6019703564654092e-11  2.7054519727864876e-11 
 2.8130491028227183e-11  2.9249254225305922e-11  3.0412511173375864e-11  3.1622031410269053e-11 
 3.2879654849181834e-11  3.4187294577536562e-11  3.5546939767154978e-11  3.6960658700171003e-11 
 3.8430601915284778e-11  3.9959005479145628e-11  4.1548194387838564e-11  4.3200586103650014e-11 
 4.4918694232492204e-11  4.6705132347580344e-11  4.8562617965179429e-11  5.0493976678467910e-11 
 5.2502146455807664e-11  5.4590182109957394e-11  5.6761259945029412e-11  5.9018682588257579e-11 
 6.1365884013926677e-11  6.3806434767106550e-11  6.6344047395135730e-11  6.8982582095118166e-11 
 7.1726052586022971e-11  7.4578632214320546e-11  7.7544660302443184e-11  8.0628648749725364e-11 
 8.3835288895868113e-11  8.7169458657365000e-11  9.0636229947748169e-11  9.4240876392940005e-11 
 9.7988881353448352e-11  1.0188594626560803e-10  1.0593799931455628e-10  1.1015120445213824e-10 
 1.1453197077345637e-10  1.1908696226633131e-10  1.2382310794850113e-10  1.2874761240798364e-10 
 1.3386796676263212e-10  1.3919196005555746e-10  1.4472769110375215e-10  1.5048358081793765e-10 
 1.5646838501237943e-10  1.6269120772415252e-10  1.6916151506212045e-10  1.7588914960669329e-10 
 1.8288434538227269e-10  1.9015774342515402e-10  1.9772040797057379e-10  2.0558384328352073e-10 
 2.1376001115891598e-10  2.2226134911778348e-10  2.3110078932708941e-10  2.4029177827203120e-10 
 2.4984829721070080e-10  2.5978488344224200e-10  2.7011665242084675e-10  2.8085932074923690e-10 
 2.9202923008660592e-10  3.0364337200738750e-10  3.1571941384867093e-10  3.2827572558557518e-10 
 3.4133140777546951e-10  3.5490632061354417e-10  3.6902111414393888e-10  3.8369725967237291e-10 
 3.9895708242807103e-10  4.1482379552466890e-10  4.3132153527175047e-10  4.4847539789074865e-10 
 4.6631147769104329e-10  4.8485690676433890e-10  5.0413989625770602e-10  5.2418977928806382e-10 
 5.4503705556339005e-10  5.6671343777852935e-10  5.8925189985618565e-10  6.1268672710646886e-10 
 6.3705356838131339e-10  6.6238949030309069e-10  6.8873303364991420e-10  7.1612427198340881e-10 
 7.4460487260812671e-10  7.7421815995533898e-10  8.0500918148762380e-10  8.3702477622450776e-10 
 8.7031364599337316e-10  9.0492642951407153e-10  9.4091577942987746e-10  9.7833644240200224e-10 
 1.0172453423894825e-09  1.0577016672411522e-09  1.0997669587313838e-09  1.1435052061765951e-09 
 1.1889829437749014e-09  1.2362693518169975e-09  1.2854363619222319e-09  1.3365587664599376e-09 
 1.3897143323224955e-09  1.4449839192231601e-09  1.5024516026986524e-09  1.5622048020035712e-09 
 1.6243344130912096e-09  1.6889349468830575e-09  1.7561046730372946e-09  1.8259457694350216e-09 
 1.8985644776115683e-09  1.9740712643693494e-09  2.0525809898180939e-09  2.1342130820980798e-09 
 2.2190917190521439e-09  2.3073460171228131e-09  2.3991102277619210e-09  2.4945239416514627e-09 
 2.5937323010463609e-09  2.6968862205621283e-09  2.8041426167432988e-09  2.9156646467617956e-09 
 3.0316219566084288e-09  3.1521909391549516e-09  3.2775550024792841e-09  3.4079048488620787e-09 
 3.5434387648789815e-09  3.6843629230299176e-09  3.8308916953641787e-09  3.9832479795784100e-09 
 4.1416635380835114e-09  4.3063793505562963e-09  4.4776459805120881e-09  4.6557239564559504e-09 
 4.8408841681923085e-09  5.0334082788957504e-09  5.2335891535699863e-09  5.4417313045464928e-09 
 5.6581513547007123e-09  5.8831785190902494e-09  6.1171551057478871e-09  6.3604370363910235e-09 
 6.6133943878396999e-09  6.8764119549667593e-09  7.1498898360364625e-09  7.4342440413219471e-09 
 7.7299071259272903e-09  8.0373288477768140e-09  8.3569768517724413e-09  8.6893373811599467e-09 
 9.0349160171859718e-09  9.3942384481711040e-09  9.7678512691687311e-09  1.0156322813426058e-08 
 1.0560244016912227e-08  1.0980229317228288e-08  1.1416917588266548e-08  1.1870973112040938e-08 
 1.2343086589166850e-08  1.2833976189527089e-08  1.3344388644722557e-08  1.3875100383969090e-08 
 1.4426918715168269e-08  1.5000683052949109e-08  1.5597266195547921e-08  1.6217575652469235e-08 
 1.6862555024946818e-08  1.7533185441304945e-08  1.8230487049402871e-08  1.8955520568432952e-08 
 1.9709388902432518e-08  2.0493238817963935e-08  2.1308262688514876e-08  2.2155700308271729e-08 
 2.3036840778025327e-08  2.3953024466077554e-08  2.4905645047131293e-08  2.5896151622265003e-08 
 2.6926050923216995e-08  2.7996909604331273e-08  2.9110356625651938e-08  3.0268085730790468e-08 
 3.1471858023334990e-08  3.2723504645720271e-08  3.4024929564632840e-08  3.5378112467188503e-08 
 3.6785111772286247e-08  3.8248067761720382e-08  3.9769205835812096e-08  4.1350839898512383e-08 
 4.2995375877125810e-08  4.4705315382007876e-08  4.6483259511802466e-08  4.8331912810007182e-08 
 5.0254087378884659e-08  5.2252707156975693e-08  5.4330812366722350e-08  5.6491564138963551e-08 
 5.8738249321337734e-08  6.1074285477905832e-08  6.3503226087598634e-08  6.6028765949394850e-08 
 6.8654746802450764e-08  7.1385163169729596e-08  7.4224168434016827e-08  7.7176081155565176e-08 
 8.0245391640974452e-08  8.3436768773299126e-08  8.6755067113770213e-08  9.0205334285932938e-08 
 9.3792818653429353e-08  9.7522977303104244e-08  1.0140148434557415e-07  1.0543423954588180e-07 
 1.0962737729736714e-07  1.1398727595239533e-07  1.1852056752413640e-07  1.2323414777415043e-07 
 1.2813518670111788e-07  1.3323113944666733e-07  1.3852975763488447e-07  1.4403910116274931e-07 
 1.4976755045942623e-07  1.5572381923305929e-07  1.6191696772444618e-07  1.6835641648775326e-07 
 1.7505196071922503e-07  1.8201378515567687e-07  1.8925247956542819e-07  1.9677905485523059e-07 
 2.0460495981768472e-07  2.1274209854460936e-07  2.2120284853284956e-07  2.3000007951004329e-07 
 2.3914717300898192e-07  2.4865804272032465e-07  2.5854715565461316e-07  2.6882955414576683e-07 
 2.7952087872951037e-07  2.9063739193152472e-07  3.0219600300148278e-07  3.1421429363059116e-07 
 3.2671054469171993e-07  3.3970376404279184e-07  3.5321371543569485e-07  3.6726094857467328e-07 
 3.8186683036989358e-07  3.9705357743370419e-07  4.1284428986898722e-07  4.2926298640097285e-07 
 4.4633464090593233e-07  4.6408522039226280e-07  4.8254172449172220e-07  5.0173222652083379e-07 
 5.2168591617488908e-07  5.4243314391943853e-07  5.6400546714676069e-07  5.8643569816745970e-07 
 6.0975795411013812e-07  6.3400770880501323e-07  6.5922184673030643e-07  6.8543871910342440e-07 
 7.1269820220216920e-07  7.4104175800463671e-07  7.7051249723993869e-07  8.0115524494559784e-07 
 8.3301660863123289e-07  8.6614504915211314e-07  9.0059095440032737e-07  9.3640671592549906e-07 
 9.7364680860150907e-07  1.0123678734602896e-06  1.0526288038185327e-06  1.0944908348281969e-06 
 1.1380176365868752e-06  1.1832754109494906e-06  1.2303329921883873e-06  1.2792619516548061e-06 
 1.3301367066006723e-06  1.3830346333260733e-06  1.4380361848242787e-06  1.4952250131030317e-06 
 1.5546880963679002e-06  1.6165158712608921e-06  1.6808023703551791e-06  1.7476453651147439e-06 
 1.8171465145361245e-06  1.8894115196979391e-06  1.9645502844529245e-06  2.0426770825065096e-06 
 2.1239107311356322e-06  2.2083747718115702e-06  2.2961976580010456e-06  2.3875129504307321e-06 
 2.4824595201115988e-06  2.5811817594313718e-06  2.6838298016354645e-06  2.7905597490296102e-06 
 2.9015339102505482e-06  3.0169210469649253e-06  3.1368966303707550e-06  3.2616431078907903e-06 
 3.3913501804624575e-06  3.5262150908451018e-06  3.6664429233820924e-06  3.8122469156724660e-06 
 3.9638487826250199e-06  4.1214790533864118e-06  4.2853774216543895e-06  4.4557931099074171e-06 
 4.6329852481031951e-06  4.8172232674203300e-06  5.0087873096401661e-06  5.2079686527897144e-06 
 5.4150701536907881e-06  5.6304067080863776e-06  5.8543057290417366e-06  6.0871076443453302e-06 
 6.3291664136634558e-06  6.5808500662322995e-06  6.8425412599021638e-06  7.1146378623808370e-06 
 7.3975535555568948e-06  7.6917184638180239e-06  7.9975798073163350e-06  8.3156025811698636e-06 
 8.6462702616287959e-06  8.9900855402756620e-06  9.3475710873709597e-06  9.7192703454997449e-06 
 1.0105748354720243e-05  1.0507592610463590e-05  1.0925413955482205e-05  1.1359847507196750e-05 
 1.1811553621844109e-05  1.2281218896884798e-05  1.2769557213185543e-05  1.3277310818552799e-05 
 1.3805251454255332e-05  1.4354181526238216e-05  1.4924935322798817e-05  1.5518380280563962e-05 
 1.6135418300681125e-05  1.6776987117211535e-05  1.7444061719791595e-05  1.8137655832710550e-05 
 1.8858823452637103e-05  1.9608660447315736e-05  2.0388306217644651e-05  2.1198945425643364e-05 
 2.2041809790915155e-05  2.2918179958313855e-05  2.3829387439630168e-05  2.4776816632223918e-05 
 2.5761906917643939e-05  2.6786154843396677e-05  2.7851116391149382e-05  2.8958409334782364e-05 
 3.0109715691840440e-05  3.1306784272071021e-05  3.2551433326883470e-05  3.3845553303713480e-05 
 3.5191109709433611e-05  3.6590146087112737e-05  3.8044787110596993e-05  3.9557241801559909e-05 
 4.1129806873850604e-05  4.2764870210161206e-05  4.4464914476226846e-05  4.6232520877980227e-05 
 4.8070373067292301e-05  4.9981261202151950e-05  5.1968086167366111e-05  5.4033863962100181e-05 
 5.6181730260824931e-05  5.8414945154491659e-05  6.0736898079027075e-05  6.3151112938512226e-05 
 6.5661253430698499e-05  6.8271128582809911e-05  7.0984698505900632e-05  7.3806080376338592e-05 
 7.6739554653342310e-05  7.9789571541828938e-05  8.2960757710193503e-05  8.6257923273029276e-05 
 8.9686069049155209e-05  9.3250394105755778e-05  9.6956303599825508e-05  1.0080941692856638e-04 
 1.0481557620082262e-04  1.0898085504211044e-04  1.1331156774629126e-04  1.1781427878742000e-04 
 1.2249581270585408e-04  1.2736326438321502e-04  1.3242400972139027e-04  1.3768571674131828e-04 
 1.4315635711792485e-04  1.4884421816819664e-04  1.5475791531003162e-04  1.6090640501018112e-04 
 1.6729899824030015e-04  1.7394537446084924e-04  1.8085559615333341e-04  1.8804012392217463e-04 
 1.9550983218828065e-04  2.0327602549725246e-04  2.1135045546601998e-04  2.1974533839259829e-04 
 2.2847337355461414e-04  2.3754776222317567e-04  2.4698222741972186e-04  2.5679103444447009e-04 
 2.6698901220619355e-04  2.7759157538417227e-04  2.8861474745429363e-04  3.0007518461250623e-04 
 3.1199020063004789e-04  3.2437779267615815e-04  3.3725666814531091e-04  3.5064627252738686e-04 
 3.6456681836060582e-04  3.7903931530853293e-04  3.9408560140397335e-04  4.0972837550416725e-04 
 4.2599123100329009e-04  4.4289869084998844e-04  4.6047624391936965e-04  4.7875038279070995e-04 
 4.9774864298397043e-04  5.1749964371012517e-04  5.3803313019231531e-04  5.5938001761684955e-04 
 5.8157243677521553e-04  6.0464378146041740e-04  6.2862875768321131e-04  6.5356343477614165e-04 
 6.7948529845562444e-04  7.0643330591486063e-04  7.3444794302280280e-04  7.6357128370709308e-04 
 7.9384705160153758e-04  8.2532068404145688e-04  8.5803939849309356e-04  8.9205226150620260e-04 
 9.2741026028194133e-04  9.6416637695125984e-04  1.0023756656622144e-03  1.0420953325777909e-03 
 1.0833848188892680e-03  1.1263058869535065e-03  1.1709227096660701e-03  1.2173019631856927e-03 
 1.2655129231292641e-03  1.3156275643602649e-03  1.3677206644973957e-03  1.4218699112741255e-03 
 1.4781560138837626e-03  1.5366628184488409e-03  1.5974774277576409e-03  1.6606903254149494e-03 
 1.7263955045584256e-03  1.7946906012961004e-03  1.8656770330253696e-03  1.9394601417973677e-03 
 2.0161493428965758e-03  2.0958582788082251e-03  2.1787049787521866e-03  2.2648120239649773e-03 
 2.3543067189185042e-03  2.4473212686654628e-03  2.5439929625087915e-03  2.6444643641951597e-03 
 2.7488835088383444e-03  2.8574041067809639e-03  2.9701857546093552e-03  3.0873941535393707e-03 
 3.2092013353944922e-03  3.3357858964032949e-03  3.4673332390452775e-03  3.6040358221789410e-03 
 3.7460934196879396e-03  3.8937133878856364e-03  4.0471109419204718e-03  4.2065094414261454e-03 
 4.3721406856643708e-03  4.5442452184077213e-03  4.7230726428128447e-03  4.9088819465333642e-03 
 5.1019418373222528e-03  5.3025310893752139e-03  5.5109389006593014e-03  5.7274652614760259e-03 
 5.9524213345015058e-03  6.1861298465372833e-03  6.4289254922186333e-03  6.6811553498896540e-03 
 6.9431793098869380e-03  7.2153705154249020e-03  7.4981158163014696e-03  7.7918162356038290e-03 
 8.0968874496004650e-03  8.4137602809766909e-03  8.7428812055691443e-03  9.0847128727193013e-03 
 9.4397346393618638e-03  9.8084431179285940e-03  1.0191352738133019e-02  1.0588996322663189e-02 
 1.1001925676790184e-02  1.1430712191858422e-02  1.1875947462593923e-02  1.2338243918119305e-02 
 1.2818235466533561e-02  1.3316578152852884e-02  1.3833950830072637e-02  1.4371055843053657e-02 
 1.4928619724861586e-02  1.5507393905162531e-02  1.6108155430162394e-02  1.6731707693555361e-02 
 1.7378881177830412e-02  1.8050534205232133e-02  1.8747553697567303e-02  1.9470855943970831e-02 
 2.0221387375636651e-02  2.1000125346422090e-02  2.1808078918131569e-02  2.2646289649155452e-02 
 2.3515832385042030e-02  2.4417816049433813e-02  2.5353384433682125e-02  2.6323716983314212e-02 
 2.7330029579372025e-02  2.8373575312511373e-02  2.9455645247576559e-02  3.0577569176221165e-02 
 3.1740716354953631e-02  3.2946496225851406e-02  3.4196359116968514e-02  3.5491796919306241e-02 
 3.6834343737011416e-02  3.8225576507295612e-02  3.9667115586329293e-02  4.1160625297208694e-02 
 4.2707814435857888e-02  4.4310436730516350e-02  4.5970291250259643e-02  4.7689222757775783e-02 
 4.9469122001382600e-02  5.1311925941074643e-02  5.3219617903108057e-02  5.5194227657446214e-02 
 5.7237831412105228e-02  5.9352551718200620e-02  6.1540557279258404e-02  6.3804062658053315e-02 
 6.6145327873988025e-02  6.8566657883729856e-02  7.1070401937523675e-02  7.3658952803257724e-02 
 7.6334745850046667e-02  7.9100257982727323e-02  8.1958006418230422e-02  8.4910547294417368e-02 
 8.7960474101461669e-02  9.1110415925364494e-02  9.4363035492610894e-02  9.7721027004383371e-02 
 1.0118711374800864e-01  1.0476404547261393e-01  1.0845459551508434e-01  1.1226155766149686e-01 
 1.1618774272819338e-01  1.2023597484553575e-01  1.2440908742612374e-01  1.2870991879798285e-01 
 1.3314130748172812e-01  1.3770608708919088e-01  1.4240708081934300e-01  1.4724709552558607e-01 
 1.5222891532668001e-01  1.5735529473169335e-01  1.6262895124744192e-01  1.6805255743501898e-01 
 1.7362873238013626e-01  1.7936003254029634e-01  1.8524894193026345e-01  1.9129786160598256e-01 
 1.9750909840619602e-01  2.0388485291050901e-01  2.1042720657276895e-01  2.1713810798946176e-01 
 2.2401935826452193e-01  2.3107259543468847e-01  2.3829927792349040e-01  2.4570066699725127e-01 
 2.5327780820342172e-01  2.6103151178018336e-01  2.6896233203684655e-01  2.7707054571722733e-01 
 2.8535612937307103e-01  2.9381873579178230e-01  3.0245766954229530e-01  3.1127186172484411e-01 
 3.2025984403460594e-01  3.2941972227547389e-01  3.3874914948837248e-01  3.4824529888804046e-01 
 3.5790483683266022e-01  3.6772389608131556e-01  3.7769804962427511e-01  3.8782228539943864e-01 
 3.9809098223389783e-01  4.0849788737106119e-01  4.1903609595986202e-01  4.2969803289165226e-01 
 4.4047543737095540e-01  4.5135935059683169e-01  4.6234010691075633e-01  4.7340732873342983e-01 
 4.8454992556593268e-01  4.9575609726965608e-01  5.0701334176455526e-01  5.1830846719737578e-01 
 5.2962760853224577e-01  5.4095624840811485e-01  5.5227924199476996e-01  5.6358084546652554e-01 
 5.7484474760638982e-01  5.8605410396089930e-01  5.9719157289528368e-01  6.0823935285926323e-01 
 6.1917922017528204e-01  6.2999256671263326e-01  6.4066043692150199e-01  6.5116356387744090e-01 
 6.6148240423372662e-01  6.7159717229727189e-01  6.8148787382945808e-01  6.9113434061665169e-01 
 7.0051626733967765e-01  7.0961325277291132e-01  7.1840484782948211e-01  7.2687061339907755e-01 
 7.3499019125124887e-01  7.4274339144680623e-01  7.5011029965656650e-01  7.5707140747483614e-01 
 7.6360776818470966e-01  7.6970117944499994e-01  7.7533439300436746e-01  7.8049134981232304e-01 
 7.8515743682767813e-01  7.8931975950038191e-01  7.9296742144444765e-01  7.9609180039600858e-01 
 7.9868680737379238e-01  8.0074911427905970e-01  8.0227833426161355e-01  8.0327713931478717e-01 
 8.0375130099859970e-01  8.0370964312227045e-01  8.0316389974494951e-01  8.0212847794038811e-01 
 8.0062013220670925e-01  7.9865756577115454e-01  7.9626098270621659e-01  7.9345162288805859e-01 
 7.9025131836077456e-01  7.8668211348023254e-01  7.8276599115391032e-01  7.7852474256212501e-01 
 7.7398000724717453e-01  7.6915349419767087e-01  7.6406737302948735e-01  7.5874479890322521e-01 
 7.5321050767130326e-01  7.4749139206164283e-01  7.4161694935625910e-01  7.3561948028754842e-01 
 7.2953392192106481e-01  7.2339721751933328e-01  7.1724716564829305e-01  7.1112074864138430e-01 
 7.0505201354064639e-01  6.9906965998176052e-01  6.9319456905008781e-01  6.8743757209457934e-01 
 6.8179779467902635e-01  6.7626190477009118e-01  6.7080453563266196e-01  6.6539003849871492e-01 
 6.5997555232907656e-01  6.5451517279235627e-01  6.4896478563753279e-01  6.4328693572925055e-01 
 6.3745837323895516e-01  6.3147819024079066e-01  6.2535019421186122e-01  6.1907837523321130e-01 
 6.1266690147650849e-01  6.0612011248519793e-01  5.9944251011425542e-01  5.9263874705660391e-01 
 5.8571361343654493e-01  5.7867201915872246e-01  5.7151897698316112e-01  5.6425958182644864e-01 
 5.5689898904296253e-01  5.4944239166911635e-01  5.4189499716281497e-01  5.3426200422682557e-01 
 5.2654858033996887e-01  5.1875984063126379e-01  5.1090082871803522e-01  5.0297650008951555e-01 
 4.9499170855388364e-01  4.8695119618137916e-01  4.7885958707231147e-01  4.7072138516016387e-01 
 4.6254097613131084e-01  4.5432263340854595e-01  4.4607052801030594e-01  4.3778874196623729e-01 
 4.2948128484738318e-01  4.2115211286028881e-01  4.1280514986301420e-01  4.0444430959175726e-01 
 3.9607351834248439e-01  3.8769673733488813e-01  3.7931798399771294e-01  3.7094135145477913e-01 
 3.6257102555838261e-01  3.5421129890816094e-01  3.4586658140463339e-01  3.3754140701193641e-01 
 3.2924043653754609e-01  3.2096845637141430e-01  3.1273037325654557e-01  3.0453120528179228e-01 
 2.9637606939078792e-01  2.8827016578495279e-01  2.8021875966134285e-01  2.7222716076712522e-01 
 2.6430070127233074e-01  2.5644471246302264e-01  2.4866450074069912e-01  2.4096532338372986e-01 
 2.3335236448620830e-01  2.2583071144208838e-01  2.1840533229091763e-01  2.1108105418856718e-01 
 2.0386254321432259e-01  1.9675428567627926e-01  1.8976057103144220e-01  1.8288547649608608e-01 
 1.7613285338622098e-01  1.6950631519755238e-01  1.6300922740900842e-01  1.5664469897341876e-01 
 1.5041557544285869e-01  1.4432443366402120e-01  1.3837357797023050e-01  1.3256503779084544e-01 
 1.2690056659532611e-01  1.2138164208769055e-01  1.1600946756706568e-01  1.1078497437117285e-01 
 1.0570882532158338e-01  1.0078141909217019e-01  9.6002895425159732e-02  9.1373141122387494e-02 
 8.6891796742642219e-02  8.2558263939253432e-02  7.8371713375260221e-02  7.4331093156540406e-02 
 7.0435137726152217e-02  6.6682377165822593e-02  6.3071146853000901e-02  5.9599597424187647e-02 
 5.6265704997353012e-02  5.3067281608190513e-02  5.0001985816727545e-02  4.7067333442451724e-02 
 4.4260708387631992e-02  4.1579373509935000e-02  3.9020481506782077e-02  3.6581085775177623e-02 
 3.4258151211986172e-02  3.2048564920859529e-02  2.9949146793233121e-02  2.7956659932037477e-02 
 2.6067820888020114e-02  2.4279309679854592e-02  2.2587779570541519e-02  2.0989866573984269e-02 
 1.9482198667061211e-02  1.8061404684018668e-02  1.6724122871579976e-02  1.5467009084805987e-02 
 1.4286744605452912e-02  1.3180043566351416e-02  1.2143659967174260e-02  1.1174394268863149e-02 
 1.0269099555942711e-02  9.4246872579527661e-03  8.6381324232705139e-03  7.9064785406612881e-03 
 7.2268419059790283e-03  6.5964155335231436e-03  6.0124726136341249e-03  5.4723695201619425e-03 
 4.9735483734555828e-03  4.5135391664829078e-03  4.0899614635973320e-03  3.7005256832591126e-03 
 3.3430339777680757e-03  3.0153807246663263e-03  2.7155526459702712e-03  2.4416285727579773e-03 
 2.1917788738655894e-03  1.9642645685257008e-03  1.7574361437042410e-03  1.5697320976550333e-03 
 1.3996772318087638e-03  1.2458807135435053e-03  1.1070339326467299e-03  9.8190817437517628e-04 
 8.6935213195212294e-04  7.6828928111616053e-04  6.7771513895791577e-04  5.9669442875904459e-04 
 5.2435817189048248e-04  4.5990072704482523e-04  4.0257679618233472e-04  3.5169841557387892e-04 
 3.0663194924028211e-04  2.6679510875410263e-04  2.3165406006059533e-04  2.0072035925453499e-04 
 1.7354818902837147e-04  1.4973159027267669e-04  1.2890176390045762e-04  1.1072446169213756e-04 
 9.4897473249319002e-05  8.1148214902893091e-05  6.9231425218990242e-05  5.8926970594269572e-05 
 5.0037763338534548e-05  4.2387793614806405e-05  3.5820275650693866e-05  3.0195907754806088e-05 
 2.5391244871440526e-05  2.1297181688001530e-05  1.7817543673552391e-05  1.4867782873455841e-05 
 1.2373774813071880e-05  1.0270712470878899e-05  8.5020929652536399e-06  7.0187923558472980e-06 
 5.7782237857749134e-06  4.7435740799340633e-06  3.8831138625381563e-06  3.1695762579602074e-06 
 2.5795992876319508e-06  2.0932271663536424e-06  1.6934658282848480e-06  1.3658881705516446e-06 
 1.0982846854460113e-06  8.8035535547687056e-07  7.0343890422535163e-07  5.6027572556724228e-07 
 4.4480105023627191e-07  3.5196514819417036e-07  2.7757760454089355e-07  2.1817294285128090e-07 
 1.7089510038661584e-07  1.3339848252802588e-07  1.0376353732682084e-07  8.0424993942795642e-08 
 6.2111099962148412e-08  4.7792371478758485e-08  3.6638535991738721e-08  2.7982501470573925e-08 
 2.1290325432902487e-08  1.6136285816912844e-08  1.2182271208741762e-08  9.1608121243514095e-09 
 6.8611681574637152e-09  5.1179685703850322e-09  3.8019770480659525e-09  2.8126156074140848e-09 
 2.0719388109594369e-09  1.5197982262943376e-09  1.1099792305325010e-09  8.0712848336316844e-10 
 5.8432134749683155e-10  4.2114484389835862e-10  3.0219396842955487e-10  2.1589789675114651e-10 
 1.5360824898370815e-10  1.0889461251092899e-10  7.7003325368700422e-11  0.0000000000000000e+00 
 0.0000000000000000e+00  0.0000000000000000e+00  0.0000000000000000e+00  0.0000000000000000e+00 
 0.0000000000000000e+00  0.0000000000000000e+00  0.0000000000000000e+00  0.0000000000000000e+00 
 0.0000000000000000e+00  0.0000000000000000e+00  0.0000000000000000e+00  0.0000000000000000e+00 
 0.0000000000000000e+00  0.0000000000000000e+00  0.0000000000000000e+00  0.0000000000000000e+00 
 0.0000000000000000e+00  0.0000000000000000e+00  0.0000000000000000e+00  0.0000000000000000e+00 
 0.0000000000000000e+00  0.0000000000000000e+00  0.0000000000000000e+00  0.0000000000000000e+00 
 0.0000000000000000e+00  0.0000000000000000e+00  0.0000000000000000e+00  0.0000000000000000e+00 
 0.0000000000000000e+00  0.0000000000000000e+00  0.0000000000000000e+00  0.0000000000000000e+00 
 0.0000000000000000e+00  0.0000000000000000e+00  0.0000000000000000e+00  0.0000000000000000e+00 
 0.0000000000000000e+00  0.0000000000000000e+00  0.0000000000000000e+00  0.0000000000000000e+00 
 0.0000000000000000e+00  0.0000000000000000e+00  0.0000000000000000e+00  0.0000000000000000e+00 
 0.0000000000000000e+00  0.0000000000000000e+00  0.0000000000000000e+00  0.0000000000000000e+00 
 0.0000000000000000e+00  0.0000000000000000e+00  0.0000000000000000e+00  0.0000000000000000e+00 
 0.0000000000000000e+00  0.0000000000000000e+00  0.0000000000000000e+00  0.0000000000000000e+00 
 0.0000000000000000e+00  0.0000000000000000e+00  0.0000000000000000e+00  0.0000000000000000e+00 
 0.0000000000000000e+00  0.0000000000000000e+00  0.0000000000000000e+00  0.0000000000000000e+00 
 0.0000000000000000e+00  0.0000000000000000e+00  0.0000000000000000e+00  0.0000000000000000e+00 
 0.0000000000000000e+00  0.0000000000000000e+00  0.0000000000000000e+00  0.0000000000000000e+00 
 0.0000000000000000e+00  0.0000000000000000e+00  0.0000000000000000e+00  0.0000000000000000e+00 
 0.0000000000000000e+00  0.0000000000000000e+00  0.0000000000000000e+00  0.0000000000000000e+00 
 0.0000000000000000e+00  0.0000000000000000e+00  0.0000000000000000e+00  0.0000000000000000e+00 
 0.0000000000000000e+00  0.0000000000000000e+00  0.0000000000000000e+00  0.0000000000000000e+00 
 0.0000000000000000e+00  0.0000000000000000e+00  0.0000000000000000e+00  0.0000000000000000e+00 
 0.0000000000000000e+00  0.0000000000000000e+00  0.0000000000000000e+00  0.0000000000000000e+00 
 0.0000000000000000e+00  0.0000000000000000e+00  0.0000000000000000e+00  0.0000000000000000e+00 
 0.0000000000000000e+00  0.0000000000000000e+00  0.0000000000000000e+00  0.0000000000000000e+00 
 0.0000000000000000e+00  0.0000000000000000e+00  0.0000000000000000e+00  0.0000000000000000e+00 
 0.0000000000000000e+00  0.0000000000000000e+00  0.0000000000000000e+00  0.0000000000000000e+00 
 0.0000000000000000e+00 
</PP_PSWFC>


<PP_RHOATOM>
 1.5023440108482085e-09  1.5419171790901677e-09  1.5825327422278258e-09  1.6242181579372910e-09 
 1.6670016071562265e-09  1.7109120131352471e-09  1.7559790609911718e-09  1.8022332177753184e-09 
 1.8497057530704162e-09  1.8984287601300769e-09  1.9484351775750724e-09  1.9997588116611445e-09 
 2.0524343591333444e-09  2.1064974306824054e-09  2.1619845750189518e-09  2.2189333035818709e-09 
 2.2773821158975173e-09  2.3373705256068916e-09  2.3989390871784359e-09  2.4621294233244347e-09 
 2.5269842531396149e-09  2.5935474209809337e-09  2.6618639261081037e-09  2.7319799531048504e-09 
 2.8039429031015313e-09  2.8778014258201713e-09  2.9536054524636064e-09  3.0314062294709406e-09 
 3.1112563531621898e-09  3.1932098052954725e-09  3.2773219895608337e-09  3.3636497690353375e-09 
 3.4522515046247718e-09  3.5431870945179593e-09  3.6365180146803238e-09  3.7323073604140909e-09 
 3.8306198890132549e-09  3.9315220635420922e-09  4.0350820977668720e-09  4.1413700022711023e-09 
 4.2504576317855113e-09  4.3624187337647151e-09  4.4773289982435134e-09  4.5952661090063884e-09 
 4.7163097961049026e-09  4.8405418897584309e-09  4.9680463756747384e-09  5.0989094518277217e-09 
 5.2332195867307641e-09  5.3710675792450398e-09  5.5125466199633023e-09  5.6577523542104980e-09 
 5.8067829467039679e-09  5.9597391479168189e-09  6.1167243621894122e-09  6.2778447176349267e-09 
 6.4432091378864477e-09  6.6129294157337454e-09  6.7871202886999288e-09  6.9658995166087738e-09 
 7.1493879611952647e-09  7.3377096678132065e-09  7.5309919492950730e-09  7.7293654720208523e-09 
 7.9329643442539965e-09  8.1419262068043222e-09  8.3563923260790011e-09  8.5765076895846412e-09 
 8.8024211039450661e-09  9.0342852955009133e-09  9.2722570135591838e-09  9.5164971363625490e-09 
 9.7671707798498941e-09  1.0024447409281949e-08  1.0288500953807058e-08  1.0559509924044892e-08 
 1.0837657532767419e-08  1.1123131818758746e-08  1.1416125773937656e-08  1.1716837473828546e-08 
 1.2025470211469406e-08  1.2342232634846775e-08  1.2667338887951232e-08  1.3001008755548215e-08 
 1.3343467811762466e-08  1.3694947572576297e-08  1.4055685652344862e-08  1.4425925924434317e-08 
 1.4805918686091295e-08  1.5195920827655421e-08  1.5596196006228950e-08  1.6007014823921207e-08 
 1.6428655010788196e-08  1.6861401612591118e-08  1.7305547183500702e-08  1.7761391983877607e-08 
 1.8229244183262678e-08  1.8709420068714271e-08  1.9202244258633540e-08  1.9708049922221934e-08 
 2.0227179004719996e-08  2.0759982458578770e-08  2.1306820480721021e-08  2.1868062756052100e-08 
 2.2444088707385190e-08  2.3035287751950226e-08  2.3642059564659357e-08  2.4264814348307561e-08 
 2.4903973110890371e-08  2.5559967950227102e-08  2.6233242346081067e-08  2.6924251459975052e-08 
 2.7633462442904255e-08  2.8361354751154937e-08  2.9108420470442347e-08  2.9875164648587005e-08 
 3.0662105636954090e-08  3.1469775440887195e-08  3.2298720079373069e-08  3.3149499954180390e-08 
 3.4022690228722765e-08  3.4918881216901184e-08  3.5838678782189687e-08  3.6782704747233558e-08 
 3.7751597314237266e-08  3.8746011496426133e-08  3.9766619560873595e-08  4.0814111482993396e-08 
 4.1889195413004224e-08  4.2992598154681932e-08  4.4125065656722826e-08  4.5287363517050941e-08 
 4.6480277500409664e-08  4.7704614069587832e-08  4.8961200930639779e-08  5.0250887592467219e-08 
 5.1574545941142537e-08  5.2933070829360244e-08  5.4327380681417084e-08  5.5758418114127449e-08 
 5.7227150574096719e-08  5.8734570991780526e-08  6.0281698452774818e-08  6.1869578886788904e-08 
 6.3499285774767650e-08  6.5171920874641692e-08  6.6888614966195620e-08  6.8650528615558065e-08 
 7.0458852959830540e-08  7.2314810512385921e-08  7.4219655989380875e-08  7.6174677158040240e-08 
 7.8181195707289342e-08  8.0240568141319948e-08  8.2354186696696521e-08  8.4523480283621772e-08 
 8.6749915451997323e-08  8.9034997382935607e-08  9.1380270906389511e-08  9.3787321545591197e-08 
 9.6257776589004155e-08  9.8793306190515459e-08  1.0139562449861020e-07  1.0406649081529256e-07 
 1.0680771078553835e-07  1.0962113761808065e-07  1.1250867333835737e-07  1.1547227007446581e-07 
 1.1851393137699398e-07  1.2163571357362298e-07  1.2483972715941453e-07  1.2812813822372527e-07 
 1.3150316991471182e-07  1.3496710394241875e-07  1.3852228212146205e-07  1.4217110795435877e-07 
 1.4591604825656446e-07  1.4975963482432554e-07  1.5370446614646955e-07  1.5775320916129354e-07 
 1.6190860105973793e-07  1.6617345113606513e-07  1.7055064268729775e-07  1.7504313496269341e-07 
 1.7965396516458687e-07  1.8438625050193992e-07  1.8924319029799807e-07  1.9422806815347352e-07 
 1.9934425416672132e-07  2.0459520721240830e-07  2.0998447728021895e-07  2.1551570787517557e-07 
 2.2119263848120050e-07  2.2701910708958770e-07  2.3299905279409025e-07  2.3913651845438180e-07 
 2.4543565342969326e-07  2.5190071638447670e-07  2.5853607816798998e-07  2.6534622476975320e-07 
 2.7233576035287836e-07  2.7950941036731681e-07  2.8687202474514622e-07  2.9442858118003856e-07 
 3.0218418849314546e-07  3.1014409008767337e-07  3.1831366749447704e-07  3.2669844401108692e-07 
 3.3530408843661997e-07  3.4413641890510721e-07  3.5320140681982935e-07  3.6250518089132607e-07 
 3.7205403128181200e-07  3.8185441385879899e-07  3.9191295456080939e-07  4.0223645387813412e-07 
 4.1283189145166650e-07  4.2370643079292543e-07  4.3486742412846261e-07  4.4632241737193865e-07 
 4.5807915522722108e-07  4.7014558642597233e-07  4.8252986910326864e-07  4.9524037631488807e-07 
 5.0828570169999838e-07  5.2167466529309502e-07  5.3541631948910446e-07  5.4951995516570946e-07 
 5.6399510796702465e-07  5.7885156475289893e-07  5.9409937021819145e-07  6.0974883368651710e-07 
 6.2581053608305995e-07  6.4229533709117463e-07  6.5921438249762905e-07  6.7657911173145206e-07 
 6.9440126560151537e-07  7.1269289423806086e-07  7.3146636524358536e-07  7.5073437205858157e-07 
 7.7050994254781637e-07  7.9080644781296031e-07  8.1163761123753911e-07  8.3301751777034335e-07 
 8.5496062345358134e-07  8.7748176520223006e-07  9.0059617084123224e-07  9.2431946940731441e-07 
 9.4866770172244029e-07  9.7365733124603788e-07  9.9930525521339472e-07  1.0256288160677236e-06 
 1.0526458131937215e-06  1.0803745149604972e-06  1.1088336710821126e-06  1.1380425253040568e-06 
 1.1680208284243229e-06  1.1987888516578597e-06  1.2303674003535060e-06  1.2627778280727087e-06 
 1.2960420510395657e-06  1.3301825629720144e-06  1.3652224503042282e-06  1.4011854078105524e-06 
 1.4380957546415861e-06  1.4759784507833057e-06  1.5148591139504073e-06  1.5547640369253161e-06 
 1.5957202053546897e-06  1.6377553160154420e-06  1.6808977955627636e-06  1.7251768197728141e-06 
 1.7706223332932253e-06  1.8172650699147725e-06  1.8651365733780587e-06  1.9142692187293241e-06 
 1.9646962342398909e-06  2.0164517239041687e-06  2.0695706905315456e-06  2.1240890594478114e-06 
 2.1800437028222973e-06  2.2374724646372739e-06  2.2964141863165652e-06  2.3569087330308880e-06 
 2.4189970206977750e-06  2.4827210436944918e-06  2.5481239033028141e-06  2.6152498369050622e-06 
 2.6841442479512616e-06  2.7548537367178837e-06  2.8274261318790909e-06  2.9019105229120516e-06 
 2.9783572933584302e-06  3.0568181549646889e-06  3.1373461827245698e-06  3.2199958508475743e-06 
 3.3048230696781204e-06  3.3918852235904781e-06  3.4812412098854007e-06  3.5729514787150727e-06 
 3.6670780740635240e-06  3.7636846758107520e-06  3.8628366429090148e-06  3.9646010577011248e-06 
 4.0690467714108193e-06  4.1762444508365196e-06  4.2862666262803160e-06  4.3991877407450834e-06 
 4.5150842004334188e-06  4.6340344265829189e-06  4.7561189086735069e-06  4.8814202590430668e-06 
 5.0100232689491195e-06  5.1420149661147691e-06  5.2774846737985552e-06  5.4165240714287930e-06 
 5.5592272568439996e-06  5.7056908101822567e-06  5.8560138594633430e-06  6.0102981479089485e-06 
 6.1686481030470394e-06  6.3311709076482259e-06  6.4979765725428562e-06  6.6691780113690578e-06 
 6.8448911173032752e-06  7.0252348418262677e-06  7.2103312755789566e-06  7.4003057313639335e-06 
 7.5952868293500062e-06  7.7954065845387105e-06  8.0008004965533901e-06  8.2116076418128276e-06 
 8.4279707681534403e-06  8.6500363919655860e-06  8.8779548979113225e-06  9.1118806412929560e-06 
 9.3519720531432974e-06  9.5983917481108389e-06  9.8513066352147996e-06  1.0110888031547206e-05 
 1.0377311779001126e-05  1.0650758364106580e-05  1.0931413041057466e-05  1.1219465958015772e-05 
 1.1515112286780999e-05  1.1818552355915781e-05  1.2129991787420670e-05  1.2449641637053851e-05 
 1.2777718538394543e-05  1.3114444850750710e-05  1.3460048811015315e-05  1.3814764689577950e-05 
 1.4178832950401407e-05  1.4552500415376111e-05  1.4936020433068551e-05  1.5329653051982566e-05 
 1.5733665198455983e-05  1.6148330859319250e-05  1.6573931269444290e-05  1.7010755104317844e-05 
 1.7459098677775230e-05  1.7919266145035761e-05  1.8391569711184065e-05  1.8876329845246125e-05 
 1.9373875500012899e-05  1.9884544337768621e-05  2.0408682962085670e-05  2.0946647155851974e-05 
 2.1498802125701923e-05  2.2065522753026769e-05  2.2647193851745195e-05  2.3244210433020072e-05 
 2.3856977977112830e-05  2.4485912712571944e-05  2.5131441902958176e-05  2.5794004141315140e-05 
 2.6474049652598816e-05  2.7172040604286823e-05  2.7888451425394720e-05  2.8623769134131838e-05 
 2.9378493674437673e-05  3.0153138261645918e-05  3.0948229737530116e-05  3.1764308934993286e-05 
 3.2601931052671377e-05  3.3461666039727138e-05  3.4344098991121034e-05  3.5249830553652757e-05 
 3.6179477343076755e-05  3.7133672372602987e-05  3.8113065493104557e-05  3.9118323845363084e-05 
 4.0150132324691454e-05  4.1209194058286826e-05  4.2296230895672871e-05  4.3411983912605905e-05 
 4.4557213928826762e-05  4.5732702040055106e-05  4.6939250164632688e-05  4.8177681605235709e-05 
 4.9448841626088691e-05  5.0753598046125778e-05  5.2092841848560442e-05  5.3467487807335542e-05 
 5.4878475130943309e-05  5.6326768124120010e-05  5.7813356867933591e-05  5.9339257918800557e-05 
 6.0905515026985829e-05  6.2513199875154313e-05  6.4163412837562993e-05  6.5857283760502010e-05 
 6.7595972764608576e-05  6.9380671069701520e-05  7.1212601842804185e-05  7.3093021070042805e-05 
 7.5023218453132635e-05  7.7004518331185898e-05  7.9038280628598360e-05  8.1125901829798291e-05 
 8.3268815981667600e-05  8.5468495724467703e-05  8.7726453352134716e-05  9.0044241902836812e-05 
 9.2423456280711842e-05  9.4865734409740643e-05  9.7372758420739651e-05  9.9946255872489288e-05 
 1.0258800100805100e-04  1.0529981604736352e-04  1.0808357251723805e-04  1.1094119261992245e-04 
 1.1387465064143513e-04  1.1688597440091567e-04  1.1997724674228076e-04  1.2315060706952270e-04 
 1.2640825292702660e-04  1.2975244162634196e-04  1.3318549192088688e-04  1.3670978573011701e-04 
 1.4032776991475062e-04  1.4404195810469156e-04  1.4785493258135957e-04  1.5176934621618848e-04 
 1.5578792446712886e-04  1.5991346743504824e-04  1.6414885198199768e-04  1.6849703391338752e-04 
 1.7296105022618214e-04  1.7754402142531250e-04  1.8224915391058138e-04  1.8707974243642038e-04 
 1.9203917264695613e-04  1.9713092368892006e-04  2.0235857090505137e-04  2.0772578861072563e-04 
 2.1323635295666558e-04  2.1889414488068120e-04  2.2470315315151462e-04  2.3066747750798185e-04 
 2.3679133189672164e-04  2.4307904781200018e-04  2.4953507774115298e-04  2.5616399871938454e-04 
 2.6297051599779762e-04  2.6995946682868065e-04  2.7713582437223445e-04  2.8450470172909815e-04 
 2.9207135610320918e-04  2.9984119309970280e-04  3.0781977116277272e-04  3.1601280615859123e-04 
 3.2442617610862015e-04  3.3306592607883320e-04  3.4193827323064749e-04  3.5104961203954343e-04 
 3.6040651968765171e-04  3.7001576163683022e-04  3.7988429738901948e-04  3.9001928644096933e-04 
 4.0042809444072887e-04  4.1111829955358363e-04  4.2209769904548672e-04  4.3337431609236044e-04 
 4.4495640682398893e-04  4.5685246761163382e-04  4.6907124260887564e-04  4.8162173155560321e-04 
 4.9451319785551401e-04  5.0775517693793808e-04  5.2135748491527445e-04  5.3533022754781640e-04 
 5.4968380952830141e-04  5.6442894409900867e-04  5.7957666301486474e-04  5.9513832686656761e-04 
 6.1112563577840205e-04  6.2755064049605782e-04  6.4442575388047694e-04  6.6176376282444760e-04 
 6.7957784060946019e-04  6.9788155972111551e-04  7.1668890514220505e-04  7.3601428814349106e-04 
 7.5587256059308594e-04  7.7627902980634180e-04  7.9724947395914015e-04  8.1880015808854058e-04 
 8.4094785070586305e-04  8.6370984104843461e-04  8.8710395699748081e-04  9.1114858369087718e-04 
 9.3586268286087438e-04  9.6126581292829748e-04  9.8737814988619148e-04  1.0142205090074800e-03 
 1.0418143674127865e-03  1.0701818875363245e-03  1.0993459415295172e-03  1.1293301366439633e-03 
 1.1601588416372498e-03  1.1918572142472605e-03  1.2244512297828179e-03  1.2579677108807094e-03 
 1.2924343584816437e-03  1.3278797840801516e-03  1.3643335433060880e-03  1.4018261708982089e-03 
 1.4403892171332036e-03  1.4800552857765952e-03  1.5208580736251695e-03  1.5628324117139675e-03 
 1.6060143082644140e-03  1.6504409934538571e-03  1.6961509660907560e-03  1.7431840422837748e-03 
 1.7915814061974121e-03  1.8413856629913279e-03  1.8926408940451579e-03  1.9453927145757519e-03 
 1.9996883337588928e-03  2.0555766174730739e-03  2.1131081537886691e-03  2.1723353213319381e-03 
 2.2333123606595650e-03  2.2960954487861642e-03  2.3607427770142406e-03  2.4273146322232840e-03 
 2.4958734817825427e-03  2.5664840622600946e-03  2.6392134721092502e-03  2.7141312685223487e-03 
 2.7913095686513218e-03  2.8708231554042409e-03  2.9527495880373681e-03  3.0371693177731317e-03 
 3.1241658086856635e-03  3.2138256641076109e-03  3.3062387588243549e-03  3.4014983773349751e-03 
 3.4997013584729228e-03  3.6009482466940325e-03  3.7053434503544536e-03  3.8129954073171089e-03 
 3.9240167582419655e-03  4.0385245279328016e-03  4.1566403151315863e-03  4.2784904911708057e-03 
 4.4042064079142405e-03  4.5339246154378083e-03  4.6677870899243254e-03  4.8059414722692456e-03 
 4.9485413179187242e-03  5.0957463584870803e-03  5.2477227757272279e-03  5.4046434884558571e-03 
 5.5666884530644316e-03  5.7340449782778604e-03  5.9069080548548505e-03  6.0854807009577743e-03 
 6.2699743239550652e-03  6.4606090994562349e-03  6.6576143684183922e-03  6.8612290532032352e-03 
 7.0717020935063806e-03  7.2892929031248485e-03  7.5142718485749545e-03  7.7469207506215190e-03 
 7.9875334098295538e-03  8.2364161573030888e-03  8.4938884318306214e-03  8.7602833847149637e-03 
 9.0359485136251253e-03  9.3212463268714831e-03  9.6165550395708142e-03  9.9222693032367595e-03 
 1.0238800970402756e-02  1.0566579895959346e-02  1.0906054776965469e-02  1.1257694032774690e-02 
 1.1621986727401931e-02  1.1999443536144050e-02  1.2390597758559555e-02  1.2796006380008149e-02 
 1.3216251184049829e-02  1.3651939918106348e-02  1.4103707514895500e-02  1.4572217372259054e-02 
 1.5058162694121661e-02  1.5562267895437330e-02  1.6085290074103878e-02  1.6628020552955581e-02 
 1.7191286495076240e-02  1.7775952595813375e-02  1.8382922855016769e-02  1.9013142433171079e-02 
 1.9667599595245215e-02  2.0347327746236508e-02  2.1053407562549968e-02  2.1786969223518617e-02 
 2.2549194747541350e-02  2.3341320437489453e-02  2.4164639440214943e-02  2.5020504425173350e-02 
 2.5910330387366235e-02  2.6835597579997608e-02  2.7797854582435295e-02  2.8798721509266798e-02 
 2.9839893366441439e-02  3.0923143560694349e-02  3.2050327568655584e-02  3.3223386772254844e-02 
 3.4444352467241229e-02  3.5715350051848366e-02  3.7038603402840993e-02  3.8416439446390581e-02 
 3.9851292931426967e-02  4.1345711413320579e-02  4.2902360455940897e-02  4.4524029060329234e-02 
 4.6213635328410357e-02  4.7974232370332479e-02  4.9809014464197249e-02  5.1721323477083636e-02 
 5.3714655556408322e-02  5.5792668100777890e-02  5.7959187019589631e-02  6.0218214290705244e-02 
 6.2573935825574356e-02  6.5030729651200186e-02  6.7593174418325852e-02  7.0266058245167962e-02 
 7.3054387905933771e-02  7.5963398373217278e-02  7.8998562723186713e-02  8.2165602412230185e-02 
 8.5470497933424677e-02  8.8919499860822163e-02  9.2519140289112956e-02  9.6276244675691167e-02 
 1.0019794409155559e-01  1.0429168788676944e-01  1.0856525677540591e-01  1.1302677634399380e-01 
 1.1768473098645195e-01  1.2254797826734140e-01  1.2762576371397832e-01  1.3292773603650920e-01 
 1.3846396277345330e-01  1.4424494635846205e-01  1.5028164060209689e-01  1.5658546758029807e-01 
 1.6316833491888799e-01  1.7004265346089395e-01  1.7722135530070893e-01  1.8471791216607789e-01 
 1.9254635412564547e-01  2.0072128859622387e-01  2.0925791962014564e-01  2.1817206737891526e-01 
 2.2748018790494151e-01  2.3719939294835063e-01  2.4734746995075702e-01  2.5794290207237675e-01 
 2.6900488821298874e-01  2.8055336296096367e-01  2.9260901639787212e-01  3.0519331367902336e-01 
 3.1832851430265663e-01  3.3203769097237668e-01  3.4634474794878722e-01  3.6127443877705556e-01 
 3.7685238326738885e-01  3.9310508359496588e-01  4.1005993937488278e-01  4.2774526155586545e-01 
 4.4619028496410673e-01  4.6542517931532879e-01  4.8548105849912326e-01  5.0638998792475443e-01 
 5.2818498970176575e-01  5.5090004541199344e-01  5.7457009621182653e-01  5.9923103998474814e-01 
 6.2491972524431016e-01  6.5167394146669011e-01  6.7953240550989180e-01  7.0853474375333536e-01 
 7.3872146956728235e-01  7.7013395569603260e-01  8.0281440111246516e-01  8.3680579187409254e-01 
 8.7215185548293328e-01  9.0889700822280828e-01  9.4708629491919705e-01  9.8676532053818788e-01 
 1.0279801730133595e+00  1.0707773366628270e+00  1.1152035955342199e+00  1.1613059259935301e+00 
 1.2091313778558117e+00  1.2587269433425776e+00  1.3101394131437580e+00  1.3634152188626532e+00 
 1.4186002611319100e+00  1.4757397227089286e+00  1.5348778658918998e+00  1.5960578136446866e+00 
 1.6593213138818548e+00  1.7247084864457218e+00  1.7922575524073454e+00  1.8620045454433052e+00 
 1.9339830051817177e+00  2.0082236525734967e+00  2.0847540475285307e+00  2.1635982292595197e+00 
 2.2447763399964056e+00  2.3283042329680641e+00  2.4141930657901325e+00  2.5024488806424587e+00 
 2.5930721728587369e+00  2.6860574497756069e+00  2.7813927818886546e+00  2.8790593485275533e+00 
 2.9790309803805526e+00  3.0812737012597005e+00  3.1857452714923005e+00  3.2923947352448315e+00 
 3.4011619739298613e+00  3.5119772676150567e+00  3.6247608660565254e+00  3.7394225706309814e+00 
 3.8558613280696123e+00  3.9739648365366569e+00  4.0936091642943442e+00  4.2146583810105005e+00 
 4.3369642017630738e+00  4.4603656440502970e+00  4.5846886987052500e+00  4.7097460166140666e+00 
 4.8353366146174626e+00  4.9612456059865391e+00  5.0872439634320585e+00  5.2130883257205243e+00 
 5.3385208625711371e+00  5.4632692164756964e+00  5.5870465442319146e+00  5.7095516850426380e+00 
 5.8304694856673738e+00  5.9494713158961847e+00  6.0662158090670424e+00  6.1803498619414681e+00 
 6.2915099254603195e+00  6.3993236122366941e+00  6.5034116377280808e+00  6.6033900996675987e+00 
 6.6988730845893816e+00  6.7894755715624306e+00  6.8748165823683332e+00  6.9545225055916635e+00 
 7.0282305011683022e+00  7.0955918739917605e+00  7.1562752926365718e+00  7.2099697246427157e+00 
 7.2563869654716839e+00  7.2952636560584736e+00  7.3263627148654384e+00  7.3494741543121478e+00 
 7.3644153067209892e+00  7.3710305480704346e+00  7.3691906736850292e+00  7.3587921416408015e+00 
 7.3397564489205358e+00  7.3120299332654843e+00  7.2755842913914996e+00  7.2304180641353861e+00 
 7.1765592560966454e+00  7.1140691304277146e+00  7.0430470531672196e+00  6.9636360673241571e+00 
 6.8760286737522183e+00  6.7804721097988274e+00  6.6772722791609453e+00  6.5667954303843823e+00 
 6.4494667364135161e+00  6.3257651128810872e+00  6.1962139313524656e+00  6.0613677173071157e+00 
 5.9217954304896709e+00  5.7780614470312912e+00  5.6307058258659488e+00  5.4802257722468983e+00 
 5.3270603440952300e+00  5.1715987682353086e+00  5.0142560414919357e+00  4.8554602991880698e+00 
 4.6956417470886240e+00  4.5352335995522193e+00  4.3746720143183779e+00  4.2143944439487013e+00 
 4.0548359114968315e+00  3.8964228968316159e+00  3.7395647840409323e+00  3.5846431486893424e+00 
 3.4319995209916359e+00  3.2819226003531980e+00  3.1346361655933421e+00  2.9902890724200875e+00 
 2.8489803658872987e+00  2.7108736743348514e+00  2.5761402551779167e+00  2.4449328469957994e+00 
 2.3173857910442632e+00  2.1936152316455648e+00  2.0737193920119901e+00  1.9577789220311557e+00 
 1.8458573145360264e+00  1.7380013865805790e+00  1.6342418222232888e+00  1.5345937732728303e+00 
 1.4390575143105786e+00  1.3476191481456785e+00  1.2602513575785923e+00  1.1769141990008205e+00 
 1.0975559329387909e+00  1.0221138861771479e+00  9.5051533959909740e-01  8.8267843539334778e-01 
 8.1851309683642415e-01  7.5792195350360347e-01  7.0080126452579450e-01  6.4704183242120261e-01 
 5.9652990010828577e-01  5.4914802395885809e-01  5.0477591617466622e-01  4.6329125035462321e-01 
 4.2457042484287932e-01  3.8848927928169341e-01  3.5492376070524939e-01  3.2375053646736629e-01 
 2.9484755226305992e-01  2.6809453444832754e-01  2.4337343675496781e-01  2.2056883231324323e-01 
 1.9956825261420064e-01  1.8026247565084996e-01  1.6254576596474551e-01  1.4631606968831753e-01 
 1.3147516791570982e-01  1.1792879186288960e-01  1.0558670330257215e-01  9.4362743695558027e-02 
 8.4174855304233437e-02  7.4945077384235906e-02  6.6599520324737232e-02  5.9068320363487074e-02 
 5.2285577254876495e-02  4.6189277030318013e-02  4.0721201769697346e-02  3.5826828106802912e-02 
 3.1455216023693125e-02  2.7558889349389916e-02  2.4093709265330568e-02  2.1018742030268555e-02 
 1.8296122066353226e-02  1.5890911491043772e-02  1.3770957131459996e-02  1.1906746014283940e-02 
 1.0271260281624065e-02  8.8398324383857606e-03  7.5900017875892723e-03  6.5013728555250831e-03 
 5.5554765481973497e-03  4.7356347143870459e-03  4.0268287195925441e-03  3.4155725601671748e-03 
 2.8897909694979925e-03  2.4387028894974575e-03  2.0527106024624420e-03  1.7232947418782541e-03 
 1.4429153272660022e-03  1.2049188987784342e-03  1.0034517628376204e-03  8.3337930137050383e-04 
 6.9021124462525455e-04  5.7003276144012292e-04  4.6944118130701256e-04  3.8548812958678685e-04 
 3.1562683061894022e-04  2.5766431293867780e-04  2.0971823599360014e-04  1.7017804819581054e-04 
 1.3767018136149001e-04  1.1102698605740336e-04  8.9259115558057799e-05  7.1531072484873426e-05 
 5.7139641229083946e-05  4.5494940454831593e-05  3.6103842869634137e-05  2.8555523603165695e-05 
 2.2508913558565777e-05  1.7681849641486062e-05  1.3841729521720294e-05  1.0797494274054339e-05 
 8.3927776539142489e-06  6.5000757040935461e-06  5.0158047130824781e-06  3.8561291393324885e-06 
 2.9534538962671006e-06  2.2534873047841469e-06  1.7127920324394397e-06  1.2967514413713807e-06 
 9.7788796779804126e-07  7.3447847650356964e-07  5.4941900755505328e-07  4.0929800182402170e-07 
 3.0364300543946079e-07  2.2431106409978969e-07  1.6499758172419061e-07  1.2084239064436777e-07 
 8.8115218452814048e-08  6.3965694319657522e-08  4.6225567392088491e-08  3.3252961246194147e-08 
 2.3810307409972696e-08  1.6969130275977360e-08  1.2036134110998886e-08  8.4961054426907593e-09 
 5.9680222746263833e-09  4.1714832252020376e-09  2.9011593225257656e-09  2.0074502111748633e-09 
 1.3819134562728804e-09  9.4634637095736385e-10  6.4464790290659097e-10  4.3678506486677697e-10 
 2.9434381715225656e-10  1.9726623991889198e-10  1.3147091983861905e-10  8.7127186008936541e-11 
 5.7410625142462839e-11  3.7610802307466721e-11  2.4495220894714316e-11  1.5858599815547296e-11 
 1.0205372909949893e-11  6.5273797007549859e-12  4.1491562200497109e-12  2.6209341478762196e-12 
 1.6450984140280561e-12  1.0259605983990147e-12  6.3567568629558091e-13  3.9126342089192689e-13 
 2.3921793191812937e-13  1.4526823661951096e-13  8.7611563233389303e-14  5.2471890776325744e-14 
 3.1205178430965925e-14  1.8425570235832905e-14  1.0801116105810880e-14  6.2853339256265875e-15 
 3.6304308112433512e-15  2.0812084970803789e-15  1.1840161603363689e-15  6.6840663602500747e-16 
 3.7438713888430586e-16  2.0803197872487982e-16  1.1467599120789978e-16  6.2701309462131708e-17 
 3.4001415736055310e-17  1.8284732009822846e-17  9.7500667173641594e-18  5.1548161863998073e-18 
 2.7019121556336220e-18  1.4039814844693466e-18  7.2325558535404534e-19  3.6942737529557777e-19 
 1.8718025697364381e-19  9.4171538571109231e-20  4.7147252475798671e-20  0.0000000000000000e+00 
 0.0000000000000000e+00  0.0000000000000000e+00  0.0000000000000000e+00  0.0000000000000000e+00 
 0.0000000000000000e+00  0.0000000000000000e+00  0.0000000000000000e+00  0.0000000000000000e+00 
 0.0000000000000000e+00  0.0000000000000000e+00  0.0000000000000000e+00  0.0000000000000000e+00 
 0.0000000000000000e+00  0.0000000000000000e+00  0.0000000000000000e+00  0.0000000000000000e+00 
 0.0000000000000000e+00  0.0000000000000000e+00  0.0000000000000000e+00  0.0000000000000000e+00 
 0.0000000000000000e+00  0.0000000000000000e+00  0.0000000000000000e+00  0.0000000000000000e+00 
 0.0000000000000000e+00  0.0000000000000000e+00  0.0000000000000000e+00  0.0000000000000000e+00 
 0.0000000000000000e+00  0.0000000000000000e+00  0.0000000000000000e+00  0.0000000000000000e+00 
 0.0000000000000000e+00  0.0000000000000000e+00  0.0000000000000000e+00  0.0000000000000000e+00 
 0.0000000000000000e+00  0.0000000000000000e+00  0.0000000000000000e+00  0.0000000000000000e+00 
 0.0000000000000000e+00  0.0000000000000000e+00  0.0000000000000000e+00  0.0000000000000000e+00 
 0.0000000000000000e+00  0.0000000000000000e+00  0.0000000000000000e+00  0.0000000000000000e+00 
 0.0000000000000000e+00  0.0000000000000000e+00  0.0000000000000000e+00  0.0000000000000000e+00 
 0.0000000000000000e+00  0.0000000000000000e+00  0.0000000000000000e+00  0.0000000000000000e+00 
 0.0000000000000000e+00  0.0000000000000000e+00  0.0000000000000000e+00  0.0000000000000000e+00 
 0.0000000000000000e+00  0.0000000000000000e+00  0.0000000000000000e+00  0.0000000000000000e+00 
 0.0000000000000000e+00  0.0000000000000000e+00  0.0000000000000000e+00  0.0000000000000000e+00 
 0.0000000000000000e+00  0.0000000000000000e+00  0.0000000000000000e+00  0.0000000000000000e+00 
 0.0000000000000000e+00  0.0000000000000000e+00  0.0000000000000000e+00  0.0000000000000000e+00 
 0.0000000000000000e+00  0.0000000000000000e+00  0.0000000000000000e+00  0.0000000000000000e+00 
 0.0000000000000000e+00  0.0000000000000000e+00  0.0000000000000000e+00  0.0000000000000000e+00 
 0.0000000000000000e+00  0.0000000000000000e+00  0.0000000000000000e+00  0.0000000000000000e+00 
 0.0000000000000000e+00  0.0000000000000000e+00  0.0000000000000000e+00  0.0000000000000000e+00 
 0.0000000000000000e+00  0.0000000000000000e+00  0.0000000000000000e+00  0.0000000000000000e+00 
 0.0000000000000000e+00  0.0000000000000000e+00  0.0000000000000000e+00  0.0000000000000000e+00 
 0.0000000000000000e+00  0.0000000000000000e+00  0.0000000000000000e+00  0.0000000000000000e+00 
 0.0000000000000000e+00  0.0000000000000000e+00  0.0000000000000000e+00  0.0000000000000000e+00 
 0.0000000000000000e+00  0.0000000000000000e+00  0.0000000000000000e+00  0.0000000000000000e+00 
 0.0000000000000000e+00  0.0000000000000000e+00  0.0000000000000000e+00  0.0000000000000000e+00 
 0.0000000000000000e+00  0.0000000000000000e+00  0.0000000000000000e+00  0.0000000000000000e+00 
 0.0000000000000000e+00  0.0000000000000000e+00  0.0000000000000000e+00  0.0000000000000000e+00 
 0.0000000000000000e+00  0.0000000000000000e+00  0.0000000000000000e+00  0.0000000000000000e+00 
 0.0000000000000000e+00  0.0000000000000000e+00  0.0000000000000000e+00  0.0000000000000000e+00 
 0.0000000000000000e+00  0.0000000000000000e+00  0.0000000000000000e+00  0.0000000000000000e+00 
 0.0000000000000000e+00  0.0000000000000000e+00  0.0000000000000000e+00  0.0000000000000000e+00 
 0.0000000000000000e+00  0.0000000000000000e+00  0.0000000000000000e+00  0.0000000000000000e+00 
 0.0000000000000000e+00  0.0000000000000000e+00  0.0000000000000000e+00  0.0000000000000000e+00 
 0.0000000000000000e+00  0.0000000000000000e+00  0.0000000000000000e+00  0.0000000000000000e+00 
 0.0000000000000000e+00 
</PP_RHOATOM>
