  <PP_INFO>

############################################################
#    Opium Parameter File                                  #
############################################################
#-----------------------------------------------------------
#Command line   : ./gopium cl cl.log all ke rpt upf 
 
#Opium version  : 4.1 
#Compile Host   : yang15.local 
#Compile OS     : Darwin 17.5.0 i386 
#Compile Date   : Tue Apr 10 00:25:10 EDT 2018 
#-----------------------------------------------------------
#Execution Host : Mac.lan 
#Execution Date : Thu Dec 18 10:59:47 2025
 
#-----------------------------------------------------------
############################################################
 [Atom]
        Cl                 # chemical symbol (max. 2 characters)
        6                 # norb: number of orbitals
        100 2.00  -13.0   # reference configuration
        200 2.00   -1.4   # reference configuration
        210 6.00   -0.4   # reference configuration
        300 2.00   -0.1   # reference configuration
        310 5.00  -13.0   # reference configuration
        400 0.00  -
        
        [Pseudo]
        3  1.63 1.63 1.62 
        opt
 
 
[XC]
pbesol

      [Optinfo]
       7.07  10    # rc[a.u.]  Qc[sqrt(Ry)]  Nb
       7.07  10    # rc[a.u.]  Qc[sqrt(Ry)]  Nb
       7.07  10    # rc[a.u.]  Qc[sqrt(Ry)]  Nb
 


############################################################
  </PP_INFO>



<PP_HEADER>
   0         Version Number
   Cl        Element
   NC        Norm - Conserving pseudopotential
    F      Nonlinear Core Correction
SLA  PW   PSX  PSC     PBESOL  Exchange-Correlation functional
 7          Z valence
 0          Total energy
 0.000000   0.000000     Suggested cutoff for wfc and rho
 1           Max angular momentum component
 1149           Number of points in mesh
 2  1     Number of Wavefuncitons, Number of Projectors
 Wavefunctions         nl  l   occ
                       S  0  2.000000
                       P  1  5.000000
</PP_HEADER>
<PP_MESH>
  <PP_R>
 3.8891111873282018e-05  3.9399996913619405e-05  3.9915540647211014e-05  4.0437830202174828e-05 
 4.0966953846688775e-05  4.1503001003908144e-05  4.2046062267078318e-05  4.2596229414845299e-05 
 4.3153595426766552e-05  4.3718254499024655e-05  4.4290302060346758e-05  4.4869834788132283e-05 
 4.5456950624791538e-05  4.6051748794298326e-05  4.6654329818959013e-05  4.7264795536400868e-05 
 4.7883249116783160e-05  4.8509795080232967e-05  4.9144539314509334e-05  4.9787589092898604e-05 
 5.0439053092343865e-05  5.1099041411811554e-05  5.1767665590898505e-05  5.2445038628682396e-05 
 5.3131275002818772e-05  5.3826490688888199e-05  5.4530803179996302e-05  5.5244331506630410e-05 
 5.5967196256775975e-05  5.6699519596296287e-05  5.7441425289578729e-05  5.8193038720451253e-05 
 5.8954486913372637e-05  5.9725898554899711e-05  6.0507404015435990e-05  6.1299135371264353e-05 
 6.2101226426868338e-05  6.2913812737545367e-05  6.3737031632316005e-05  6.4571022237132819e-05 
 6.5415925498392966e-05  6.6271884206758663e-05  6.7139043021288716e-05  6.8017548493886794e-05 
 6.8907549094068699e-05  6.9809195234054111e-05  7.0722639294186726e-05  7.1648035648686777e-05 
 7.2585540691740726e-05  7.3535312863932224e-05  7.4497512679018855e-05  7.5472302751059491e-05 
 7.6459847821896450e-05  7.7460314788997176e-05  7.8473872733660248e-05  7.9500692949590755e-05 
 8.0540948971849044e-05  8.1594816606178828e-05  8.2662473958718615e-05  8.3744101466102206e-05 
 8.4839881925952547e-05  8.5950000527775484e-05  8.7074644884256957e-05  8.8214005062969933e-05 
 8.9368273618496420e-05  9.0537645624969560e-05  9.1722318709041702e-05  9.2922493083283706e-05 
 9.4138371580021268e-05  9.5370159685614249e-05  9.6618065575184337e-05  9.7882300147796952e-05 
 9.9163077062103890e-05  1.0046061277245204e-04  1.0177512656546471e-04  1.0310684059710159e-04 
 1.0445597993020366e-04  1.0582277257252923e-04  1.0720744951528812e-04  1.0861024477217908e-04 
 1.1003139541893947e-04  1.1147114163341096e-04  1.1292972673613065e-04  1.1440739723145241e-04 
 1.1590440284920695e-04  1.1742099658690677e-04  1.1895743475250303e-04  1.2051397700770270e-04 
 1.2209088641185157e-04  1.2368842946639219e-04  1.2530687615990303e-04  1.2694650001372735e-04 
 1.2860757812819894e-04  1.3029039122947273e-04  1.3199522371696803e-04  1.3372236371143290e-04 
 1.3547210310363721e-04  1.3724473760370269e-04  1.3904056679107894e-04  1.4085989416517288e-04 
 1.4270302719664093e-04  1.4457027737935216e-04  1.4646196028303180e-04  1.4837839560659307e-04 
 1.5031990723216661e-04  1.5228682327983833e-04  1.5427947616310163e-04  1.5629820264503666e-04 
 1.5834334389522352e-04  1.6041524554740117e-04  1.6251425775788011e-04  1.6464073526471976e-04 
 1.6679503744768009e-04  1.6897752838895738e-04  1.7118857693471538e-04  1.7342855675742057e-04 
 1.7569784641899457e-04  1.7799682943479118e-04  1.8032589433841201e-04  1.8268543474736908e-04 
 1.8507584942960745e-04  1.8749754237089801e-04  1.8995092284311143e-04  1.9243640547338684e-04 
 1.9495441031420455e-04  1.9750536291437572e-04  2.0008969439096126e-04  2.0270784150213173e-04 
 2.0536024672098031e-04  2.0804735831030202e-04  2.1076963039835095e-04  2.1352752305558932e-04 
 2.1632150237244053e-04  2.1915204053805855e-04  2.2201961592013052e-04  2.2492471314572118e-04 
 2.2786782318317601e-04  2.3084944342509632e-04  2.3387007777239942e-04  2.3693023671947974e-04 
 2.4003043744048221e-04  2.4317120387670800e-04  2.4635306682515982e-04  2.4957656402824918e-04 
 2.5284224026467564e-04  2.5615064744149594e-04  2.5950234468739711e-04  2.6289789844719116e-04 
 2.6633788257754518e-04  2.6982287844396478e-04  2.7335347501904618e-04  2.7693026898201331e-04 
 2.8055386481955918e-04  2.8422487492800496e-04  2.8794391971679619e-04  2.9171162771335417e-04 
 2.9552863566929751e-04  2.9939558866805553e-04  3.0331314023388900e-04  3.0728195244233660e-04 
 3.1130269603210772e-04  3.1537605051843885e-04  3.1950270430793304e-04  3.2368335481490268e-04 
 3.2791870857923366e-04  3.3220948138579275e-04  3.3655639838539689e-04  3.4096019421736481e-04 
 3.4542161313367382e-04  3.4994140912473950e-04  3.5452034604684145e-04  3.5915919775121792e-04 
 3.6385874821484804e-04  3.6861979167294578e-04  3.7344313275318675e-04  3.7832958661169385e-04 
 3.8327997907079909e-04  3.8829514675861100e-04  3.9337593725040495e-04  3.9852320921186709e-04 
 4.0373783254420977e-04  4.0902068853118759e-04  4.1437266998803595e-04  4.1979468141235940e-04 
 4.2528763913699338e-04  4.3085247148486728e-04  4.3649011892589256e-04  4.4220153423590565e-04 
 4.4798768265768652e-04  4.5384954206409059e-04  4.5978810312330930e-04  4.6580436946629643e-04 
 4.7189935785638240e-04  4.7807409836111216e-04  4.8432963452632767e-04  4.9066702355252947e-04 
 4.9708733647354662e-04  5.0359165833754383e-04  5.1018108839039674e-04  5.1685674026146823e-04 
 5.2361974215181268e-04  5.3047123702484661e-04  5.3741238279951054e-04  5.4444435254596111e-04 
 5.5156833468382211e-04  5.5878553318303127e-04  5.6609716776731143e-04  5.7350447412031025e-04 
 5.8100870409443157e-04  5.8861112592240234e-04  5.9631302443160486e-04  6.0411570126121892e-04 
 6.1202047508220005e-04  6.2002868182013779e-04  6.2814167488103162e-04  6.3636082538001833e-04 
 6.4468752237309445e-04  6.5312317309187029e-04  6.6166920318139503e-04  6.7032705694109406e-04 
 6.7909819756885954e-04  6.8798410740833352e-04  6.9698628819942821e-04  7.0610626133212387e-04 
 7.1534556810358538e-04  7.2470576997864819e-04  7.3418844885370701e-04  7.4379520732406233e-04 
 7.5352766895475935e-04  7.6338747855497855e-04  7.7337630245600955e-04  7.8349582879286598e-04 
 7.9374776778958433e-04  8.0413385204825547e-04  8.1465583684183927e-04  8.2531550041080922e-04 
 8.3611464426367886e-04  8.4705509348146290e-04  8.5813869702611862e-04  8.6936732805302486e-04 
 8.8074288422755013e-04  8.9226728804576408e-04  9.0394248715933948e-04  9.1577045470471539e-04 
 9.2775318963655865e-04  9.3989271706559354e-04  9.5219108860084738e-04  9.6465038269638159e-04 
 9.7727270500255281e-04  9.9006018872187327e-04  1.0030149949695265e-03  1.0161393131386022e-03 
 1.0294353612701082e-03  1.0429053864278246e-03  1.0565516650780631e-03  1.0703765034743950e-03 
 1.0843822380474141e-03  1.0985712357995975e-03  1.1129458947053367e-03  1.1275086441162006e-03 
 1.1422619451714993e-03  1.1572082912142260e-03  1.1723502082124353e-03  1.1876902551861399e-03 
 1.2032310246397886e-03  1.2189751430004073e-03  1.2349252710614717e-03  1.2510841044325873e-03 
 1.2674543739950540e-03  1.2840388463633888e-03  1.3008403243528963e-03  1.3178616474533449e-03 
 1.3351056923088520e-03  1.3525753732040392e-03  1.3702736425565583e-03  1.3882034914160532e-03 
 1.4063679499696561e-03  1.4247700880540960e-03  1.4434130156745076e-03  1.4622998835300306e-03 
 1.4814338835462851e-03  1.5008182494148160e-03  1.5204562571395899e-03  1.5403512255906528e-03 
 1.5605065170650259e-03  1.5809255378549398e-03  1.6016117388235069e-03  1.6225686159879256e-03 
 1.6437997111103163e-03  1.6653086122962876e-03  1.6870989546013326e-03  1.7091744206451636e-03 
 1.7315387412340842e-03  1.7541956959915030e-03  1.7771491139966995e-03  1.8004028744319492e-03 
 1.8239609072381105e-03  1.8478271937787981e-03  1.8720057675132417e-03  1.8965007146779511e-03 
 1.9213161749772950e-03  1.9464563422831288e-03  1.9719254653435634e-03  1.9977278485010129e-03 
 2.0238678524196461e-03  2.0503498948223385e-03  2.0771784512372870e-03  2.1043580557543809e-03 
 2.1318933017914730e-03  2.1597888428706797e-03  2.1880493934048396e-03  2.2166797294942528e-03 
 2.2456846897338629e-03  2.2750691760309838e-03  2.3048381544337397e-03  2.3349966559703325e-03 
 2.3655497774993021e-03  2.3965026825709065e-03  2.4278606022997730e-03  2.4596288362489739e-03 
 2.4918127533256531e-03  2.5244177926883994e-03  2.5574494646664701e-03  2.5909133516910450e-03 
 2.6248151092386806e-03  2.6591604667870914e-03  2.6939552287834484e-03  2.7292052756253443e-03 
 2.7649165646545957e-03  2.8010951311640397e-03  2.8377470894175279e-03  2.8748786336832400e-03 
 2.9124960392805346e-03  2.9506056636404896e-03  2.9892139473803275e-03  3.0283274153918901e-03 
 3.0679526779443661e-03  3.1080964318014417e-03  3.1487654613530599e-03  3.1899666397620123e-03 
 3.2317069301255148e-03  3.2739933866519819e-03  3.3168331558532153e-03  3.3602334777521718e-03 
 3.4042016871065482e-03  3.4487452146483759e-03  3.4938715883398291e-03  3.5395884346454613e-03 
 3.5859034798211113e-03  3.6328245512196487e-03  3.6803595786138151e-03  3.7285165955363796e-03 
 3.7773037406378198e-03  3.8267292590617764e-03  3.8768015038385005e-03  3.9275289372965394e-03 
 3.9789201324928756e-03  4.0309837746618183e-03  4.0837286626828114e-03  4.1371637105674661e-03 
 4.1912979489660569e-03  4.2461405266937171e-03  4.3017007122766147e-03  4.3579878955183511e-03 
 4.4150115890868660e-03  4.4727814301220876e-03  4.5313071818646519e-03  4.5905987353059008e-03 
 4.6506661108594860e-03  4.7115194600548414e-03  4.7731690672528177e-03  4.8356253513837646e-03 
 4.8988988677083510e-03  4.9630003096014378e-03  5.0279405103592642e-03  5.0937304450303263e-03 
 5.1603812322701696e-03  5.2279041362204718e-03  5.2963105684127139e-03  5.3656120896967488e-03 
 5.4358204121946196e-03  5.5069474012799293e-03  5.5790050775831272e-03  5.6520056190230029e-03 
 5.7259613628648145e-03  5.8008848078052924e-03  5.8767886160849565e-03  5.9536856156280635e-03 
 6.0315888022105593e-03  6.1105113416563940e-03  6.1904665720625765e-03  6.2714680060533528e-03 
 6.3535293330638466e-03  6.4366644216536442e-03  6.5208873218505839e-03  6.6062122675252591e-03 
 6.6926536787965726e-03  6.7802261644687627e-03  6.8689445245003426e-03  6.9588237525053170e-03 
 7.0498790382871445e-03  7.1421257704058294e-03  7.2355795387786630e-03  7.3302561373149314e-03 
 7.4261715665851231e-03  7.5233420365250735e-03  7.6217839691754812e-03  7.7215140014572602e-03 
 7.8225489879832390e-03  7.9249060039066153e-03  8.0286023478066855e-03  8.1336555446123882e-03 
 8.2400833485640167e-03  8.3479037462137473e-03  8.4571349594654080e-03  8.5677954486540163e-03 
 8.6799039156656294e-03  8.7934793070980032e-03  8.9085408174626145e-03  9.0251078924285574e-03 
 9.1432002321089490e-03  9.2628377943902735e-03  9.3840407983052949e-03  9.5068297274501570e-03 
 9.6312253334461320e-03  9.7572486394467070e-03  9.8849209436905443e-03  1.0014263823100942e-02 
 1.0145299136932354e-02  1.0278049030464699e-02  1.0412535938745943e-02  1.0548782590383679e-02 
 1.0686812011386312e-02  1.0826647529054515e-02  1.0968312775923597e-02  1.1111831693757459e-02 
 1.1257228537594808e-02  1.1404527879848291e-02  1.1553754614457352e-02  1.1704933961095308e-02 
 1.1858091469431564e-02  1.2013253023449562e-02  1.2170444845821221e-02  1.2329693502338665e-02 
 1.2491025906403866e-02  1.2654469323577113e-02  1.2820051376184888e-02  1.2987800047988206e-02 
 1.3157743688911854e-02  1.3329911019835630e-02  1.3504331137448235e-02  1.3681033519164687e-02 
 1.3860048028108057e-02  1.4041404918156435e-02  1.4225134839055895e-02  1.4411268841600339e-02 
 1.4599838382879230e-02  1.4790875331593855e-02  1.4984411973443230e-02  1.5180481016580469e-02 
 1.5379115597140522e-02  1.5580349284840278e-02  1.5784216088651909e-02  1.5990750462550499e-02 
 1.6199987311336778e-02  1.6411961996536207e-02  1.6626710342375110e-02  1.6844268641835053e-02 
 1.7064673662786457e-02  1.7287962654202446e-02  1.7514173352454015e-02  1.7743343987687583e-02 
 1.7975513290285954e-02  1.8210720497413829e-02  1.8449005359649048e-02  1.8690408147700458e-02 
 1.8934969659213811e-02  1.9182731225666636e-02  1.9433734719353356e-02  1.9688022560461808e-02 
 1.9945637724242377e-02  2.0206623748270910e-02  2.0471024739806606e-02  2.0738885383246343e-02 
 2.1010250947676407e-02  2.1285167294523052e-02  2.1563680885303239e-02  2.1845838789476678e-02 
 2.2131688692400755e-02  2.2421278903389401e-02  2.2714658363877552e-02  2.3011876655692272e-02 
 2.3312984009432294e-02  2.3618031312957061e-02  2.3927070119986925e-02  2.4240152658815805e-02 
 2.4557331841137925e-02  2.4878661270990036e-02  2.5204195253810558e-02  2.5533988805617421e-02 
 2.5868097662305776e-02  2.6206578289067629e-02  2.6549487889934532e-02  2.6896884417445182e-02 
 2.7248826582439569e-02  2.7605373863981229e-02  2.7966586519409364e-02  2.8332525594522456e-02 
 2.8703252933895206e-02  2.9078831191330274e-02  2.9459323840447110e-02  2.9844795185409025e-02 
 3.0235310371790763e-02  3.0630935397588308e-02  3.1031737124372630e-02  3.1437783288589510e-02 
 3.1849142513007134e-02  3.2265884318313509e-02  3.2688079134865579e-02  3.3115798314592243e-02 
 3.3549114143052873e-02  3.3988099851653804e-02  3.4432829630024642e-02  3.4883378638556423e-02 
 3.5339823021103930e-02  3.5802239917854202e-02  3.6270707478363418e-02  3.6745304874764240e-02 
 3.7226112315146269e-02  3.7713211057111312e-02  3.8206683421506092e-02  3.8706612806334723e-02 
 3.9213083700853101e-02  3.9726181699847846e-02  4.0245993518102041e-02  4.0772607005050178e-02 
 4.1306111159624875e-02  4.1846596145298100e-02  4.2394153305318823e-02  4.2948875178150325e-02 
 4.3510855513109417e-02  4.4080189286210270e-02  4.4656972716215611e-02  4.5241303280897899e-02 
 4.5833279733513387e-02  4.6433002119491432e-02  4.7040571793342714e-02  4.7656091435788181e-02 
 4.8279665071112400e-02  4.8911398084743908e-02  4.9551397241065609e-02  5.0199770701458146e-02 
 5.0856628042579566e-02  5.1522080274883905e-02  5.2196239861382200e-02  5.2879220736649163e-02 
 5.3571138326078280e-02  5.4272109565388998e-02  5.4982252920389142e-02  5.5701688406995908e-02 
 5.6430537611518859e-02  5.7168923711208297e-02  5.7916971495072550e-02  5.8674807384967421e-02 
 5.9442559456962057e-02  6.0220357462983980e-02  6.1008332852747406e-02  6.1806618795968687e-02 
 6.2615350204872217e-02  6.3434663756990972e-02  6.4264697918265279e-02  6.5105592966444026e-02 
 6.5957491014791661e-02  6.6820536036106021e-02  6.7694873887049825e-02  6.8580652332800862e-02 
 6.9478021072024734e-02  7.0387131762174204e-02  7.1308138045119665e-02  7.2241195573114994e-02 
 7.3186462035103303e-02  7.4144097183366328e-02  7.5114262860523459e-02  7.6097123026883248e-02 
 7.7092843788153093e-02  7.8101593423511542e-02  7.9123542414047926e-02  8.0158863471573971e-02 
 8.1207731567812566e-02  8.2270323963968453e-02  8.3346820240685487e-02  8.4437402328396721e-02 
 8.5542254538070614e-02  8.6661563592360297e-02  8.7795518657159982e-02  8.8944311373574572e-02 
 9.0108135890307334e-02  9.1287188896471666e-02  9.2481669654831913e-02  9.3691780035479080e-02 
 9.4917724549947707e-02  9.6159710385778668e-02  9.7417947441534244e-02  9.8692648362271554e-02 
 9.9984028575480166e-02  1.0129230632748967e-01  1.0261770272035405e-01  1.0396044174921827e-01 
 1.0532075034017396e-01  1.0669885838861071e-01  1.0809499879806872e-01  1.0950940751960014e-01 
 1.1094232359164541e-01  1.1239398918043111e-01  1.1386464962089686e-01  1.1535455345815740e-01 
 1.1686395248950743e-01  1.1839310180697567e-01  1.1994225984043630e-01  1.2151168840128417e-01 
 1.2310165272668164e-01  1.2471242152438355e-01  1.2634426701815071e-01  1.2799746499375550e-01 
 1.2967229484559059e-01  1.3136903962388718e-01  1.3308798608255124e-01  1.3482942472762555e-01 
 1.3659364986638589e-01  1.3838095965707975e-01  1.4019165615931573e-01  1.4202604538511235e-01 
 1.4388443735061476e-01  1.4576714612848829e-01  1.4767448990099749e-01  1.4960679101377949e-01 
 1.5156437603032147e-01  1.5354757578715045e-01  1.5555672544974580e-01  1.5759216456918196e-01 
 1.5965423713951493e-01  1.6174329165591694e-01  1.6385968117357355e-01  1.6600376336735037e-01 
 1.6817590059224127e-01  1.7037645994460718e-01  1.7260581332421618e-01  1.7486433749709551e-01 
 1.7715241415920593e-01  1.7947043000094909e-01  1.8181877677251937e-01  1.8419785135011055e-01 
 1.8660805580298859e-01  1.8904979746144251e-01  1.9152348898562427e-01  1.9402954843528900e-01 
 1.9656839934044876e-01  1.9914047077294850e-01  2.0174619741898248e-01  2.0438601965255571e-01 
 2.0706038360990875e-01  2.0976974126491557e-01  2.1251455050546847e-01  2.1529527521086195e-01 
 2.1811238533018965e-01  2.2096635696176678e-01  2.2385767243359170e-01  2.2678682038486081e-01 
 2.2975429584854956e-01  2.3276060033507417e-01  2.3580624191704813e-01  2.3889173531514776e-01 
 2.4201760198510106e-01  2.4518437020581518e-01  2.4839257516865706e-01  2.5164275906790035e-01 
 2.5493547119236021e-01  2.5827126801822264e-01  2.6165071330309075e-01  2.6507437818126112e-01 
 2.6854284126024680e-01  2.7205668871856342e-01  2.7561651440479462e-01  2.7922291993795428e-01 
 2.8287651480916104e-01  2.8657791648464398e-01  2.9032775051009596e-01  2.9412665061639237e-01 
 2.9797525882669268e-01  3.0187422556494475e-01  3.0582420976580715e-01  3.0982587898601111e-01 
 3.1387990951717987e-01  3.1798698650012103e-01  3.2214780404062054e-01  3.2636306532674592e-01 
 3.3063348274768700e-01  3.3495977801415222e-01  3.3934268228033848e-01  3.4378293626749856e-01 
 3.4828129038912436e-01  3.5283850487776924e-01  3.5745534991352823e-01  3.6213260575420086e-01 
 3.6687106286715654e-01  3.7167152206292553e-01  3.7653479463053730e-01  3.8146170247463074e-01 
 3.8645307825435826e-01  3.9150976552410649e-01  3.9663261887606005e-01  4.0182250408462700e-01 
 4.0708029825276065e-01  4.1240688996018954e-01  4.1780317941358996e-01  4.2327007859872340e-01 
 4.2880851143456356e-01  4.3441941392944200e-01  4.4010373433923478e-01  4.4586243332762027e-01 
 4.5169648412843388e-01  4.5760687271014655e-01  4.6359459794249580e-01  4.6966067176529741e-01 
 4.7580611935946515e-01  4.8203197932026914e-01  4.8833930383286117e-01  4.9472915885009572e-01 
 5.0120262427267992e-01  5.0776079413167619e-01  5.1440477677340046e-01  5.2113569504673263e-01 
 5.2795468649288102e-01  5.3486290353763000e-01  5.4186151368610214e-01  5.4895169972007019e-01 
 5.5613465989784905e-01  5.6341160815680480e-01  5.7078377431851346e-01  5.7825240429660230e-01 
 5.8581876030731406e-01  5.9348412108282300e-01  6.0124978208734459e-01  6.0911705573607167e-01 
 6.1708727161697552e-01  6.2516177671551010e-01  6.3334193564225627e-01  6.4162913086353979e-01 
 6.5002476293507894e-01  6.5853025073867577e-01  6.6714703172201317e-01  6.7587656214158609e-01 
 6.8472031730881244e-01  6.9367979183936457e-01  7.0275649990576261e-01  7.1195197549327327e-01 
 7.2126777265915676e-01  7.3070546579530671e-01  7.4026664989432578e-01  7.4995294081908326e-01 
 7.5976597557579972e-01  7.6970741259070474e-01  7.7977893199031612e-01  7.8998223588538297e-01 
 8.0031904865854997e-01  8.1079111725577580e-01  8.2140021148157893e-01  8.3214812429813445e-01 
 8.4303667212828959e-01  8.5406769516254311e-01  8.6524305767004295e-01  8.7656464831365088e-01 
 8.8803438046913263e-01  8.9965419254852153e-01  9.1142604832771479e-01  9.2335193727835796e-01 
 9.3543387490406804e-01  9.4767390308105992e-01  9.6007409040322811e-01  9.7263653253174365e-01 
 9.8536335254922636e-01  9.9825670131854971e-01  1.0113187578463452e+00  1.0245517296512516e+00 
 1.0379578531370008e+00  1.0515393939703708e+00  1.0652986474640871e+00  1.0792379389647386e+00 
 1.0933596242457662e+00  1.1076660899055928e+00  1.1221597537709656e+00  1.1368430653055748e+00 
 1.1517185060240167e+00  1.1667885899111785e+00  1.1820558638471050e+00  1.1975229080374288e+00 
 1.2131923364494317e+00  1.2290667972538092e+00  1.2451489732722205e+00  1.2614415824306899e+00 
 1.2779473782189452e+00  1.2946691501557561e+00  1.3116097242603810e+00  1.3287719635301638e+00 
 1.3461587684243892e+00  1.3637730773544661e+00  1.3816178671805281e+00  1.3996961537145274e+00 
 1.4180109922299169e+00  1.4365654779779966e+00  1.4553627467110193e+00  1.4744059752121406e+00 
 1.4936983818323013e+00  1.5132432270341383e+00  1.5330438139430094e+00  1.5531034889052293e+00 
 1.5734256420536108e+00  1.5940137078804051e+00  1.6148711658177406e+00  1.6360015408256454e+00 
 1.6574084039877925e+00  1.6790953731150058e+00  1.7010661133566847e+00  1.7233243378202225e+00 
 1.7458738081985310e+00  1.7687183354057741e+00  1.7918617802214203e+00  1.8153080539427286e+00 
 1.8390611190457626e+00  1.8631249898550584e+00  1.8875037332220572e+00  1.9122014692124125e+00 
 1.9372223718022890e+00  1.9625706695837764e+00  1.9882506464795318e+00  2.0142666424667719e+00 
 2.0406230543107409e+00  2.0673243363077649e+00  2.0943750010380571e+00  2.1217796201283399e+00 
 2.1495428250244655e+00  2.1776693077741403e+00  2.2061638218198918e+00  2.2350311828024148e+00 
 2.2642762693744216e+00  2.2939040240251494e+00  2.3239194539156500e+00  2.3543276317250168e+00 
 2.3851336965076717e+00  2.4163428545618859e+00  2.4479603803096501e+00  2.4799916171880705e+00 
 2.5124419785524141e+00  2.5453169485909886e+00  2.5786220832519806e+00  2.6123630111824068e+00 
 2.6465454346794006e+00  2.6811751306538882e+00  2.7162579516069130e+00  2.7517998266187162e+00 
 2.7878067623507681e+00  2.8242848440609061e+00  2.8612402366317622e+00  2.8986791856126373e+00 
 2.9366080182750185e+00  2.9750331446818983e+00  3.0139610587710970e+00  3.0533983394527464e+00 
 3.0933516517211470e+00  3.1338277477811647e+00  3.1748334681893695e+00  3.2163757430101105e+00 
 3.2584615929867105e+00  3.3010981307279739e+00  3.3442925619102626e+00  3.3880521864952553e+00 
 3.4323843999636563e+00  3.4772966945650587e+00  3.5227966605841452e+00  3.5688919876234664e+00 
 3.6155904659030051e+00  3.6628999875767354e+00  3.7108285480664240e+00  3.7593842474128656e+00 
 3.8085752916448192e+00  3.8584099941658367e+00  3.9088967771592591e+00  3.9600441730115725e+00 
 4.0118608257544146e+00  4.0643554925254248e+00  4.1175370450482385e+00  4.1714144711317953e+00 
 4.2259968761893427e+00  4.2812934847772475e+00  4.3373136421539726e+00  4.3940668158594471e+00 
 4.4515625973151076e+00  4.5098107034448631e+00  4.5688209783172855e+00  4.6286033948092813e+00 
 4.6891680562915212e+00  4.7505251983359500e+00  4.8126851904456061e+00  4.8756585378071042e+00 
 4.9394558830660307e+00  5.0040880081255787e+00  5.0695658359687119e+00  5.1359004325041830e+00 
 5.2031030084366963e+00  5.2711849211615132e+00  5.3401576766839369e+00  5.4100329315638120e+00 
 5.4808224948855235e+00  5.5525383302537596e+00  5.6251925578153852e+00  5.6987974563077843e+00 
 5.7733654651339901e+00  5.8489091864649696e+00  5.9254413873694327e+00  6.0029750019714845e+00 
 6.0815231336365301e+00  6.1610990571857744e+00  6.2417162211396953e+00  6.3233882499908773e+00 
 6.4061289465065832e+00  6.4899522940614549e+00  6.5748724590007503e+00  6.6609037930344357e+00 
 6.7480608356627396e+00  6.8363583166333095e+00  6.9258111584305837e+00  7.0164344787977333e+00 
 7.1082435932915926e+00  7.2012540178710260e+00  7.2954814715191603e+00  7.3909418788999339e+00 
 7.4876513730493954e+00  7.5856262981022402e+00  7.6848832120539861e+00  7.7854388895593374e+00 
 7.8873103247671201e+00  7.9905147341923506e+00  8.0950695596258555e+00  8.2009924710819888e+00 
 8.3083013697849033e+00  8.4170143911938595e+00  8.5271499080682371e+00  8.6387265335725161e+00 
 8.7517631244219753e+00  8.8662787840695039e+00  8.9822928659341432e+00  9.0998249766718509e+00 
 9.2188949794890807e+00  9.3395229974997047e+00  9.4617294171258735e+00  9.5855348915433716e+00 
 9.7109603441720349e+00  9.8380269722118925e+00  9.9667562502255116e+00  1.0097169933767260e+01 
 1.0229290063060056e+01  1.0363138966720207e+01  1.0498739265531031e+01  1.0636113876265725e+01 
 1.0775286015560484e+01  1.0916279203838101e+01  1.1059117269282963e+01  1.1203824351868104e+01 
 1.1350424907434897e+01  1.1498943711826158e+01  1.1649405865073311e+01  1.1801836795638378e+01 
 1.1956262264711420e+01  1.2112708370564258e+01  1.2271201552961141e+01  1.2431768597627119e+01 
 1.2594436640774909e+01  1.2759233173690969e+01  1.2926186047381591e+01  1.3095323477279795e+01 
 1.3266674048013817e+01  1.3440266718237899e+01  1.3616130825526497e+01  1.3794296091332319e+01 
 1.3974792626009334e+01  1.4157650933901508e+01  1.4342901918498084e+01  1.4530576887656380e+01 
 1.4720707558892871e+01  1.4913326064743524e+01  1.5108464958194277e+01  1.5306157218182571e+01 
 1.5506436255170874e+01  1.5709335916793119e+01  1.5914890493575042e+01  1.6123134724729358e+01 
 1.6334103804026775e+01  1.6547833385743814e+01  1.6764359590688521e+01  1.6983719012304825e+01 
 1.7205948722857102e+01  1.7431086279695364e+01  1.7659169731602564e+01  1.7890237625224938e+01 
 1.8124329011586472e+01  1.8361483452688621e+01  1.8601741028196379e+01  1.8845142342211851e+01 
 1.9091728530136407e+01  1.9341541265622730e+01  1.9594622767617679e+01  1.9851015807497451e+01 
 2.0110763716296020e+01  2.0373910392028218e+01  2.0640500307108539e+01  2.0910578515867158e+01 
 2.1184190662164188e+01  2.1461382987103512e+01  2.1742202336847825e+01  2.2026696170535612e+01 
 2.2314912568301878e+01  2.2606900239403849e+01  2.2902708530452884e+01  2.3202387433754225e+01 
 2.3505987595755794e+01  2.3813560325607579e+01  2.4125157603832967e+01  2.4440832091113613e+01 
 2.4760637137189203e+01  2.5084626789873681e+01  2.5412855804189487e+01  2.5745379651621263e+01 
 2.6082254529490655e+01  2.6423537370453868e+01  2.6769285852123211e+01  2.7119558406815056e+01 
 2.7474414231424827e+01  2.7833913297431469e+01  2.8198116361032788e+01  2.8567084973413362e+01 
 2.8940881491146875e+01  2.9319569086734482e+01  2.9703211759281160e+01  3.0091874345311677e+01 
 3.0485622529728122e+01  3.0884522856910820e+01  3.1288642741964487e+01  3.1698050482111544e+01 
 3.2112815268234513e+01  3.2533007196569407e+01  3.2958697280552229e+01  3.3389957462820412e+01 
 3.3826860627371083e+01  3.4269480611878983e+01  3.4717892220174974e+01  3.5172171234888104e+01 
 3.5632394430253107e+01  3.6098639585085365e+01  3.6570985495925761e+01  3.7049511990357445e+01 
 3.7534299940496936e+01  3.8025431276661628e+01  3.8522989001216281e+01  3.9027057202600581e+01 
 3.9537721069540289e+01  4.0055066905444349e+01  4.0579182142990369e+01  4.1110155358900926e+01 
 4.1648076288913288e+01  4.2193035842945001e+01  4.2745126120457620e+01  4.3304440426022111e+01 
 4.3871073285087363e+01  4.4445120459955184e+01  4.5026678965964443e+01  4.5615847087886799e+01 
 4.6212724396537112e+01  4.6817411765601214e+01  4.7430011388683674e+01  4.8050626796578825e+01 
 4.8679362874767762e+01  4.9316325881144110e+01  4.9961623463971989e+01  5.0615364680078791e+01 
 5.1277660013285981e+01  5.1948621393081211e+01  5.2628362213534622e+01  5.3316997352462806e+01 
 5.4014643190843067e+01  5.4721417632482670e+01  5.5437440123944420e+01  5.6162831674733589e+01 
 5.6897714877748761e+01  5.7642213930000338e+01  5.8396454653600124e+01  5.9160564517025584e+01 
 5.9934672656662300e+01  6.0718909898628304e+01  6.1513408780884049e+01  6.2318303575631639e+01 
 6.3133730312007081e+01  6.3959826799069653e+01  6.4796732649091851e+01  6.5644589301154227e+01 
 6.6503540045048965e+01  6.7373730045496288e+01  6.8255306366677189e+01  6.9148417997088302e+01 
 7.0053215874720834e+01  7.0969852912569621e+01  7.1898484024475763e+01  7.2839266151307385e+01 
 7.3792358287483054e+01  7.4757921507842283e+01  7.5736118994867411e+01  7.6727116066261956e+01 
 7.7731080202889686e+01  7.8748181077079181e+01  7.9778590581298985e+01  8.0822482857207774e+01 
 8.1880034325084793e+01  8.2951423713645141e+01  8.4036832090245511e+01  8.5136442891485075e+01 
 8.6250441954206124e+01  8.7379017546901807e+01  8.8522360401533447e+01  8.9680663745764718e+01 
 9.0854123335617700e+01  9.2042937488555978e+01  9.3247307117000929e+01  9.4467435762286271e+01 
 9.5703529629057073e+01  9.6955797620118844e+01  9.8224451371742589e+01  9.9509705289431835e+01 
 1.0081177658415774e+02  1.0213088530906816e+02  1.0346725439667719e+02  1.0482110969654134e+02 
 1.0619268001342857e+02  1.0758219714598712e+02  1.0898989592591919e+02  1.1041601425766923e+02 
 1.1186079315862963e+02  1.1332447679987335e+02  1.1480731254741943e+02  1.1630955100403855e+02 
 1.1783144605160534e+02 
  </PP_R>
  <PP_RAB>
 5.0558445435266621e-07  5.1219995987705222e-07  5.1890202841374316e-07  5.2569179262827269e-07 
 5.3257040000695401e-07  5.3953901305080582e-07  5.4659880947201811e-07  5.5375098239298883e-07 
 5.6099674054796514e-07  5.6833730848732044e-07  5.7577392678450786e-07  5.8330785224571970e-07 
 5.9094035812228996e-07  5.9867273432587821e-07  6.0650628764646717e-07  6.1444234197321127e-07 
 6.2248223851818100e-07  6.3062733604302853e-07  6.3887901108862127e-07  6.4723865820768186e-07 
 6.5570769020047022e-07  6.6428753835355022e-07  6.7297965268168051e-07  6.8178550217287107e-07 
 6.9070657503664395e-07  6.9974437895554654e-07  7.0890044133995192e-07  7.1817630958619529e-07 
 7.2757355133808760e-07  7.3709375475185175e-07  7.4673852876452345e-07  7.5650950336586629e-07 
 7.6640832987384421e-07  7.7643668121369621e-07  7.8659625220066780e-07  7.9688875982643653e-07 
 8.0731594354928838e-07  8.1787956558808971e-07  8.2858141122010798e-07  8.3942328908272659e-07 
 8.5040703147910855e-07  8.6153449468786255e-07  8.7280755927675322e-07  8.8422813042052826e-07 
 8.9579813822289300e-07  9.0751953804270341e-07  9.1939431082442738e-07  9.3142446343292807e-07 
 9.4361202899262940e-07  9.5595906723111876e-07  9.6846766482724513e-07  9.8113993576377335e-07 
 9.9397802168465390e-07  1.0069840922569633e-06  1.0201603455375833e-06  1.0335090083446797e-06 
 1.0470323366340375e-06  1.0607326158803246e-06  1.0746121614633419e-06  1.0886733190593287e-06 
 1.1029184650373830e-06  1.1173500068610812e-06  1.1319703834953404e-06  1.1467820658186091e-06 
 1.1617875570404533e-06  1.1769893931246041e-06  1.1923901432175421e-06  1.2079924100826881e-06 
 1.2237988305402764e-06  1.2398120759129851e-06  1.2560348524773964e-06  1.2724699019213604e-06 
 1.2891200018073504e-06  1.3059879660418765e-06  1.3230766453510411e-06  1.3403889277623206e-06 
 1.3579277390926475e-06  1.3756960434428800e-06  1.3936968436987454e-06  1.4119331820383279e-06 
 1.4304081404462131e-06  1.4491248412343425e-06  1.4680864475696985e-06  1.4872961640088811e-06 
 1.5067572370396902e-06  1.5264729556297880e-06  1.5464466517825393e-06  1.5666817011001351e-06 
 1.5871815233540704e-06  1.6079495830630983e-06  1.6289893900787394e-06  1.6503045001784556e-06 
 1.6718985156665862e-06  1.6937750859831453e-06  1.7159379083205844e-06  1.7383907282486277e-06 
 1.7611373403472836e-06  1.7841815888481349e-06  1.8075273682840261e-06  1.8311786241472475e-06 
 1.8551393535563320e-06  1.8794136059315779e-06  1.9040054836794132e-06  1.9289191428857098e-06 
 1.9541587940181660e-06  1.9797287026378984e-06  2.0056331901203213e-06  2.0318766343854764e-06 
 2.0584634706379057e-06  2.0853981921162152e-06  2.1126853508524414e-06  2.1403295584413570e-06 
 2.1683354868198413e-06  2.1967078690564460e-06  2.2254515001512999e-06  2.2545712378464673e-06 
 2.2840720034469294e-06  2.3139587826522852e-06  2.3442366263993562e-06  2.3749106517157980e-06 
 2.4059860425848969e-06  2.4374680508216739e-06  2.4693619969604483e-06  2.5016732711540290e-06 
 2.5344073340846588e-06  2.5675697178868841e-06  2.6011660270824962e-06  2.6352019395277123e-06 
 2.6696832073727438e-06  2.7046156580339264e-06  2.7400051951785621e-06  2.7758577997226613e-06 
 2.8121795308417267e-06  2.8489765269947609e-06  2.8862550069616965e-06  2.9240212708943750e-06 
 2.9622817013812881e-06  3.0010427645262521e-06  3.0403110110411922e-06  3.0800930773532366e-06 
 3.1203956867262685e-06  3.1612256503972038e-06  3.2025898687270776e-06  3.2444953323672392e-06 
 3.2869491234407831e-06  3.3299584167394473e-06  3.3735304809361624e-06  3.4176726798134849e-06 
 3.4623924735080870e-06  3.5076974197715419e-06  3.5535951752476001e-06  3.6000934967661728e-06 
 3.6472002426542692e-06  3.6949233740640643e-06  3.7432709563183505e-06  3.7922511602736039e-06 
 3.8418722637008675e-06  3.8921426526847216e-06  3.9430708230405569e-06  3.9946653817503761e-06 
 4.0469350484174003e-06  4.0998886567397052e-06  4.1535351560031291e-06  4.2078836125937348e-06 
 4.2629432115300372e-06  4.3187232580153052e-06  4.3752331790101596e-06  4.4324825248257420e-06 
 4.4904809707377596e-06  4.5492383186216136e-06  4.6087644986089383e-06  4.6690695707658324e-06 
 4.7301637267930244e-06  4.7920572917482948e-06  4.8547607257914272e-06  4.9182846259520197e-06 
 4.9826397279203879e-06  5.0478369078619428e-06  5.1138871842552639e-06  5.1808017197542723e-06 
 5.2485918230747266e-06  5.3172689509054385e-06  5.3868447098444674e-06  5.4573308583606719e-06 
 5.5287393087809135e-06  5.6010821293032745e-06  5.6743715460366030e-06  5.7486199450667734e-06 
 5.8238398745499248e-06  5.9000440468331773e-06  5.9772453406030204e-06  6.0554568030618529e-06 
 6.1346916521329712e-06  6.2149632786944575e-06  6.2962852488422591e-06  6.3786713061828832e-06 
 6.4621353741561058e-06  6.5466915583880694e-06  6.6323541490751571e-06  6.7191376233990867e-06 
 6.8070566479735648e-06  6.8961260813230058e-06  6.9863609763936370e-06  7.0777765830974940e-06 
 7.1703883508896873e-06  7.2642119313794064e-06  7.3592631809750483e-06  7.4555581635640327e-06 
 7.5531131532276099e-06  7.6519446369912302e-06  7.7520693176108635e-06  7.8535041163958451e-06 
 7.9562661760686009e-06  8.0603728636617914e-06  8.1658417734534104e-06  8.2726907299402381e-06 
 8.3809377908502269e-06  8.4906012501943142e-06  8.6016996413581349e-06  8.7142517402342220e-06 
 8.8282765683951734e-06  8.9437933963083352e-06  9.0608217465925669e-06  9.1793813973176093e-06 
 9.2994923853466087e-06  9.4211750097224259e-06  9.5444498350981907e-06  9.6693376952128102e-06 
 9.7958596964118715e-06  9.9240372212147207e-06  1.0053891931928125e-05  1.0185445774307258e-05 
 1.0318720981264596e-05  1.0453740076627321e-05  1.0590525878943910e-05  1.0729101505340520e-05 
 1.0869490375427826e-05  1.1011716215259018e-05  1.1155803061339542e-05  1.1301775264689323e-05 
 1.1449657494958152e-05  1.1599474744594933e-05  1.1751252333071413e-05  1.1905015911161300e-05 
 1.2060791465275262e-05  1.2218605321852715e-05  1.2378484151811016e-05  1.2540454975052960e-05 
 1.2704545165033185e-05  1.2870782453384352e-05  1.3039194934603844e-05  1.3209811070801827e-05 
 1.3382659696511406e-05  1.3557770023561719e-05  1.3735171646014820e-05  1.3914894545167135e-05 
 1.4096969094616383e-05  1.4281426065394767e-05  1.4468296631169376e-05  1.4657612373510608e-05 
 1.4849405287229490e-05  1.5043707785784937e-05  1.5240552706761658e-05  1.5439973317419818e-05 
 1.5642003320317251e-05  1.5846676859005293e-05  1.6054028523799129e-05  1.6264093357623636e-05 
 1.6476906861935700e-05  1.6692505002724055e-05  1.6910924216587649e-05  1.7132201416893483e-05 
 1.7356374000015075e-05  1.7583479851652510e-05  1.7813557353235257e-05  1.8046645388408690e-05 
 1.8282783349605528e-05  1.8522011144703246e-05  1.8764369203768600e-05  1.9009898485890398e-05 
 1.9258640486101704e-05  1.9510637242392607e-05  1.9765931342814669e-05  2.0024565932678487e-05 
 2.0286584721845336e-05  2.0552031992114215e-05  2.0820952604705588e-05  2.1093392007843032e-05 
 2.1369396244434110e-05  2.1649011959851738e-05  2.1932286409817323e-05  2.2219267468387125e-05 
 2.2510003636043092e-05  2.2804544047889537e-05  2.3102938481957091e-05  2.3405237367615337e-05 
 2.3711491794095435e-05  2.4021753519124375e-05  2.4336074977672141e-05  2.4654509290813364e-05 
 2.4977110274704832e-05  2.5303932449680672e-05  2.5635031049466323e-05  2.5970462030513167e-05 
 2.6310282081455400e-05  2.6654548632690401e-05  2.7003319866084729e-05  2.7356654724806949e-05 
 2.7714612923289148e-05  2.8077254957318833e-05  2.8444642114262912e-05  2.8816836483425285e-05 
 2.9193900966540214e-05  2.9575899288402789e-05  2.9962896007638614e-05  3.0354956527614322e-05 
 3.0752147107490929e-05  3.1154534873421785e-05  3.1562187829897049e-05  3.1975174871236657e-05 
 3.2393565793233486e-05  3.2817431304949188e-05  3.3246843040664106e-05  3.3681873571983582e-05 
 3.4122596420102843e-05  3.4569086068232186e-05  3.5021417974184827e-05  3.5479668583129476e-05 
 3.5943915340509746e-05  3.6414236705132512e-05  3.6890712162427860e-05  3.7373422237882119e-05 
 3.7862448510646948e-05  3.8357873627326364e-05  3.8859781315944257e-05  3.9368256400094569e-05 
 3.9883384813276754e-05  4.0405253613418742e-05  4.0933950997589775e-05  4.1469566316906156e-05 
 4.2012190091631689e-05  4.2561914026475765e-05  4.3118831026091796e-05  4.3683035210778231e-05 
 4.4254621932385122e-05  4.4833687790428888e-05  4.5420330648417773e-05  4.6014649650390995e-05 
 4.6616745237674443e-05  4.7226719165855433e-05  4.7844674521979597e-05  4.8470715741972934e-05 
 4.9104948628291658e-05  4.9747480367803095e-05  5.0398419549900505e-05  5.1057876184855012e-05 
 5.1725961722407383e-05  5.2402789070603634e-05  5.3088472614876546e-05  5.3783128237377060e-05 
 5.4486873336558738e-05  5.5199826847018321e-05  5.5922109259595990e-05  5.6653842641738559e-05 
 5.7395150658129257e-05  5.8146158591587137e-05  5.8906993364240469e-05  5.9677783558976707e-05 
 6.0458659441173315e-05  6.1249752980712933e-05  6.2051197874286624e-05  6.2863129567988931e-05 
 6.3685685280208553e-05  6.4519004024818683e-05  6.5363226634670426e-05  6.6218495785394234e-05 
 6.7084956019512195e-05  6.7962753770866129e-05  6.8852037389365283e-05  6.9752957166057736e-05 
 7.0665665358530047e-05  7.1590316216639080e-05  7.2527066008580646e-05  7.3476073047299030e-05 
 7.4437497717242589e-05  7.5411502501468794e-05  7.6398252009104431e-05  7.7397913003164829e-05 
 7.8410654428737265e-05  7.9436647441533115e-05  8.0476065436813486e-05  8.1529084078693577e-05 
 8.2595881329830003e-05  8.3676637481497375e-05  8.4771535184057585e-05  8.5880759477828362e-05 
 8.7004497824355438e-05  8.8142940138093905e-05  8.9296278818504451e-05  9.0464708782569115e-05 
 9.1648427497732879e-05  9.2847635015275783e-05  9.4062534004122613e-05  9.5293329785094101e-05 
 9.6540230365606589e-05  9.7803446474825954e-05  9.9083191599281254e-05  1.0037968201894438e-04 
 1.0169313684378210e-04  1.0302377805078600e-04  1.0437183052148690e-04  1.0573752207996104e-04 
 1.0712108353133221e-04  1.0852274870077870e-04  1.0994275447305030e-04  1.1138134083250221e-04 
 1.1283875090365317e-04  1.1431523099227403e-04  1.1581103062701398e-04  1.1732640260157124e-04 
 1.1886160301741633e-04  1.2041689132707354e-04  1.2199253037796883e-04  1.2358878645685203e-04 
 1.2520592933479971e-04  1.2684423231280718e-04  1.2850397226797707e-04  1.3018542970031225e-04 
 1.3188888878012061e-04  1.3361463739604108e-04  1.3536296720369724e-04  1.3713417367498782e-04 
 1.3892855614802205e-04  1.4074641787770870e-04  1.4258806608700677e-04  1.4445381201884695e-04 
 1.4634397098873251e-04  1.4825886243802777e-04  1.5019880998794557e-04  1.5216414149423900e-04 
 1.5415518910261034e-04  1.5617228930484429e-04  1.5821578299567588e-04  1.6028601553040264e-04 
 1.6238333678325026e-04  1.6450810120650247e-04  1.6666066789040353e-04  1.6884140062384668e-04 
 1.7105066795585410e-04  1.7328884325786318e-04  1.7555630478682704e-04  1.7785343574914093e-04 
 1.8018062436540473e-04  1.8253826393603364e-04  1.8492675290772661e-04  1.8734649494080440e-04 
 1.8979789897743000e-04  1.9228137931072011e-04  1.9479735565476199e-04  1.9734625321554610e-04 
 1.9992850276282677e-04  2.0254454070292360e-04  2.0519480915247480e-04  2.0787975601315649e-04 
 2.1059983504737809e-04  2.1335550595497069e-04  2.1614723445087641e-04  2.1897549234385568e-04 
 2.2184075761622394e-04  2.2474351450463178e-04  2.2768425358190219e-04  2.3066347183993858e-04 
 2.3368167277371739e-04  2.3673936646637976e-04  2.3983706967543761e-04  2.4297530592010594e-04 
 2.4615460556977954e-04  2.4937550593366625e-04  2.5263855135159363e-04  2.5594429328600348e-04 
 2.5929329041515087e-04  2.6268610872752182e-04  2.6612332161748584e-04  2.6960550998220243e-04 
 2.7313326231979328e-04  2.7670717482879966e-04  2.8032785150894211e-04  2.8399590426319681e-04 
 2.8771195300120980e-04  2.9147662574406218e-04  2.9529055873040816e-04  2.9915439652399950e-04 
 3.0306879212261981e-04  3.0703440706844175e-04  3.1105191155983002e-04  3.1512198456460543e-04 
 3.1924531393479299e-04  3.2342259652287045e-04  3.2765453829953725e-04  3.3194185447302645e-04 
 3.3628526960997505e-04  3.4068551775787918e-04  3.4514334256914890e-04  3.4965949742678736e-04 
 3.5423474557171438e-04  3.5886986023175594e-04  3.6356562475232170e-04  3.6832283272879193e-04 
 3.7314228814063768e-04  3.7802480548729353e-04  3.8297120992581243e-04  3.8798233741031734e-04 
 3.9305903483327989e-04  3.9820216016864799e-04  4.0341258261684417e-04  4.0869118275166361e-04 
 4.1403885266909270e-04  4.1945649613807557e-04  4.2494502875325252e-04  4.3050537808969912e-04 
 4.3613848385968732e-04  4.4184529807149940e-04  4.4762678519032033e-04  4.5348392230123345e-04 
 4.5941769927435109e-04  4.6542911893210462e-04  4.7151919721872442e-04  4.7768896337193511e-04 
 4.8393946009690146e-04  4.9027174374244699e-04  4.9668688447957918e-04  5.0318596648235136e-04 
 5.0977008811109025e-04  5.1644036209802199e-04  5.2319791573532653e-04  5.3004389106565226e-04 
 5.3697944507512339e-04  5.4400574988887525e-04  5.5112399296914467e-04  5.5833537731595417e-04 
 5.6564112167042241e-04  5.7304246072073343e-04  5.8054064531080289e-04  5.8813694265167271e-04 
 5.9583263653567402e-04  6.0362902755338856e-04  6.1152743331345527e-04  6.1952918866524636e-04 
 6.2763564592446114e-04  6.3584817510167074e-04  6.4416816413385286e-04  6.5259701911895586e-04 
 6.6113616455353431e-04  6.6978704357349077e-04  6.7855111819796856e-04  6.8742986957643910e-04 
 6.9642479823901760e-04  7.0553742435005694e-04  7.1476928796505878e-04  7.2412194929094673e-04 
 7.3359698894974511e-04  7.4319600824570783e-04  7.5292062943594317e-04  7.6277249600457649e-04 
 7.7275327294050672e-04  7.8286464701879171e-04  7.9310832708571620e-04  8.0348604434759294e-04 
 8.1399955266333874e-04  8.2465062884088259e-04  8.3544107293744853e-04  8.4637270856377229e-04 
 8.5744738319229160e-04  8.6866696846937819e-04  8.8003336053164773e-04  8.9154848032641117e-04 
 9.0321427393632149e-04  9.1503271290826462e-04  9.2700579458655558e-04  9.3913554245049491e-04 
 9.5142400645634292e-04  9.6387326338376225e-04  9.7648541718680488e-04  9.8926259934948224e-04 
 1.0022069692459902e-03  1.0153207145056501e-03  1.0286060513826230e-03  1.0420652251304616e-03 
 1.0557005103815633e-03  1.0695142115315899e-03  1.0835086631289113e-03  1.0976862302691573e-03 
 1.1120493089949179e-03  1.1266003267006838e-03  1.1413417425430797e-03  1.1562760478564694e-03 
 1.1714057665739952e-03  1.1867334556541315e-03  1.2022617055128149e-03  1.2179931404612280e-03 
 1.2339304191493201e-03  1.2500762350151227e-03  1.2664333167399452e-03  1.2830044287095302e-03 
 1.2997923714812422e-03  1.3167999822573657e-03  1.3340301353646025e-03  1.3514857427398374e-03 
 1.3691697544222614e-03  1.3870851590519391e-03  1.4052349843748932e-03  1.4236222977548018e-03 
 1.4422502066913903e-03  1.4611218593456043e-03  1.4802404450716591e-03  1.4996091949560462e-03 
 1.5192313823635965e-03  1.5391103234906837e-03  1.5592493779256718e-03  1.5796519492166940e-03 
 1.6003214854468611e-03  1.6212614798169862e-03  1.6424754712359591e-03  1.6639670449188214e-03 
 1.6857398329926776e-03  1.7077975151105333e-03  1.7301438190731660e-03  1.7527825214591320e-03 
 1.7757174482630166e-03  1.7989524755420367e-03  1.8224915300711043e-03  1.8463385900064605e-03 
 1.8704976855579919e-03  1.8949728996703477e-03  1.9197683687129674e-03  1.9448882831791334e-03 
 1.9703368883941790e-03  1.9961184852329557e-03  2.0222374308466952e-03  2.0486981393993652e-03 
 2.0755050828136939e-03  2.1026627915269203e-03  2.1301758552564561e-03  2.1580489237755548e-03 
 2.1862867076991367e-03  2.2148939792798932e-03  2.2438755732148100e-03  2.2732363874622416e-03 
 2.3029813840696771e-03  2.3331155900123382e-03  2.3636440980427517e-03  2.3945720675514369e-03 
 2.4259047254388513e-03  2.4576473669987524e-03  2.4898053568131154e-03  2.5223841296587567e-03 
 2.5553891914258339e-03  2.5888261200483305e-03  2.6227005664467722e-03  2.6570182554832241e-03 
 2.6917849869288134e-03  2.7270066364439025e-03  2.7626891565710899e-03  2.7988385777412052e-03 
 2.8354610092924653e-03  2.8725626405029679e-03  2.9101497416366921e-03  2.9482286650031903e-03 
 2.9868058460311439e-03  3.0258878043559643e-03  3.0654811449216256e-03  3.1055925590969206e-03 
 3.1462288258063136e-03  3.1873968126755973e-03  3.2291034771925417e-03  3.2713558678827042e-03 
 3.3141611255006827e-03  3.3575264842368941e-03  3.4014592729401795e-03  3.4459669163563944e-03 
 3.4910569363832081e-03  3.5367369533413242e-03  3.5830146872623298e-03  3.6298979591934057e-03 
 3.6773946925190933e-03  3.7255129143003714e-03  3.7742607566312474e-03  3.8236464580131005e-03 
 3.8736783647470045e-03  3.9243649323442813e-03  3.9757147269554932e-03  4.0277364268181438e-03 
 4.0804388237233383e-03  4.1338308245015736e-03  4.1879214525280669e-03  4.2427198492476963e-03 
 4.2982352757199305e-03  4.3544771141839789e-03  4.4114548696444003e-03  4.4691781714774814e-03 
 4.5276567750586168e-03  4.5869005634109998e-03  4.6469195488758669e-03  4.7077238748046112e-03 
 4.7693238172730346e-03  4.8317297868180316e-03  4.8949523301969845e-03  4.9590021321701989e-03 
 5.0238900173066574e-03  5.0896269518133841e-03  5.1562240453887805e-03  5.2236925531001510e-03 
 5.2920438772858886e-03  5.3612895694824638e-03  5.4314413323766691e-03  5.5025110217834039e-03 
 5.5745106486493256e-03  5.6474523810827459e-03  5.7213485464100520e-03  5.7962116332590631e-03 
 5.8720542936696405e-03  5.9488893452319053e-03  6.0267297732524453e-03  6.1055887329488660e-03 
 6.1854795516730465e-03  6.2664157311634987e-03  6.3484109498271948e-03  6.4314790650512443e-03 
 6.5156341155448386e-03  6.6008903237117899e-03  6.6872620980542056e-03  6.7747640356075238e-03 
 6.8634109244074528e-03  6.9532177459891899e-03  7.0441996779193276e-03  7.1363720963609125e-03 
 7.2297505786720374e-03  7.3243509060384624e-03  7.4201890661406743e-03  7.5172812558558294e-03 
 7.6156438839950821e-03  7.7152935740766983e-03  7.8162471671354792e-03  7.9185217245689304e-03 
 8.0221345310206808e-03  8.1271030973016304e-03  8.2334451633493313e-03  8.3411787012260177e-03 
 8.4503219181560254e-03  8.5608932596027854e-03  8.6729114123861705e-03  8.7863953078406182e-03 
 8.9013641250145614e-03  9.0178372939117395e-03  9.1358344987749127e-03  9.2553756814125528e-03 
 9.3764810445690367e-03  9.4991710553389876e-03  9.6234664486262340e-03  9.7493882306480817e-03 
 9.8769576824853968e-03  1.0006196363679162e-02  1.0137126115874109e-02  1.0269769066509978e-02 
 1.0404147632561148e-02  1.0540284524325086e-02  1.0678202749260526e-02  1.0817925615875747e-02 
 1.0959476737667765e-02  1.1102880037113060e-02  1.1248159749710558e-02  1.1395340428077461e-02 
 1.1544446946098724e-02  1.1695504503130779e-02  1.1848538628260291e-02  1.2003575184618653e-02 
 1.2160640373752883e-02  1.2319760740053778e-02  1.2480963175241964e-02  1.2644274922912667e-02 
 1.2809723583139943e-02  1.2977337117141146e-02  1.3147143852002486e-02  1.3319172485466270e-02 
 1.3493452090781011e-02  1.3670012121614819e-02  1.3848882417033132e-02  1.4030093206541602e-02 
 1.4213675115194960e-02  1.4399659168772706e-02  1.4588076799022551e-02  1.4778959848972472e-02 
 1.4972340578312216e-02  1.5168251668845320e-02  1.5366726230012364e-02  1.5567797804486574e-02 
 1.5771500373842610e-02  1.5977868364299520e-02  1.6186936652538866e-02  1.6398740571598968e-02 
 1.6613315916846286e-02  1.6830698952024829e-02  1.7050926415384953e-02  1.7274035525892129e-02 
 1.7500063989517058e-02  1.7729050005608059e-02  1.7961032273346864e-02  1.8196049998288857e-02 
 1.8434142898988919e-02  1.8675351213713956e-02  1.8919715707243250e-02  1.9167277677757825e-02 
 1.9418078963819915e-02  1.9672161951443796e-02  1.9929569581259122e-02  2.0190345355767979e-02 
 2.0454533346696939e-02  2.0722178202445266e-02  2.0993325155630627e-02  2.1268020030733390e-02 
 2.1546309251841301e-02  2.1828239850495073e-02  2.2113859473636900e-02  2.2403216391662893e-02 
 2.2696359506580902e-02  2.2993338360275062e-02  2.3294203142878462e-02  2.3599004701255470e-02 
 2.3907794547594913e-02  2.4220624868115756e-02  2.4537548531886742e-02  2.4858619099761361e-02 
 2.5183890833429756e-02  2.5513418704589091e-02  2.5847258404233912e-02  2.6185466352068032e-02 
 2.6528099706039629e-02  2.6875216372000944e-02  2.7226875013494741e-02  2.7583135061668419e-02 
 2.7944056725318051e-02  2.8309701001063822e-02  2.8680129683658594e-02  2.9055405376431389e-02 
 2.9435591501867479e-02  2.9820752312326941e-02  3.0210952900903448e-02  3.0606259212425217e-02 
 3.1006738054599730e-02  3.1412457109304515e-02  3.1823484944025447e-02  3.2239891023444912e-02 
 3.2661745721181384e-02  3.3089120331682847e-02  3.3522087082275748e-02  3.3960719145371285e-02 
 3.4405090650832207e-02  3.4855276698500547e-02  3.5311353370889864e-02  3.5773397746043309e-02 
 3.6241487910559984e-02  3.6715702972791781e-02  3.7196123076212909e-02  3.7682829412964282e-02 
 3.8175904237575241e-02  3.8675430880864677e-02  3.9181493764024258e-02  3.9694178412885701e-02 
 4.0213571472374907e-02  4.0739760721155142e-02  4.1272835086461804e-02  4.1812884659131432e-02 
 4.2360000708827235e-02  4.2914275699463655e-02  4.3475803304833409e-02  4.4044678424438315e-02 
 4.4620997199527529e-02  4.5204857029345763e-02  4.5796356587593887e-02  4.6395595839105061e-02 
 4.7002676056739065e-02  4.7617699838497556e-02  4.8240771124863510e-02  4.8871995216367252e-02 
 4.9511478791382645e-02  5.0159329924155872e-02  5.0815658103070364e-02  5.1480574249150438e-02 
 5.2154190734807385e-02  5.2836621402830519e-02  5.3527981585627098e-02  5.4228388124713339e-02 
 5.4937959390461456e-02  5.5656815302104215e-02  5.6385077348001640e-02  5.7122868606172814e-02 
 5.7870313765096396e-02  5.8627539144783219e-02  5.9394672718124708e-02  6.0171844132520656e-02 
 6.0959184731789774e-02  6.1756827578367347e-02  6.2564907475792880e-02  6.3383560991492352e-02 
 6.4212926479858393e-02  6.5053144105632524e-02  6.5904355867593245e-02  6.6766705622554379e-02 
 6.7640339109677053e-02  6.8525403975099666e-02  6.9422049796891178e-02  7.0330428110329551e-02 
 7.1250692433511800e-02  7.2182998293298870e-02  7.3127503251600001e-02  7.4084366932001197e-02 
 7.5053751046741862e-02  7.6035819424044596e-02  7.7030738035802626e-02  7.8038675025629292e-02 
 7.9059800737274893e-02  8.0094287743415066e-02  8.1142310874816034e-02  8.2204047249881396e-02 
 8.3279676304585576e-02  8.4369379822798907e-02  8.5473341967009744e-02  8.6591749309447658e-02 
 8.7724790863615607e-02  8.8872658116233016e-02  9.0035545059597585e-02  9.1213648224370530e-02 
 9.2407166712790700e-02  9.3616302232323340e-02  9.4841259129749084e-02  9.6082244425699140e-02 
 9.7339467849642133e-02  9.8613141875329116e-02  9.9903481756701815e-02  1.0121070556427138e-01 
 1.0253503422197256e-01  1.0387669154450055e-01  1.0523590427513611e-01  1.0661290212406585e-01 
 1.0800791780720374e-01  1.0942118708552016e-01  1.1085294880488708e-01  1.1230344493644270e-01 
 1.1377292061748567e-01  1.1526162419290355e-01  1.1676980725714385e-01  1.1829772469673405e-01 
 1.1984563473335805e-01  1.2141379896749616e-01  1.2300248242263635e-01  1.2461195359006383e-01 
 1.2624248447423644e-01  1.2789435063875459e-01  1.2956783125293164e-01  1.3126320913897438e-01 
 1.3298077081978071e-01  1.3472080656736268e-01  1.3648361045190338e-01  1.3826948039145442e-01 
 1.4007871820228629e-01  1.4191162964989532e-01  1.4376852450067851e-01  1.4564971657428533e-01 
 1.4755552379665365e-01  1.4948626825374003e-01  1.5144227624595302e-01  1.5342387834329890e-01 
 1.5543140944124845e-01  1.5746520881733533e-01  1.5952562018849484e-01  1.6161299176915253e-01 
 1.6372767633007382e-01  1.6587003125798258e-01  1.6804041861596067e-01  1.7023920520463731e-01 
 1.7246676262417962e-01  1.7472346733709268e-01  1.7700970073184447e-01  1.7932584918732014e-01 
 1.8167230413812133e-01  1.8404946214071960e-01  1.8645772494047508e-01  1.8889749953953294e-01 
 1.9136919826560730e-01  1.9387323884166580e-01  1.9641004445652560e-01  1.9898004383637341e-01 
 2.0158367131722135e-01  2.0422136691831053e-01  2.0689357641647554e-01  2.0960075142148163e-01 
 2.1234334945234806e-01  2.1512183401466958e-01  2.1793667467895075e-01  2.2078834715996271e-01 
 2.2367733339714230e-01  2.2660412163603971e-01  2.2956920651083332e-01  2.3257308912792418e-01 
 2.3561627715062411e-01  2.3869928488495207e-01  2.4182263336655291e-01  2.4498685044875404e-01 
 2.4819247089177329e-01  2.5144003645309548e-01  2.5473009597902979e-01  2.5806320549746686e-01 
 2.6143992831184826e-01  2.6486083509636682e-01  2.6832650399241098e-01  2.7183752070627304e-01 
 2.7539447860813443e-01  2.7899797883234567e-01  2.8264863037902171e-01  2.8634705021696294e-01 
 2.9009386338792442e-01  2.9388970311225004e-01  2.9773521089588750e-01  3.0163103663880492e-01 
 3.0557783874482530e-01  3.0957628423289851e-01  3.1362704884982856e-01  3.1773081718447693e-01 
 3.2188828278345960e-01  3.2610014826835781e-01  3.3036712545446334e-01  3.3468993547107639e-01 
 3.3906930888337850e-01  3.4350598581590025e-01  3.4800071607760175e-01  3.5255425928859568e-01 
 3.5716738500852274e-01  3.6184087286660910e-01  3.6657551269342625e-01  3.7137210465437370e-01 
 3.7623145938490937e-01  3.8115439812754826e-01  3.8614175287065505e-01  3.9119436648905176e-01 
 3.9631309288646555e-01  4.0149879713984066e-01  4.0675235564553830e-01  4.1207465626745005e-01 
 4.1746659848704865e-01  4.2292909355540226e-01  4.2846306464717898e-01  4.3406944701666533e-01 
 4.3974918815582403e-01  4.4550324795442675e-01  4.5133259886227467e-01  4.5723822605354536e-01 
 4.6322112759329037e-01  4.6928231460610975e-01  4.7542281144703485e-01  4.8164365587464675e-01 
 4.8794589922646014e-01  4.9433060659660116e-01  5.0079885701581162e-01  5.0735174363380753e-01 
 5.1399037390402369e-01  5.2071586977077655e-01  5.2752936785887472e-01  5.3443201966571197e-01 
 5.4142499175587266e-01  5.4850946595828498e-01  5.5568663956594899e-01  5.6295772553828738e-01 
 5.7032395270613567e-01  5.7778656597941735e-01  5.8534682655753778e-01  5.9300601214252835e-01 
 6.0076541715498244e-01  6.0862635295281575e-01  6.1659014805288770e-01  6.2465814835552469e-01 
 6.3283171737198085e-01  6.4111223645487336e-01  6.4950110503163583e-01  6.5799974084102431e-01 
 6.6660958017271776e-01  6.7533207811005569e-01  6.8416870877595004e-01  6.9312096558201641e-01 
 7.0219036148095981e-01  7.1137842922227468e-01  7.2068672161127745e-01  7.3011681177153664e-01 
 7.3967029341073387e-01  7.4934878109000436e-01  7.5915391049680159e-01  7.6908733872133250e-01 
 7.7915074453660982e-01  7.8934582868216796e-01  7.9967431415149259e-01  8.1013794648321125e-01 
 8.2073849405609201e-01  8.3147774838790545e-01  8.4235752443819401e-01  8.5337966091500495e-01 
 8.6454602058563645e-01  8.7585849059145171e-01  8.8731898276680343e-01  8.9892943396214786e-01 
 9.1069180637137082e-01  9.2260808786340498e-01  9.3468029231818484e-01  9.4691045996699597e-01 
 9.5930065773727968e-01  9.7185297960194961e-01  9.8456954693327625e-01  9.9745250886140535e-01 
 1.0105040426375658e+00  1.0237263540020294e+00  1.0371216775568868e+00  1.0506922771437011e+00 
 1.0644404462261023e+00  1.0783685082773868e+00  1.0924788171731916e+00  1.1067737575893060e+00 
 1.1212557454046796e+00  1.1359272281097235e+00  1.1507906852199348e+00  1.1658486286949412e+00 
 1.1811036033630300e+00  1.1965581873512277e+00  1.2122149925210119e+00  1.2280766649097214e+00 
 1.2441458851777418e+00  1.2604253690615450e+00  1.2769178678326536e+00  1.2936261687626138e+00 
 1.3105530955940505e+00  1.3277015090178861e+00  1.3450743071568034e+00  1.3626744260550374e+00 
 1.3805048401745714e+00  1.3985685628978326e+00  1.4168686470369494e+00  1.4354081853497000e+00 
 1.4541903110621852e+00  1.4732181983983534e+00  1.4924950631164524e+00  1.5120241630525011e+00 
 1.5318087986708693e+00 
  </PP_RAB>
</PP_MESH>


<PP_LOCAL>
2.8010866330585788e+01 2.8010866321781766e+01 2.8010866312735736e+01 2.8010866305938311e+01 
2.8010866298987128e+01 2.8010866291880841e+01 2.8010866284617705e+01 2.8010866277192743e+01 
2.8010866269604165e+01 2.8010866261855536e+01 2.8010866253940065e+01 2.8010866245853684e+01 
2.8010866237600375e+01 2.8010866229176859e+01 2.8010866220579803e+01 2.8010866211810821e+01 
2.8010866202866225e+01 2.8010866193745251e+01 2.8010866184451494e+01 2.8010866174980901e+01 
2.8010866165331727e+01 2.8010866155506765e+01 2.8010866145508494e+01 2.8010866135334854e+01 
2.8010866124984823e+01 2.8010866114464363e+01 2.8010866103776042e+01 2.8010866092917915e+01 
2.8010866081894914e+01 2.8010866070712542e+01 2.8010866059373203e+01 2.8010866047881798e+01 
2.8010866036245211e+01 2.8010866024470445e+01 2.8010866012562307e+01 2.8010866000529440e+01 
2.8010865988381099e+01 2.8010865976129725e+01 2.8010865963788998e+01 2.8010865951364053e+01 
2.8010865938873092e+01 2.8010865926336358e+01 2.8010865913763780e+01 2.8010865901177379e+01 
2.8010865888600879e+01 2.8010865876053639e+01 2.8010865863561037e+01 2.8010865851153852e+01 
2.8010865838861452e+01 2.8010865826714664e+01 2.8010865814752108e+01 2.8010865803011331e+01 
2.8010865791536386e+01 2.8010865780377308e+01 2.8010865769579915e+01 2.8010865759201700e+01 
2.8010865749306021e+01 2.8010865739955712e+01 2.8010865731223547e+01 2.8010865723189234e+01 
2.8010865715933456e+01 2.8010865709549517e+01 2.8010865704141427e+01 2.8010865699814282e+01 
2.8010865696686515e+01 2.8010865694884771e+01 2.8010865694550535e+01 2.8010865695835356e+01 
2.8010865698900201e+01 2.8010865703926338e+01 2.8010865711104646e+01 2.8010865720646112e+01 
2.8010865732782374e+01 2.8010865747756860e+01 2.8010865765839394e+01 2.8010865787323890e+01 
2.8010865812527875e+01 2.8010865841798729e+01 2.8010865875509577e+01 2.8010865914070525e+01 
2.8010865957929589e+01 2.8010866007566339e+01 2.8010866063507752e+01 2.8010866126329613e+01 
2.8010866196653769e+01 2.8010866275161700e+01 2.8010866362595785e+01 2.8010866459763822e+01 
2.8010866567548117e+01 2.8010866686904755e+01 2.8010866818884665e+01 2.8010866964646844e+01 
2.8010867125430163e+01 2.8010867302593820e+01 2.8010867497648757e+01 2.8010867712228805e+01 
2.8010867948114324e+01 2.8010868207267976e+01 2.8010868491837307e+01 2.8010868804169800e+01 
2.8010869146842463e+01 2.8010869522686249e+01 2.8010869934798695e+01 2.8010870386585587e+01 
2.8010870881791686e+01 2.8010871424523351e+01 2.8010872019318018e+01 2.8010872671144927e+01 
2.8010873385478629e+01 2.8010874168361457e+01 2.8010875026441454e+01 2.8010875967072884e+01 
2.8010876998359972e+01 2.8010878129229685e+01 2.8010879369554065e+01 2.8010880730284669e+01 
2.8010882223503707e+01 2.8010883862576588e+01 2.8010885662339579e+01 2.8010887639195364e+01 
2.8010889811354872e+01 2.8010892199050964e+01 2.8010894824708750e+01 2.8010897713273302e+01 
2.8010900892464917e+01 2.8010904393105982e+01 2.8010908249568445e+01 2.8010912500101188e+01 
2.8010917187304095e+01 2.8010922358763104e+01 2.8010928067593351e+01 2.8010934373047309e+01 
2.8010941341417155e+01 2.8010949046833861e+01 2.8010957572153821e+01 2.8010967010287526e+01 
2.8010977465411518e+01 2.8010989054185615e+01 2.8011001907438875e+01 2.8011016172250201e+01 
2.8011032013830871e+01 2.8011049617845455e+01 2.8011069193192547e+01 2.8011090974918144e+01 
2.8011115227937871e+01 2.8011142250597587e+01 2.8011172379570773e+01 2.8011205994908618e+01 
2.8011243525106227e+01 2.8011285454829238e+01 2.8011332331939521e+01 2.8011384775986400e+01 
2.8011443488356413e+01 2.8011509262957187e+01 2.8011582999584419e+01 2.8011665718224997e+01 
2.8011758576078588e+01 2.8011862886295525e+01 2.8011980139472495e+01 2.8012112029085849e+01 
2.8012260480060711e+01 2.8012427681653559e+01 2.8012616123374968e+01 2.8012828638365779e+01 
2.8013068453353764e+01 2.8013339242199596e+01 2.8013645191101080e+01 2.8013991072071526e+01 
2.8014382325292612e+01 2.8014825155148962e+01 2.8015326637997294e+01 2.8015894850752705e+01 
2.8016539011406497e+01 2.8017269638445516e+01 2.8018098742720955e+01 2.8019040038873257e+01 
2.8020109185121875e+01 2.8021324060541438e+01 2.8022705078737566e+01 2.8024275550414423e+01 
2.8026062088154642e+01 2.8028095064761892e+01 2.8030409143836930e+01 2.8033043873640487e+01 
2.8036044353908494e+01 2.8039461998400423e+01 2.8043355395079050e+01 2.8047791254619181e+01 
2.8052845499611060e+01 2.8058604471966465e+01 2.8065166263342590e+01 2.8072642224959218e+01 
2.8081158612151132e+01 2.8090858402417705e+01 2.8101903293081183e+01 2.8114475874127077e+01 
2.8128781979245531e+01 2.8145053189857748e+01 2.8163549509920010e+01 2.8184562143915439e+01 
2.8208416423762444e+01 2.8235474701508963e+01 2.8266139191862024e+01 2.8300854758404100e+01 
2.8340111310641976e+01 2.8384445848974579e+01 2.8434443789272340e+01 2.8490739381414787e+01 
2.8554014944557462e+01 2.8624998472997913e+01 2.8704459232638300e+01 2.8793200586657182e+01 
2.8892050177341108e+01 2.9001846188736998e+01 2.9123418749664754e+01 2.9257567077784586e+01 
2.9405030538336124e+01 2.9566453153088972e+01 2.9742342003390842e+01 2.9933018031573056e+01 
3.0138560257104235e+01 3.0358744184044937e+01 3.0592974491322437e+01 3.0840214778634188e+01 
3.1098916939453019e+01 3.1366954818408395e+01 3.1641566275494750e+01 3.1919309046893048e+01 
3.2196040474295550e+01 3.2466928004403897e+01 3.2726497504803284e+01 3.2968730951543016e+01 
3.3187220618047199e+01 3.3375384067096370e+01 3.3526744960443260e+01 3.3635275639801719e+01 
3.3695794730465991e+01 3.3704403744778304e+01 3.3658937627758149e+01 3.3559399616634735e+01 
3.3408337160305521e+01 3.3211114331007622e+01 3.2976032638561684e+01 3.2714252686466807e+01 
3.2439479924064642e+01 3.2167391054705931e+01 3.1914800521503949e+01 3.1698593809259673e+01 
3.1534485781615757e+01 3.1435693945920164e+01 3.1409512371387521e+01 3.1406327681971085e+01 
3.1403059866094097e+01 3.1399706816895893e+01 3.1396266117870010e+01 3.1392735588030913e+01 
3.1389113072997887e+01 3.1385396057563703e+01 3.1381582031258048e+01 3.1377668595823671e+01 
3.1373653161441553e+01 3.1369533083786219e+01 3.1365305738409898e+01 3.1360968291893808e+01 
3.1356517897263739e+01 3.1351951711788217e+01 3.1347266711480984e+01 3.1342459881912639e+01 
3.1337528095816609e+01 3.1332468142952596e+01 3.1327276729020021e+01 3.1321950457467558e+01 
3.1316485969025585e+01 3.1310879682304801e+01 3.1305127927743907e+01 3.1299227096280632e+01 
3.1293173360683745e+01 3.1286962740418211e+01 3.1280591319837271e+01 3.1274055034970164e+01 
3.1267349656323635e+01 3.1260470917392851e+01 3.1253414400963457e+01 3.1246175621971229e+01 
3.1238749997146574e+01 3.1231132784221977e+01 3.1223319167357825e+01 3.1215304198535605e+01 
3.1207082787588266e+01 3.1198649774372143e+01 3.1189999876919398e+01 3.1181127623621322e+01 
3.1172027452543031e+01 3.1162693705913238e+01 3.1153120541786471e+01 3.1143302002060679e+01 
3.1133231988679114e+01 3.1122904257007953e+01 3.1112312449647913e+01 3.1101450026598087e+01 
3.1090310286929569e+01 3.1078886435180699e+01 3.1067171502587165e+01 3.1055158306416150e+01 
3.1042839574477750e+01 3.1030207863785783e+01 3.1017255514664775e+01 3.1003974760294852e+01 
3.0990357643560195e+01 3.0976396016398894e+01 3.0962081582381721e+01 3.0947405853101941e+01 
3.0932360159883430e+01 3.0916935662042146e+01 3.0901123332626533e+01 3.0884913946243202e+01 
3.0868298103302084e+01 3.0851266217177631e+01 3.0833808476652454e+01 3.0815914905368924e+01 
3.0797575341165583e+01 3.0778779394637361e+01 3.0759516484988477e+01 3.0739775848739807e+01 
3.0719546507285688e+01 3.0698817271390816e+01 3.0677576765363693e+01 3.0655813408245539e+01 
3.0633515412968645e+01 3.0610670781854868e+01 3.0587267325807513e+01 3.0563292648597280e+01 
3.0538734147604227e+01 3.0513579039263650e+01 3.0487814323448728e+01 3.0461426803726638e+01 
3.0434403106927238e+01 3.0406729663360011e+01 3.0378392712000494e+01 3.0349378313772764e+01 
3.0319672351353024e+01 3.0289260535912984e+01 3.0258128416084940e+01 3.0226261378702532e+01 
3.0193644660035901e+01 3.0160263349696198e+01 3.0126102403152512e+01 3.0091146655541259e+01 
3.0055380826118743e+01 3.0018789529957374e+01 2.9981357292095552e+01 2.9943068562876174e+01 
2.9903907732194341e+01 2.9863859144219312e+01 2.9822907114023764e+01 2.9781035947666798e+01 
2.9738229962976430e+01 2.9694473508460199e+01 2.9649750986161656e+01 2.9604046877870843e+01 
2.9557345769868373e+01 2.9509632380142055e+01 2.9460891587732505e+01 2.9411108464500849e+01 
2.9360268307218888e+01 2.9308356673074190e+01 2.9255359416428721e+01 2.9201262726832599e+01 
2.9146053171765381e+01 2.9089717738980024e+01 2.9032243881201264e+01 2.8973619564845027e+01 
2.8913833322085420e+01 2.8852874300341181e+01 2.8790732318480007e+01 2.8727397924513774e+01 
2.8662862454944012e+01 2.8597118102730672e+01 2.8530157976106789e+01 2.8461976164145543e+01 
2.8392567817333106e+01 2.8321929213657793e+01 2.8250057835691095e+01 2.8176952451465997e+01 
2.8102613187332341e+01 2.8027041618651683e+01 2.7950240854502869e+01 2.7872215622655052e+01 
2.7792972361181416e+01 2.7712519308693679e+01 2.7630866598032195e+01 2.7548026352662010e+01 
2.7464012782959973e+01 2.7378842283803099e+01 2.7292533534335032e+01 2.7205107590326577e+01 
2.7116587991488640e+01 2.7027000864589297e+01 2.6936375008641953e+01 2.6844742000749651e+01 
2.6752136293592809e+01 2.6658595306960510e+01 2.6564159521576002e+01 2.6468872566045395e+01 
2.6372781307226500e+01 2.6275935925521164e+01 2.6178389990953015e+01 2.6080200537407755e+01 
2.5981428126724499e+01 2.5882136901690920e+01 2.5782394633763065e+01 2.5682272770794093e+01 
2.5581846458912548e+01 2.5481194563177556e+01 2.5380399678278895e+01 2.5279548120623012e+01 
2.5178729913229244e+01 2.5078038748430441e+01 2.4977571947341900e+01 2.4877430391850311e+01 
2.4777718437306969e+01 2.4678543826569058e+01 2.4580017568952076e+01 2.4482253796929395e+01 
2.4385369609671830e+01 2.4289484905542441e+01 2.4194722180964156e+01 2.4101206301090205e+01 
2.4009064263365090e+01 2.3918424932793663e+01 2.3829418758166369e+01 2.3742177459878476e+01 
2.3656833697995278e+01 2.3573520722969846e+01 2.3492371996506574e+01 2.3413520801751421e+01 
2.3337099835995666e+01 2.3263240767174882e+01 2.3192073787401899e+01 2.3123727160086336e+01 
2.3058326732780980e+01 2.2995995447920386e+01 2.2936852851843970e+01 2.2881014585749845e+01 
2.2828591875790586e+01 2.2779691022584366e+01 2.2734412894954573e+01 2.2692852426301638e+01 
2.2655098113499331e+01 2.2621231537930711e+01 2.2591326896310250e+01 2.2565450544572105e+01 
2.2543660574502240e+01 2.2526006413869322e+01 2.2512528448770365e+01 2.2503257686565796e+01 
2.2498215454472874e+01 2.2497413134652209e+01 2.2500851947819857e+01 2.2508522775250345e+01 
2.2520406034212790e+01 2.2536471604866620e+01 2.2556678804699303e+01 2.2580976419236496e+01 
2.2609302787858251e+01 2.2641585945933414e+01 2.2677743817941192e+01 2.2717684469930965e+01 
2.2761306414952639e+01 2.2808498968602418e+01 2.2859142658092463e+01 2.2913109678937115e+01 
2.2970264396455228e+01 2.3030463887191154e+01 2.3093558521509667e+01 2.3159392581653993e+01 
2.3227804904471789e+01 2.3298629551621303e+01 2.3371696501464928e+01 2.3446832353223485e+01 
2.3523861042241887e+01 2.3602604558599392e+01 2.3682883665736881e+01 2.3764518613422979e+01 
2.3847329838216861e+01 2.3931138650290556e+01 2.4015767897621426e+01 2.4101042607029072e+01 
2.4186790596585919e+01 2.4272843054784900e+01 2.4359035086035796e+01 2.4445206216532537e+01 
2.4531200860693016e+01 2.4616868745537403e+01 2.4702065290800327e+01 2.4786651944951636e+01 
2.4870496476298779e+01 2.4953473218611038e+01 2.5035463272122268e+01 2.5116354660457091e+01 
2.5196042444305366e+01 2.5274428793343873e+01 2.5351423018227273e+01 2.5426941564077847e+01 
2.5500907967977838e+01 2.5573252782566232e+01 2.5643913467876907e+01 2.5712834254590803e+01 
2.5779965980586358e+01 2.5845265903570265e+01 2.5908697492903105e+01 2.5970230202596227e+01 
2.6029839228229175e+01 2.6087505250599968e+01 2.6143214168080785e+01 2.6196956820511765e+01 
2.6248728706307425e+01 2.6298529695100640e+01 2.6346363738156448e+01 2.6392238578066159e+01 
2.6436165459448489e+01 2.6478158842148808e+01 2.6518236118606772e+01 2.6556417336428222e+01 
2.6592724927286099e+01 2.6627183443162437e+01 2.6659819300938853e+01 2.6690660535695034e+01 
2.6719736563568844e+01 2.6747077954858263e+01 2.6772716217426360e+01 2.6796683590592384e+01 
2.6819012849984322e+01 2.6839737123622214e+01 2.6858889718781253e+01 2.6876503959739491e+01 
2.6892613036545740e+01 2.6907249864531671e+01 2.6920446954108222e+01 2.6932236290893083e+01 
2.6942649225808832e+01 2.6951716374686555e+01 2.6959467527111975e+01 2.6965931564233820e+01 
2.6971136385014603e+01 2.6975108840413998e+01 2.6977874675324802e+01 2.6979458477701247e+01 
2.6979883634488502e+01 2.6979172293911247e+01 2.6977345333631131e+01 2.6974422334412719e+01 
2.6970421559014628e+01 2.6965359935682329e+01 2.6959253045906909e+01 2.6952115116196527e+01 
2.6943959013313638e+01 2.6934796242737658e+01 2.6924636950062425e+01 2.6913489924814442e+01 
2.6901362606491098e+01 2.6888261092681667e+01 2.6874190148690772e+01 2.6859153218602049e+01 
2.6843152437576180e+01 2.6826188644952158e+01 2.6808261398150908e+01 2.6789368987125162e+01 
2.6769508449067484e+01 2.6748675583351130e+01 2.6726864966536372e+01 2.6704069967235551e+01 
2.6680282760724147e+01 2.6655494343259452e+01 2.6629694546008217e+01 2.6602872048386647e+01 
2.6575014390848708e+01 2.6546107987044408e+01 2.6516138135255265e+01 2.6485089029121500e+01 
2.6452943767593680e+01 2.6419684364083768e+01 2.6385291754814084e+01 2.6349745806388945e+01 
2.6313025322546590e+01 2.6275108050108479e+01 2.6235970684160456e+01 2.6195588872492934e+01 
2.6153937219320937e+01 2.6110989288316713e+01 2.6066717605010606e+01 2.6021093658584146e+01 
2.5974087903170055e+01 2.5925669758660604e+01 2.5875807611087147e+01 2.5824468812714702e+01 
2.5771619681862560e+01 2.5717225502540281e+01 2.5661250524018616e+01 2.5603657960423742e+01 
2.5544409990428928e+01 2.5483467757159094e+01 2.5420791368466578e+01 2.5356339897623609e+01 
2.5290071384582632e+01 2.5221942837985484e+01 2.5151910237976598e+01 2.5079928540008790e+01 
2.5005951679807758e+01 2.4929932579597924e+01 2.4851823155808653e+01 2.4771574328404004e+01 
2.4689136032011319e+01 2.4604457229054759e+01 2.4517485925065014e+01 2.4428169186383663e+01 
2.4336453160457513e+01 2.4242283098944871e+01 2.4145603383853551e+01 2.4046357556937632e+01 
2.3944488352610257e+01 2.3839937734582193e+01 2.3732646936486418e+01 2.3622556506772206e+01 
2.3509606358092292e+01 2.3393735821465068e+01 2.3274883705474675e+01 2.3152988360784207e+01 
2.3027987750242108e+01 2.2899819524832708e+01 2.2768421105768279e+01 2.2633729772980157e+01 
2.2495682760276047e+01 2.2354217357434212e+01 2.2209271019467483e+01 2.2060781483320714e+01 
2.1908686892226569e+01 2.1752925927921506e+01 2.1593437950940945e+01 2.1430163149157625e+01 
2.1263042694707917e+01 2.1092018909454232e+01 2.0917035439058729e+01 2.0738037435727737e+01 
2.0554971749655742e+01 2.0367787129140666e+01 2.0176434429296517e+01 1.9980866829237215e+01 
1.9781040057566461e+01 1.9576912625912783e+01 1.9368446070210727e+01 1.9155605199347598e+01 
1.8938358350714417e+01 1.8716677652135079e+01 1.8490539289537423e+01 1.8259923779651864e+01 
1.8024816246938975e+01 1.7785206703832138e+01 1.7541090333266165e+01 1.7292467772388349e+01 
1.7039345396217122e+01 1.6781735599887124e+01 1.6519657078026224e+01 1.6253135099682726e+01 
1.5982201777095435e+01 1.5706896326481548e+01 1.5427265318907450e+01 1.5143362919176123e+01 
1.4855251110560310e+01 1.4562999903096408e+01 1.4266687523045908e+01 1.3966400581040826e+01 
1.3662234216337659e+01 1.3354292214528446e+01 1.3042687095991889e+01 1.2727540172324360e+01 
1.2408981567955628e+01 1.2087150204154870e+01 1.1762193742645335e+01 1.1434268486087317e+01 
1.1103539232770405e+01 1.0770179082968019e+01 1.0434369194553312e+01 1.0096298485665731e+01 
9.7561632824628148e+00 9.4141669102701417e+00 9.0705192267857306e+00 8.7254360963870301e+00 
8.3791388050440521e+00 8.0318534158485306e+00 7.6838100657254627e+00 7.3352422045346435e+00 
6.9863857784380192e+00 6.6374783601285117e+00 6.2887582292927577e+00 5.9404634074799132e+00 
5.5928306523750555e+00 5.2460944173140325e+00 4.9004857827031607e+00 4.5562313668302297e+00 
4.2135522243280237e+00 3.8726627412738224e+00 3.5337695365677768e+00 3.1970703798009410e+00 
2.8627531362982852e+00 2.5309947503851355e+00 2.2019602781814025e+00 1.8758019813622140e+00 
1.5526584933603935e+00 1.2326540694123733e+00 9.1589793169403300e-01 6.0248372057820099e-01 
2.9248906276224884e-01 -1.4024733283540262e-02 -3.1701284442044786e-01 -6.1644695270924965e-01 
-9.1231510859661524e-01 -1.2046214283477956e+00 -1.4933856170854416e+00 -1.7786423093098354e+00 
-2.0604399955097419e+00 -2.3388408663881046e+00 -2.6139182398191454e+00 -2.8857559830059301e+00 
-3.1544466349101228e+00 -3.4200895382625629e+00 -3.6827887692762040e+00 -3.9426508716763156e+00 
-4.1997824096598260e+00 -4.4542873519295085e+00 -4.7062643174267871e+00 -4.9558037039598464e+00 
-5.2029847411736521e+00 -5.4478725080855641e+00 -5.6905149648796485e+00 -5.9309400560543502e+00 
-6.1691529466919963e+00 -6.4051334607606494e+00 -6.6388337941806297e+00 -6.8701765791323739e+00 
-7.0990533779652800e+00 -7.3253236853279180e+00 -7.5488145138733875e+00 -7.7693206370115515e+00 
-7.9866055517162637e+00 -8.2004032176544364e+00 -8.4104206149395129e+00 -8.6163411455174543e+00 
-8.8178288900058845e+00 -9.0145337021172836e+00 -9.2060971072480342e+00 -9.3921589388996694e+00 
-9.5723646201843806e+00 -9.7463729672316699e+00 -9.9138643572348535e+00 -1.0074549072054088e+01 
-1.0228175594651931e+01 -1.0374538602193072e+01 -1.0513486370504884e+01 -1.0644927276297206e+01 
-1.0768835063400157e+01 -1.0885252526406532e+01 -1.0994293263606847e+01 -1.1096141165603637e+01 
-1.1191047338661432e+01 -1.1279324216187776e+01 -1.1361336694539286e+01 -1.1437490234064315e+01 
-1.1508216004606540e+01 -1.1573953313725328e+01 -1.1635129738294932e+01 -1.1692139575885280e+01 
-1.1745321432149623e+01 -1.1794935951943256e+01 -1.1841144872281912e+01 -1.1883992706755819e+01 
-1.1923392451062703e+01 -1.1959116707631180e+01 -1.1990795553386677e+01 -1.2017922301828609e+01 
-1.2039882079434712e+01 -1.2055914172622115e+01 -1.2065241425846136e+01 -1.2067059526063268e+01 
-1.2060567971033244e+01 -1.2045054280221295e+01 -1.2019941874373984e+01 -1.1984845875637898e+01 
-1.1939624033073093e+01 -1.1884418420898587e+01 -1.1819683427180872e+01 -1.1746195728492770e+01 
-1.1665042486193403e+01 -1.1577584945741529e+01 -1.1485395999894232e+01 -1.1390172094132517e+01 
-1.1293622073979511e+01 -1.1197338115865479e+01 -1.1102656595118676e+01 -1.1010519403022197e+01 
-1.0921348531944068e+01 -1.0834948350081225e+01 -1.0750450507313069e+01 -1.0666315497476068e+01 
-1.0580402277331530e+01 -1.0490112876961797e+01 -1.0392612684565677e+01 -1.0285119324570612e+01 
-1.0165244260014314e+01 -1.0031362135781372e+01 -9.8829743074266823e+00 -9.7210260111194238e+00 
-9.5481324181096241e+00 -9.3686687008332878e+00 -9.1886848103774952e+00 -9.0156161388839724e+00 
-8.8577969709462998e+00 -8.7236511380108901e+00 -8.6221022288475648e+00 -8.5505773706080817e+00 
-8.4474067337056162e+00 -8.3374716300333045e+00 -8.2298708962481300e+00 -8.1235781595964358e+00 
-8.0186686626466415e+00 -7.9151144555237192e+00 -7.8128984043386698e+00 -7.7120026134699833e+00 
-7.6124104567051134e+00 -7.5141029399098223e+00 -7.4170651988385501e+00 -7.3212799740205066e+00 
-7.2267310890889824e+00 -7.1334025292195573e+00 -7.0412785216786853e+00 -6.9503435170782906e+00 
-6.8605821821536086e+00 -6.7719793926586451e+00 -6.6845202272600703e+00 -6.5981899622177425e+00 
-6.5129740667109344e+00 -6.4288581986605129e+00 -6.3458282010416047e+00 -6.2638700985294404e+00 
-6.1829700944591872e+00 -6.1031145680221321e+00 -6.0242900716579042e+00 -5.9464833286240788e+00 
-5.8696812307001318e+00 -5.7938708359939080e+00 -5.7190393668390564e+00 -5.6451742077684148e+00 
-5.5722629035455302e+00 -5.5002931572379525e+00 -5.4292528283415837e+00 -5.3591299309189981e+00 
-5.2899126317874465e+00 -5.2215892487021449e+00 -5.1541482485865462e+00 -5.0875782457539742e+00 
-5.0218680001621969e+00 -4.9570064156721410e+00 -4.8929825383240306e+00 -4.8297855546233075e+00 
-4.7674047898418328e+00 -4.7058297063299941e+00 -4.6450499018420013e+00 -4.5850551078719022e+00 
-4.5258351880115129e+00 -4.4673801363091350e+00 -4.4096800757333625e+00 -4.3527252562572878e+00 
-4.2965060537044346e+00 -4.2410129678995503e+00 -4.1862366211689883e+00 -4.1321677567942325e+00 
-4.0787972374809485e+00 -4.0261160438365939e+00 -3.9741152728740881e+00 -3.9227861365328338e+00 
-3.8721199602023817e+00 -3.8221081812716471e+00 -3.7727423476927844e+00 -3.7240141165611771e+00 
-3.6759152527123695e+00 -3.6284376273343213e+00 -3.5815732165994802e+00 -3.5353141003086881e+00 
-3.4896524605577284e+00 -3.4445805804154794e+00 -3.4000908426211489e+00 -3.3561757282976443e+00 
-3.3128278156809721e+00 -3.2700397788663058e+00 -3.2278043865698511e+00 -3.1861145009066814e+00 
-3.1449630761843870e+00 -3.1043431577123131e+00 -3.0642478806260387e+00 -3.0246704687271446e+00 
-2.9856042333379378e+00 -2.9470425721710338e+00 -2.9089789682134382e+00 -2.8714069886251505e+00 
-2.8343202836519978e+00 -2.7977125855524245e+00 -2.7615777075382688e+00 -2.7259095427285915e+00 
-2.6907020631192995e+00 -2.6559493185623544e+00 -2.6216454357619510e+00 -2.5877846172799255e+00 
-2.5543611405575306e+00 -2.5213693569476261e+00 -2.4888036907604567e+00 -2.4566586383209570e+00 
-2.4249287670389172e+00 -2.3936087144906542e+00 -2.3626931875128339e+00 -2.3321769613078769e+00 
-2.3020548785609667e+00 -2.2723218485684509e+00 -2.2429728463775200e+00 -2.2140029119369404e+00 
-2.1854071492588356e+00 -2.1571807255912439e+00 -2.1293188706013346e+00 -2.1018168755692326e+00 
-2.0746700925923189e+00 -2.0478739337995719e+00 -2.0214238705763514e+00 -1.9953154327989280e+00 
-1.9695442080791365e+00 -1.9441058410185879e+00 -1.9189960324726540e+00 -1.8942105388238746e+00 
-1.8697451712647857e+00 -1.8455957950899695e+00 -1.8217583289973700e+00 -1.7982287443984031e+00 
-1.7750030647372184e+00 -1.7520773648183343e+00 -1.7294477701445736e+00 -1.7071104562601622e+00 
-1.6850616481058622e+00 -1.6632976193806266e+00 -1.6418146919117547e+00 -1.6206092350333738e+00 
-1.5996776649727689e+00 -1.5790164442447820e+00 -1.5586220810539242e+00 -1.5384911287043888e+00 
-1.5186201850170520e+00 -1.4990058917552571e+00 -1.4796449340567661e+00 -1.4605340398736375e+00 
-1.4416699794193208e+00 -1.4230495646226327e+00 -1.4046696485891956e+00 -1.3865271250694557e+00 
-1.3686189279337377e+00 -1.3509420306541420e+00 -1.3334934457929251e+00 -1.3162702244977469e+00 
-1.2992694560032076e+00 -1.2824882671389597e+00 -1.2659238218441766e+00 -1.2495733206881947e+00 
-1.2334340003973787e+00 -1.2175031333882149e+00 -1.2017780273055130e+00 -1.1862560245704787e+00 
-1.1709345019268829e+00 -1.1558108700009566e+00 -1.1408825728629082e+00 -1.1261470875949824e+00 
-1.1116019238651316e+00 -1.0972446235060747e+00 -1.0830727600998558e+00 -1.0690839385678552e+00 
-1.0552757947659184e+00 -1.0416459950848982e+00 -1.0281922360562141e+00 -1.0149122439625793e+00 
-1.0018037744537058e+00 -9.8886461216707255e-01 -9.7609257035344399e-01 -9.6348549050736831e-01 
-9.5104124200235618e-01 -9.3875772173073202e-01 -9.2663285374843485e-01 -9.1466458892387548e-01 
-9.0285090459178552e-01 -8.9118980421151883e-01 -8.7967931702916369e-01 -8.6831749774485323e-01 
-8.5710242618460386e-01 -8.4603220697432147e-01 -8.3510496922065802e-01 -8.2431886619441819e-01 
-8.1367207501849392e-01 -8.0316279635989396e-01 -7.9278925412542323e-01 -7.8254969516184425e-01 
-7.7244238895928219e-01 -7.6246562735890044e-01 -7.5261772426432383e-01 -7.4289701535640362e-01 
-7.3330185781227619e-01 -7.2383063002741099e-01 -7.1448173134181492e-01 -7.0525358176935393e-01 
-6.9614462173080904e-01 -6.8715331179018957e-01 -6.7827813239480594e-01 -6.6951758361813440e-01 
-6.6087018490655935e-01 -6.5233447482918872e-01 -6.4390901083068408e-01 -6.3559236898757310e-01 
-6.2738314376758197e-01 -6.1927994779212758e-01 -6.1128141160180227e-01 -6.0338618342494554e-01 
-5.9559292894920512e-01 -5.8790033109602668e-01 -5.8030708979806223e-01 -5.7281192177946061e-01 
-5.6541356033898749e-01 -5.5811075513595076e-01 -5.5090227197888963e-01 -5.4378689261699342e-01 
-5.3676341453421506e-01 -5.2983065074604074e-01 -5.2298742959889188e-01 -5.1623259457210580e-01 
-5.0956500408248584e-01 -5.0298353129136997e-01 -4.9648706391419167e-01 -4.9007450403250225e-01 
-4.8374476790841886e-01 -4.7749678580147148e-01 -4.7132950178781308e-01 -4.6524187358176661e-01 
-4.5923287235967608e-01 -4.5330148258603309e-01 -4.4744670184184848e-01 -4.4166754065524161e-01 
-4.3596302233421680e-01 -4.3033218280160079e-01 -4.2477407043211046e-01 -4.1928774589152579e-01 
-4.1387228197794296e-01 -4.0852676346507039e-01 -4.0325028694755660e-01 -3.9804196068831177e-01 
-3.9290090446780157e-01 -3.8782624943528859e-01 -3.8281713796199418e-01 -3.7787272349615725e-01 
-3.7299217041996463e-01 -3.6817465390833048e-01 -3.6341935978949819e-01 -3.5872548440744351e-01 
-3.5409223448605509e-01 -3.4951882699506859e-01 -3.4500448901773284e-01 -3.4054845762018515e-01 
-3.3614997972251359e-01 -3.3180831197148397e-01 -3.2752272061491394e-01 -3.2329248137766370e-01 
-3.1911687933923366e-01 -3.1499520881294102e-01 -3.1092677322665674e-01 -3.0691088500508357e-01 
-3.0294686545355398e-01 -2.9903404464332878e-01 -2.9517176129837830e-01 -2.9135936268362461e-01 
-2.8759620449462775e-01 -2.8388165074869742e-01 -2.8021507367740944e-01 -2.7659585362051187e-01 
-2.7302337892120110e-01 -2.6949704582275003e-01 -2.6601625836647202e-01 -2.6258042829100192e-01 
-2.5918897493288034e-01 -2.5584132512841717e-01 -2.5253691311682791e-01 -2.4927518044461761e-01 
-2.4605557587120150e-01 -2.4287755527574370e-01 -2.3974058156519962e-01 -2.3664412458354578e-01 
-2.3358766102218245e-01 -2.3057067433149311e-01 -2.2759265463354633e-01 -2.2465309863592514e-01 
-2.2175150954666958e-01 -2.1888739699031740e-01 -2.1606027692502974e-01 -2.1326967156078680e-01 
-2.1051510927864009e-01 -2.0779612455100746e-01 -2.0511225786299916e-01 -2.0246305563475669e-01 
-1.9984807014479822e-01 -1.9726685945435193e-01 -1.9471898733266760e-01 -1.9220402318329255e-01 
-1.8972154197129967e-01 -1.8727112415145553e-01 -1.8485235559731641e-01 -1.8246482753123971e-01 
-1.8010813645529969e-01 -1.7778188408309545e-01 -1.7548567727243933e-01 -1.7321912795891517e-01 
-1.7098185309029426e-01 -1.6877347456179903e-01 -1.6659361915220192e-01 -1.6444191846075015e-01 
-1.6231800884490621e-01 -1.6022153135888970e-01 -1.5815213169301554e-01 -1.5610946011381488e-01 
-1.5409317140492904e-01 -1.5210292480876733e-01 -1.5013838396891793e-01 -1.4819921687330317e-01 
-1.4628509579806850e-01 -1.4439569725219636e-01 -1.4253070192283557e-01 -1.4068979462133663e-01 
-1.3887266422998398e-01 -1.3707900364941658e-01 -1.3530850974672723e-01 -1.3356088330423238e-01 
-1.3183582896890383e-01 -1.3013305520246679e-01 -1.2845227423207428e-01 -1.2679320200175584e-01 
-1.2515555812435575e-01 -1.2353906583416102e-01 -1.2194345194012723e-01 -1.2036844677970851e-01 
-1.1881378417327217e-01 
</PP_LOCAL>


<PP_NONLOCAL>
  <PP_BETA>
  1  1      Beta    L
  1148  
 -6.1677600412840798e-08  -6.3302246886866643e-08  -6.4969688088862622e-08  -6.6681051272495197e-08 
 -6.8437493384358042e-08  -7.0240201846112487e-08  -7.2090395357229021e-08  -7.3989324718874744e-08 
 -7.5938273679501476e-08  -7.7938559802709575e-08  -7.9991535357969438e-08  -8.2098588234807658e-08 
 -8.4261142881072675e-08  -8.6480661265915399e-08  -8.8758643868135327e-08  -9.1096630690561603e-08 
 -9.3496202301152516e-08  -9.5958980901519162e-08  -9.8486631423595908e-08  -1.0108086265519597e-07 
 -1.0374342839521740e-07  -1.0647612863927727e-07  -1.0928081079657658e-07  -1.1215937093881820e-07 
 -1.1511375508202369e-07  -1.1814596050211276e-07  -1.2125803708513792e-07  -1.2445208871308356e-07 
 -1.2773027468617105e-07  -1.3109481118262539e-07  -1.3454797275689678e-07  -1.3809209387734382e-07 
 -1.4172957050442288e-07  -1.4546286171044707e-07  -1.4929449134201173e-07  -1.5322704972620991e-07 
 -1.5726319542179087e-07  -1.6140565701644531e-07  -1.6565723497143404e-07  -1.7002080351480348e-07 
 -1.7449931258447386e-07  -1.7909578982250606e-07  -1.8381334262190266e-07  -1.8865516022732164e-07 
 -1.9362451589112483e-07  -1.9872476908622034e-07  -2.0395936777719038e-07  -2.0933185075124696e-07 
 -2.1484585001058201e-07  -2.2050509322773801e-07  -2.2631340626565480e-07  -2.3227471576409360e-07 
 -2.3839305179419443e-07  -2.4467255058295387e-07  -2.5111745730946854e-07  -2.5773212897483498e-07 
 -2.6452103734764555e-07  -2.7148877198706840e-07  -2.7864004334556266e-07  -2.8597968595331826e-07 
 -2.9351266168657961e-07  -3.0124406312205653e-07  -3.0917911697969698e-07  -3.1732318765614180e-07 
 -3.2568178085125841e-07  -3.3426054729019545e-07  -3.4306528654348499e-07  -3.5210195094776382e-07 
 -3.6137664962977582e-07  -3.7089565263636677e-07  -3.8066539517326668e-07  -3.9069248195552639e-07 
 -4.0098369167255054e-07  -4.1154598157073867e-07  -4.2238649215684111e-07  -4.3351255202520475e-07 
 -4.4493168281217020e-07  -4.5665160428097618e-07  -4.6868023954060084e-07  -4.8102572040207473e-07 
 -4.9369639287588222e-07  -5.0670082281416899e-07  -5.2004780170157279e-07  -5.3374635259858439e-07 
 -5.4780573624146858e-07  -5.6223545730285766e-07  -5.7704527081725470e-07  -5.9224518877579116e-07 
 -6.0784548689469641e-07  -6.2385671156205470e-07  -6.4028968696754032e-07  -6.5715552241997042e-07 
 -6.7446561985758324e-07  -6.9223168155617121e-07  -7.1046571804023890e-07  -7.2918005620254063e-07 
 -7.4838734763750945e-07  -7.6810057719418218e-07  -7.8833307175442666e-07  -8.0909850924237986e-07 
 -8.3041092787122184e-07  -8.5228473563349962e-07  -8.7473472004144079e-07  -8.9777605812383694e-07 
 -9.2142432668625405e-07  -9.4569551284149285e-07  -9.7060602481744599e-07  -9.9617270304963578e-07 
 -1.0224128315659317e-06  -1.0493441496711675e-06  -1.0769848639395163e-06  -1.1053536605227770e-06 
 -1.1344697177828563e-06  -1.1643527192570060e-06  -1.1950228669645687e-06  -1.2265008950642466e-06 
 -1.2588080838710922e-06  -1.2919662742427359e-06  -1.3259978823445487e-06  -1.3609259148037292e-06 
 -1.3967739842625630e-06  -1.4335663253413764e-06  -1.4713278110219354e-06  -1.5100839694624318e-06 
 -1.5498610012553627e-06  -1.5906857971400070e-06  -1.6325859561814494e-06  -1.6755898044284737e-06 
 -1.7197264140628841e-06  -1.7650256230532736e-06  -1.8115180553264502e-06  -1.8592351414702050e-06 
 -1.9082091399814088e-06  -1.9584731590738034e-06  -2.0100611790601926e-06  -2.0630080753242367e-06 
 -2.1173496418973082e-06  -2.1731226156563785e-06  -2.2303647011593121e-06  -2.2891145961343117e-06 
 -2.3494120176407933e-06  -2.4112977289193271e-06  -2.4748135669488470e-06  -2.5400024707297173e-06 
 -2.6069085103117925e-06  -2.6755769165870946e-06  -2.7460541118672427e-06  -2.8183877412663227e-06 
 -2.8926267049103427e-06  -2.9688211909951928e-06  -3.0470227097152790e-06  -3.1272841280859117e-06 
 -3.2096597056828964e-06  -3.2942051313235194e-06  -3.3809775607137864e-06  -3.4700356550872093e-06 
 -3.5614396208614215e-06  -3.6552512503393603e-06  -3.7515339634824920e-06  -3.8503528507843909e-06 
 -3.9517747172736303e-06  -4.0558681276756779e-06  -4.1627034527644424e-06  -4.2723529169346372e-06 
 -4.3848906470273149e-06  -4.5003927224413819e-06  -4.6189372265651447e-06  -4.7406042995625269e-06 
 -4.8654761925496755e-06  -4.9936373231986418e-06  -5.1251743328055818e-06  -5.2601761448622811e-06 
 -5.3987340251702872e-06  -5.5409416435385767e-06  -5.6868951371062986e-06  -5.8366931753334827e-06 
 -5.9904370267034995e-06  -6.1482306271825865e-06  -6.3101806504825209e-06  -6.4763965801740113e-06 
 -6.6469907836995952e-06  -6.8220785883359664e-06  -7.0017783591571894e-06  -7.1862115790513883e-06 
 -7.3755029308451680e-06  -7.5697803815910323e-06  -7.7691752690750506e-06  -7.9738223906029603e-06 
 -8.1838600941250305e-06  -8.3994303717609767e-06  -8.6206789557883864e-06  -8.8477554171593648e-06 
 -9.0808132666120940e-06  -9.3200100584456524e-06  -9.5655074970281314e-06  -9.8174715461101536e-06 
 -1.0076072541017714e-05  -1.0341485303799874e-05  -1.0613889261409712e-05  -1.0893468566997686e-05 
 -1.1180412224400151e-05  -1.1474914215906402e-05  -1.1777173633391366e-05  -1.2087394812901923e-05 
 -1.2405787472788224e-05  -1.2732566855473244e-05  -1.3067953872956298e-05  -1.3412175256149113e-05 
 -1.3765463708145098e-05  -1.4128058061525469e-05  -1.4500203439808921e-05  -1.4882151423153234e-05 
 -1.5274160218421565e-05  -1.5676494833727901e-05  -1.6089427257579690e-05  -1.6513236642738837e-05 
 -1.6948209494925535e-05  -1.7394639866491701e-05  -1.7852829555195971e-05  -1.8323088308213566e-05 
 -1.8805734031519717e-05  -1.9301093004787676e-05  -1.9809500101946664e-05  -2.0331299017548876e-05 
 -2.0866842499098274e-05  -2.1416492585498727e-05  -2.1980620851782050e-05  -2.2559608660281436e-05 
 -2.3153847418420222e-05  -2.3763738843290401e-05  -2.4389695233198813e-05  -2.5032139746365460e-05 
 -2.5691506686961795e-05  -2.6368241798682065e-05  -2.7062802566046975e-05  -2.7775658523641908e-05 
 -2.8507291573500167e-05  -2.9258196310843991e-05  -3.0028880358405378e-05  -3.0819864709551031e-05 
 -3.1631684080443844e-05  -3.2464887271479046e-05  -3.3320037538238901e-05  -3.4197712972216915e-05 
 -3.5098506891568252e-05  -3.6023028242150945e-05  -3.6971902009128545e-05  -3.7945769639412202e-05 
 -3.8945289475227752e-05  -3.9971137199100958e-05  -4.1024006290560492e-05  -4.2104608494868502e-05 
 -4.3213674304094869e-05  -4.4351953450859615e-05  -4.5520215415077660e-05  -4.6719249944047912e-05 
 -4.7949867586238533e-05  -4.9212900239127732e-05  -5.0509201711471338e-05  -5.1839648300376608e-05 
 -5.3205139383571406e-05  -5.4606598027269637e-05  -5.6044971610042822e-05  -5.7521232463119785e-05 
 -5.9036378527545783e-05  -6.0591434028646766e-05  -6.2187450168251694e-05  -6.3825505835142781e-05 
 -6.5506708334211902e-05  -6.7232194134816102e-05  -6.9003129638837280e-05  -7.0820711968964717e-05 
 -7.2686169777733459e-05  -7.4600764077862406e-05  -7.6565789094456304e-05  -7.8582573139643832e-05 
 -8.0652479510243347e-05  -8.2776907409063004e-05  -8.4957292890456090e-05  -8.7195109830770490e-05 
 -8.9491870924346436e-05  -9.1849128705736858e-05  -9.4268476598836391e-05  -9.6751549993632772e-05 
 -9.9300027351301265e-05  -1.0191563133839214e-04  -1.0460012999087465e-04  -1.0735533790882319e-04 
 -1.1018311748255287e-04  -1.1308538015102984e-04  -1.1606408769340730e-04  -1.1912125355455643e-04 
 -1.2225894420548919e-04  -1.2547928053958826e-04  -1.2878443930558624e-04  -1.3217665457826300e-04 
 -1.3565821926784816e-04  -1.3923148666915389e-04  -1.4289887205147495e-04  -1.4666285429033282e-04 
 -1.5052597754216352e-04  -1.5449085296307725e-04  -1.5856016047284898e-04  -1.6273665056532917e-04 
 -1.6702314616649452e-04  -1.7142254454139230e-04  -1.7593781925126289e-04  -1.8057202216215806e-04 
 -1.8532828550641063e-04  -1.9020982399834394e-04  -1.9521993700564560e-04  -2.0036201077786776e-04 
 -2.0563952073355965e-04  -2.1105603380756717e-04  -2.1661521086008211e-04  -2.2232080914906505e-04 
 -2.2817668486770673e-04  -2.3418679574863240e-04  -2.4035520373660694e-04  -2.4668607773153917e-04 
 -2.5318369640362680e-04  -2.5985245108254347e-04  -2.6669684872260714e-04  -2.7372151494592785e-04 
 -2.8093119716557699e-04  -2.8833076779088566e-04  -2.9592522751702567e-04  -3.0371970870107860e-04 
 -3.1171947882687622e-04  -3.1992994406092405e-04  -3.2835665290181998e-04  -3.3700529992559838e-04 
 -3.4588172962953006e-04  -3.5499194037696123e-04  -3.6434208844582930e-04  -3.7393849218358955e-04 
 -3.8378763627133365e-04  -3.9389617609996260e-04  -4.0427094226135681e-04  -4.1491894515755532e-04 
 -4.2584737973103452e-04  -4.3706363031926365e-04  -4.4857527563679035e-04  -4.6039009388819830e-04 
 -4.7251606801536713e-04  -4.8496139108254537e-04  -4.9773447180285688e-04  -5.1084394020992757e-04 
 -5.2429865347845155e-04  -5.3810770189757263e-04  -5.5228041500109744e-04  -5.6682636785863969e-04 
 -5.8175538753189502e-04  -5.9707755970038186e-04  -6.1280323546106827e-04  -6.2894303830643373e-04 
 -6.4550787128563026e-04  -6.6250892435353211e-04  -6.7995768191257667e-04  -6.9786593055243371e-04 
 -7.1624576699268021e-04  -7.3510960623376248e-04  -7.5447018992170350e-04  -7.7434059493211604e-04 
 -7.9473424217926260e-04  -8.1566490565600583e-04  -8.3714672171070800e-04  -8.5919419856722286e-04 
 -8.8182222609432999e-04  -9.0504608583112124e-04  -9.2888146127498706e-04  -9.5334444843905798e-04 
 -9.7845156668610795e-04  -1.0042197698461180e-03  -1.0306664576248761e-03  -1.0578094873111980e-03 
 -1.0856671857905067e-03  -1.1142583618727589e-03  -1.1436023189428689e-03  -1.1737188679420269e-03 
 -1.2046283406884641e-03  -1.2363516035465260e-03  -1.2689100714530447e-03  -1.3023257223102904e-03 
 -1.3366211117550406e-03  -1.3718193883134266e-03  -1.4079443089516511e-03  -1.4450202550327338e-03 
 -1.4830722486898638e-03  -1.5221259696270744e-03  -1.5622077723583326e-03  -1.6033447038963416e-03 
 -1.6455645219026495e-03  -1.6888957133110592e-03  -1.7333675134364266e-03  -1.7790099255814457e-03 
 -1.8258537411542217e-03  -1.8739305603097788e-03  -1.9232728131290046e-03  -1.9739137813488353e-03 
 -2.0258876206578512e-03  -2.0792293835717956e-03  -2.1339750429039440e-03  -2.1901615158455090e-03 
 -2.2478266886717686e-03  -2.3070094420899329e-03  -2.3677496772451408e-03  -2.4300883424014583e-03 
 -2.4940674603150807e-03  -2.5597301563174508e-03  -2.6271206871263364e-03  -2.6962844704034959e-03 
 -2.7672681150778863e-03  -2.8401194524538685e-03  -2.9148875681244300e-03  -2.9916228347097612e-03 
 -3.0703769454422099e-03  -3.1512029486189803e-03  -3.2341552829445739e-03  -3.3192898137854284e-03 
 -3.4066638703598778e-03  -3.4963362838868212e-03  -3.5883674267174885e-03  -3.6828192524748422e-03 
 -3.7797553372260185e-03  -3.8792409217137248e-03  -3.9813429546730400e-03  -4.0861301372609382e-03 
 -4.1936729686260915e-03  -4.3040437926476997e-03  -4.4173168458721233e-03  -4.5335683066773979e-03 
 -4.6528763456959270e-03  -4.7753211775266226e-03  -4.9009851137683282e-03  -5.0299526174072563e-03 
 -5.1623103585916440e-03  -5.2981472718279703e-03  -5.4375546146334611e-03  -5.5806260276806277e-03 
 -5.7274575964703419e-03  -5.8781479145707397e-03  -6.0327981484599932e-03  -6.1915121040120166e-03 
 -6.3543962946648542e-03  -6.5215600113124267e-03  -6.6931153939611210e-03  -6.8691775051938153e-03 
 -7.0498644054845291e-03  -7.2352972304080181e-03  -7.4256002697894495e-03  -7.6209010488403686e-03 
 -7.8213304113278950e-03  -8.0270226048252888e-03  -8.2381153680928468e-03  -8.4547500206390066e-03 
 -8.6770715545128902e-03  -8.9052287283799825e-03  -9.1393741639340265e-03  -9.3796644446991900e-03 
 -9.6262602172774523e-03  -9.8793262950971870e-03  -1.0139031764720308e-02  -1.0405550094765523e-02 
 -1.0679059247507538e-02  -1.0959741793211830e-02  -1.1247785027266557e-02  -1.1543381090173650e-02 
 -1.1846727090462573e-02  -1.2158025230590896e-02  -1.2477482935897266e-02  -1.2805312986672807e-02 
 -1.3141733653418737e-02  -1.3486968835358097e-02  -1.3841248202271570e-02  -1.4204807339726759e-02 
 -1.4577887897773202e-02  -1.4960737743174496e-02  -1.5353611115250970e-02  -1.5756768785406570e-02 
 -1.6170478220414928e-02  -1.6595013749539960e-02  -1.7030656735567182e-02  -1.7477695749822948e-02 
 -1.7936426751259088e-02  -1.8407153269680929e-02  -1.8890186593197848e-02  -1.9385845959975494e-02 
 -1.9894458754368585e-02  -2.0416360707515693e-02  -2.0951896102474350e-02  -2.1501417983978130e-02 
 -2.2065288372895897e-02  -2.2643878485472571e-02  -2.3237568957432651e-02  -2.3846750073025721e-02 
 -2.4471821999093282e-02  -2.5113195024235820e-02  -2.5771289803158494e-02  -2.6446537606271719e-02 
 -2.7139380574623503e-02  -2.7850271980238334e-02  -2.8579676491935487e-02  -2.9328070446698249e-02 
 -3.0095942126665172e-02  -3.0883792041808685e-02  -3.1692133218368307e-02  -3.2521491493099818e-02 
 -3.3372405813399800e-02  -3.4245428543361614e-02  -3.5141125775816177e-02  -3.6060077650404553e-02 
 -3.7002878677726780e-02  -3.7970138069607112e-02  -3.8962480075507649e-02  -3.9980544325120680e-02 
 -4.1024986177159765e-02  -4.2096477074366374e-02  -4.3195704904738862e-02  -4.4323374368985410e-02 
 -4.5480207354191476e-02  -4.6666943313684157e-02  -4.7884339653067994e-02  -4.9133172122392571e-02 
 -5.0414235214404475e-02  -5.1728342568821667e-02  -5.3076327382557097e-02  -5.4459042825801905e-02 
 -5.5877362463869061e-02  -5.7332180684675049e-02  -5.8824413131726899e-02  -6.0354997142460814e-02 
 -6.1924892191758084e-02  -6.3535080340449079e-02  -6.5186566688586717e-02  -6.6880379833254955e-02 
 -6.8617572330646831e-02  -7.0399221162127976e-02  -7.2226428203965298e-02  -7.4100320700378461e-02 
 -7.6022051739536300e-02  -7.7992800732089959e-02  -8.0013773891796716e-02  -8.2086204717755379e-02 
 -8.4211354477732370e-02  -8.6390512692013713e-02  -8.8624997617184495e-02  -9.0916156729177106e-02 
 -9.3265367204893146e-02  -9.5674036401645346e-02  -9.8143602333614716e-02  -1.0067553414445991e-01 
 -1.0327133257515626e-01  -1.0593253042608006e-01  -1.0866069301228043e-01  -1.1145741861082309e-01 
 -1.1432433889900395e-01  -1.1726311938216194e-01  -1.2027545980973417e-01  -1.2336309457811570e-01 
 -1.2652779311879073e-01  -1.2977136027011671e-01  -1.3309563663103538e-01  -1.3650249889488783e-01 
 -1.3999386016140650e-01  -1.4357167022483089e-01  -1.4723791583599538e-01  -1.5099462093609858e-01 
 -1.5484384685974537e-01  -1.5878769250471619e-01  -1.6282829446578109e-01  -1.6696782712972802e-01 
 -1.7120850272862842e-01  -1.7555257134821015e-01  -1.8000232088803608e-01  -1.8456007697002980e-01 
 -1.8922820279170810e-01  -1.9400909892031196e-01  -1.9890520302382511e-01  -2.0391898953469498e-01 
 -2.0905296924186623e-01  -2.1430968880653153e-01  -2.1969173019680910e-01  -2.2520171003632539e-01 
 -2.3084227886148162e-01  -2.3661612028194812e-01  -2.4252595003870869e-01  -2.4857451495374969e-01 
 -2.5476459176524990e-01  -2.6109898584189567e-01  -2.6758052976970625e-01  -2.7421208180451839e-01 
 -2.8099652418304266e-01  -2.8793676128515927e-01  -2.9503571763989583e-01  -3.0229633576729981e-01 
 -3.0972157384817878e-01  -3.1731440321348459e-01  -3.2507780564489086e-01  -3.3301477047791839e-01 
 -3.4112829149879459e-01  -3.4942136362602477e-01  -3.5789697936755022e-01  -3.6655812504419694e-01 
 -3.7540777677002835e-01  -3.8444889618015260e-01  -3.9368442589645314e-01  -4.0311728472172947e-01 
 -4.1275036255275721e-01  -4.2258651500283873e-01  -4.3262855772455083e-01  -4.4287926042356468e-01 
 -4.5334134055466041e-01  -4.6401745669135275e-01  -4.7491020156092273e-01  -4.8602209473712449e-01 
 -4.9735557498334315e-01  -5.0891299223965081e-01  -5.2069659924793055e-01  -5.3270854281007585e-01 
 -5.4495085467526072e-01  -5.5742544205333333e-01  -5.7013407775264902e-01  -5.8307838994198702e-01 
 -5.9625985153772776e-01  -6.0967976921917277e-01  -6.2333927207668516e-01  -6.3723929989939632e-01 
 -6.5138059111142166e-01  -6.6576367036793049e-01  -6.8038883582501120e-01  -6.9525614610011410e-01 
 -7.1036540694284023e-01  -7.2571615763911623e-01  -7.4130765717522884e-01  -7.5713887019190640e-01 
 -7.7320845276249350e-01  -7.8951473803343630e-01  -8.0605572176958129e-01  -8.2282904785133959e-01 
 -8.3983199377555640e-01  -8.5706145621672425e-01  -8.7451393671037858e-01  -8.9218552752562152e-01 
 -9.1007189779912556e-01  -9.2816828000830487e-01  -9.4646945686684480e-01  -9.6496974873116326e-01 
 -9.8366300161184117e-01  -1.0025425758892388e+00  -1.0216013358377203e+00  -1.0408316400676838e+00 
 -1.0602253329991709e+00  -1.0797737374849221e+00  -1.0994676487043353e+00  -1.1192973294528195e+00 
 -1.1392525069531974e+00  -1.1593223713173095e+00  -1.1794955757863532e+00  -1.1997602388777273e+00 
 -1.2201039485643299e+00  -1.2405137686087206e+00  -1.2609762471697463e+00  -1.2814774277924399e+00 
 -1.3020028628835247e+00  -1.3225376297641611e+00  -1.3430663493787975e+00  -1.3635732077237170e+00 
 -1.3840419800412471e+00  -1.4044560578051177e+00  -1.4247984784994125e+00  -1.4450519581674885e+00 
 -1.4651989266782965e+00  -1.4852215656255729e+00  -1.5051018487404320e+00  -1.5248215846598876e+00 
 -1.5443624618531084e+00  -1.5637060954634743e+00  -1.5828340757784833e+00  -1.6017280179910069e+00 
 -1.6203696128650600e+00  -1.6387406778673437e+00  -1.6568232082729597e+00  -1.6745994277004446e+00 
 -1.6920518374786311e+00  -1.7091632641961303e+00  -1.7259169047352128e+00  -1.7422963680458972e+00 
 -1.7582857128749585e+00  -1.7738694806293447e+00  -1.7890327225261147e+00  -1.8037610201624923e+00 
 -1.8180404986323879e+00  -1.8318578313214511e+00  -1.8452002355330117e+00  -1.8580554581348989e+00 
 -1.8704117504735835e+00  -1.8822578318797194e+00  -1.8935828411904190e+00  -1.9043762758396183e+00 
 -1.9146279182213510e+00  -1.9243277492131032e+00  -1.9334658489583791e+00  -1.9420322852510070e+00 
 -1.9500169901383564e+00  -1.9574096256662188e+00  -1.9641994400244280e+00  -1.9703751157161120e+00 
 -1.9759246117636253e+00  -1.9808350023746986e+00  -1.9850923149192963e+00  -1.9886813705032680e+00 
 -1.9915856308605111e+00  -1.9937870557115620e+00  -1.9952659751399635e+00  -1.9960009819055555e+00 
 -1.9959688489294223e+00  -1.9951444774313420e+00  -1.9935008813576958e+00  -1.9910092137855790e+00 
 -1.9876388652628942e+00  -1.9833574932913201e+00  -1.9781313529882509e+00  -1.9719254473205314e+00 
 -1.9647038639764411e+00  -1.9564301564634337e+00  -1.9470677942957244e+00  -1.9365806826455589e+00 
 -1.9249337480102207e+00  -1.9120935870923645e+00  -1.8980291709429435e+00  -1.8827125962953914e+00 
 -1.8661198719901035e+00  -1.8482317261011874e+00  -1.8290344167247801e+00  -1.8085205266485762e+00 
 -1.7866897192337365e+00  -1.7635494315133902e+00  -1.7391154775644120e+00  -1.7134125351951863e+00 
 -1.6864744873316946e+00  -1.6583445909709029e+00  -1.6290754471759830e+00  -1.5987287483965615e+00 
 -1.5673747836680212e+00  -1.5350916867699891e+00  -1.5019644197236710e+00  -1.4680834918575616e+00 
 -1.4335434241109877e+00  -1.3984409792491557e+00  -1.3628731899665989e+00  -1.3269352300362429e+00 
 -1.2907181857541470e+00  -1.2543067981083271e+00  -1.2177772577174417e+00  -1.1811951451137870e+00 
 -1.1446136167262833e+00  -1.1080719426344601e+00  -1.0715945023243789e+00  -1.0351903417584669e+00 
 -9.9885338514598132e-01  -9.6256337936618497e-01  -9.2628762672464304e-01  -8.8998353210299141e-01 
 -8.5360195463604172e-01  -8.1709131201166207e-01  -7.8040233776215173e-01  -7.4349334191563787e-01 
 -7.0633577347625109e-01  -6.6891983424630708e-01  -6.3125984883623465e-01  -5.9339906196218839e-01 
 -5.5541351222015201e-01  -5.1741462885242018e-01  -4.7955021539731973e-01  -4.4200352683781041e-01 
 -4.0499021488307541e-01  -3.6875301186229792e-01  -3.3355414249858317e-01  -2.9966559454848968e-01 
 -2.6735753468969869e-01  -2.3688531767863882e-01  -2.0847569516599407e-01  -1.8231297125247073e-01 
 -1.5852596433043778e-01  -1.3717670324550685e-01  -1.1825180101637002e-01  -1.0165739794877376e-01 
 -8.7218444592987263e-02  -7.4682897905243351e-02  -6.3731136674481201e-02  -5.3990572754367638e-02 
 -4.5055058414389934e-02  -3.6508291361674217e-02  -2.7950024677712553e-02  -1.9023534630042988e-02 
 -9.4425200940858323e-03  9.8455988062667843e-04  1.2334728973214177e-02  2.4557196683525871e-02 
 3.7468092508797540e-02  5.0754334490184828e-02  6.3987141882649382e-02  7.6645032580484815e-02 
 8.8145464467030213e-02  9.7883653886658040e-02  1.0527658835621093e-01  1.0980988006169499e-01 
 1.1108487819556795e-01  1.0886333671347889e-01  1.0310685083460455e-01  9.4008158711867462e-02 
 8.2011202873421757e-02  6.7816576008127821e-02  5.2368742340665998e-02  3.6821502707259930e-02 
 2.2478489438168853e-02  1.0709213530173903e-02  2.8301361197078834e-03  3.2080113577223743e-06 
 3.2245271939453909e-06  -6.8017304358980599e-07  1.0411237752662846e-07  -1.4057921229012532e-08 
 1.8166094828964610e-09  -6.4006664803878776e-10  4.1891323441257044e-09  -4.0732141937674478e-08 
 3.9850486417876942e-07  -3.9798116639836486e-08  3.9758303047165119e-09  -3.9760710716227433e-10 
 4.0061810455187371e-11  -4.5763714925418119e-12  2.5507438881588683e-12  -2.1429405907967071e-11 
 2.1655509282614274e-10  -2.1114724162453945e-09  2.0500249751326097e-08  -1.9901605778654406e-07 
 1.9716373945939948e-08  -1.9535914797527975e-09  1.9364153504289924e-10  -1.9178155108930481e-11 
 1.9568349888801556e-12  -5.2023030827743550e-13  -9.6513894367631853e-14  -1.1389757090185506e-13 
 -2.0837514046048884e-13  -4.1625047823476384e-14  -2.7879818080194825e-13  9.8469834102581314e-14 
 5.1589478202825949e-13  -1.6141407600366755e-13  4.1958998770455300e-13  -5.2681590593650969e-13 
 5.4105599806353205e-13  -3.4489046847088468e-13  1.5275277750607992e-13  -8.3734372883782602e-14 
 1.7179297217253397e-13  -1.6292519060109248e-13  1.9194980316706776e-13  -2.6317748830151445e-13 
 1.7790843316793210e-13  -3.5174922073729566e-15  4.2671726808092641e-14  2.4142933420696483e-14 
 7.0693837294046246e-14  -9.6225625738422814e-14  0.0000000000000000e+00  0.0000000000000000e+00 
 0.0000000000000000e+00  0.0000000000000000e+00  0.0000000000000000e+00  0.0000000000000000e+00 
 0.0000000000000000e+00  0.0000000000000000e+00  0.0000000000000000e+00  0.0000000000000000e+00 
 0.0000000000000000e+00  0.0000000000000000e+00  0.0000000000000000e+00  0.0000000000000000e+00 
 0.0000000000000000e+00  0.0000000000000000e+00  0.0000000000000000e+00  0.0000000000000000e+00 
 0.0000000000000000e+00  0.0000000000000000e+00  0.0000000000000000e+00  0.0000000000000000e+00 
 0.0000000000000000e+00  0.0000000000000000e+00  0.0000000000000000e+00  0.0000000000000000e+00 
 0.0000000000000000e+00  0.0000000000000000e+00  0.0000000000000000e+00  0.0000000000000000e+00 
 0.0000000000000000e+00  0.0000000000000000e+00  0.0000000000000000e+00  0.0000000000000000e+00 
 0.0000000000000000e+00  0.0000000000000000e+00  0.0000000000000000e+00  0.0000000000000000e+00 
 0.0000000000000000e+00  0.0000000000000000e+00  0.0000000000000000e+00  0.0000000000000000e+00 
 0.0000000000000000e+00  0.0000000000000000e+00  0.0000000000000000e+00  0.0000000000000000e+00 
 0.0000000000000000e+00  0.0000000000000000e+00  0.0000000000000000e+00  0.0000000000000000e+00 
 0.0000000000000000e+00  0.0000000000000000e+00  0.0000000000000000e+00  0.0000000000000000e+00 
 0.0000000000000000e+00  0.0000000000000000e+00  0.0000000000000000e+00  0.0000000000000000e+00 
 0.0000000000000000e+00  0.0000000000000000e+00  0.0000000000000000e+00  0.0000000000000000e+00 
 0.0000000000000000e+00  0.0000000000000000e+00  0.0000000000000000e+00  0.0000000000000000e+00 
 0.0000000000000000e+00  0.0000000000000000e+00  0.0000000000000000e+00  0.0000000000000000e+00 
 0.0000000000000000e+00  0.0000000000000000e+00  0.0000000000000000e+00  0.0000000000000000e+00 
 0.0000000000000000e+00  0.0000000000000000e+00  0.0000000000000000e+00  0.0000000000000000e+00 
 0.0000000000000000e+00  0.0000000000000000e+00  0.0000000000000000e+00  0.0000000000000000e+00 
 0.0000000000000000e+00  0.0000000000000000e+00  0.0000000000000000e+00  0.0000000000000000e+00 
 0.0000000000000000e+00  0.0000000000000000e+00  0.0000000000000000e+00  0.0000000000000000e+00 
 0.0000000000000000e+00  0.0000000000000000e+00  0.0000000000000000e+00  0.0000000000000000e+00 
 0.0000000000000000e+00  0.0000000000000000e+00  0.0000000000000000e+00  0.0000000000000000e+00 
 0.0000000000000000e+00  0.0000000000000000e+00  0.0000000000000000e+00  0.0000000000000000e+00 
 0.0000000000000000e+00  0.0000000000000000e+00  0.0000000000000000e+00  0.0000000000000000e+00 
 0.0000000000000000e+00  0.0000000000000000e+00  0.0000000000000000e+00  0.0000000000000000e+00 
 0.0000000000000000e+00  0.0000000000000000e+00  0.0000000000000000e+00  0.0000000000000000e+00 
 0.0000000000000000e+00  0.0000000000000000e+00  0.0000000000000000e+00  0.0000000000000000e+00 
 0.0000000000000000e+00  0.0000000000000000e+00  0.0000000000000000e+00  0.0000000000000000e+00 
 0.0000000000000000e+00  0.0000000000000000e+00  0.0000000000000000e+00  0.0000000000000000e+00 
 0.0000000000000000e+00  0.0000000000000000e+00  0.0000000000000000e+00  0.0000000000000000e+00 
 0.0000000000000000e+00  0.0000000000000000e+00  0.0000000000000000e+00  0.0000000000000000e+00 
 0.0000000000000000e+00  0.0000000000000000e+00  0.0000000000000000e+00  0.0000000000000000e+00 
 0.0000000000000000e+00  0.0000000000000000e+00  0.0000000000000000e+00  0.0000000000000000e+00 
 0.0000000000000000e+00  0.0000000000000000e+00  0.0000000000000000e+00  0.0000000000000000e+00 
 0.0000000000000000e+00  0.0000000000000000e+00  0.0000000000000000e+00  0.0000000000000000e+00 
 0.0000000000000000e+00  0.0000000000000000e+00  0.0000000000000000e+00  0.0000000000000000e+00 
 0.0000000000000000e+00  0.0000000000000000e+00  0.0000000000000000e+00  0.0000000000000000e+00 
 0.0000000000000000e+00  0.0000000000000000e+00  0.0000000000000000e+00  0.0000000000000000e+00 
 0.0000000000000000e+00  0.0000000000000000e+00  0.0000000000000000e+00  0.0000000000000000e+00 
 0.0000000000000000e+00  0.0000000000000000e+00  0.0000000000000000e+00  0.0000000000000000e+00 
 0.0000000000000000e+00  0.0000000000000000e+00  0.0000000000000000e+00  0.0000000000000000e+00 
 0.0000000000000000e+00  0.0000000000000000e+00  0.0000000000000000e+00  0.0000000000000000e+00 
 0.0000000000000000e+00  0.0000000000000000e+00  0.0000000000000000e+00  0.0000000000000000e+00 
 0.0000000000000000e+00  0.0000000000000000e+00  -0.0000000000000000e+00  -0.0000000000000000e+00 
 -0.0000000000000000e+00  -0.0000000000000000e+00  -0.0000000000000000e+00  -0.0000000000000000e+00 
 -0.0000000000000000e+00  -0.0000000000000000e+00  -0.0000000000000000e+00  -0.0000000000000000e+00 
 -0.0000000000000000e+00  -0.0000000000000000e+00  -0.0000000000000000e+00  -0.0000000000000000e+00 
 -0.0000000000000000e+00  -0.0000000000000000e+00  -0.0000000000000000e+00  -0.0000000000000000e+00 
 -0.0000000000000000e+00  -0.0000000000000000e+00  -0.0000000000000000e+00  -0.0000000000000000e+00 
 -0.0000000000000000e+00  -0.0000000000000000e+00  -0.0000000000000000e+00  -0.0000000000000000e+00 
 -0.0000000000000000e+00  -0.0000000000000000e+00  -0.0000000000000000e+00  -0.0000000000000000e+00 
 -0.0000000000000000e+00  -0.0000000000000000e+00  -0.0000000000000000e+00  -0.0000000000000000e+00 
 -0.0000000000000000e+00  -0.0000000000000000e+00  -0.0000000000000000e+00  -0.0000000000000000e+00 
 -0.0000000000000000e+00  -0.0000000000000000e+00  -0.0000000000000000e+00  -0.0000000000000000e+00 
 -0.0000000000000000e+00  -0.0000000000000000e+00  -0.0000000000000000e+00  -0.0000000000000000e+00 
 -0.0000000000000000e+00  -0.0000000000000000e+00  -0.0000000000000000e+00  -0.0000000000000000e+00 
 -0.0000000000000000e+00  -0.0000000000000000e+00  -0.0000000000000000e+00  -0.0000000000000000e+00 
 -0.0000000000000000e+00  -0.0000000000000000e+00  -0.0000000000000000e+00  -0.0000000000000000e+00 
 -0.0000000000000000e+00  -0.0000000000000000e+00  -0.0000000000000000e+00  -0.0000000000000000e+00 
 -0.0000000000000000e+00  -0.0000000000000000e+00  -0.0000000000000000e+00  -0.0000000000000000e+00 
 -0.0000000000000000e+00  -0.0000000000000000e+00  -0.0000000000000000e+00  -0.0000000000000000e+00 
 -0.0000000000000000e+00  -0.0000000000000000e+00  -0.0000000000000000e+00  -0.0000000000000000e+00 
 -0.0000000000000000e+00  -0.0000000000000000e+00  -0.0000000000000000e+00  -0.0000000000000000e+00 
 -0.0000000000000000e+00  -0.0000000000000000e+00  -0.0000000000000000e+00  -0.0000000000000000e+00 
 -0.0000000000000000e+00  -0.0000000000000000e+00  -0.0000000000000000e+00  -0.0000000000000000e+00 
 -0.0000000000000000e+00  -0.0000000000000000e+00  -0.0000000000000000e+00  -0.0000000000000000e+00 
 -0.0000000000000000e+00  -0.0000000000000000e+00  -0.0000000000000000e+00  -0.0000000000000000e+00 
 -0.0000000000000000e+00 
  </PP_BETA>
  <PP_DIJ>
 1   Number of nonzero Dij
 1 1 -3.7883401613292014e+00 
  </PP_DIJ>
</PP_NONLOCAL>
<PP_PSWFC>
S    0   2.00          Wavefunction
 9.0632611026788925e-06  9.1818526744034157e-06  9.3019960012073565e-06  9.4237113876038125e-06 
 9.5470194037879012e-06  9.6719408891131552e-06  9.7984969556134572e-06  9.9267089915710148e-06 
 1.0056598665131049e-05  1.0188187927963738e-05  1.0321499018974183e-05  1.0456554468060784e-05 
 1.0593377099922855e-05  1.0731990037918107e-05  1.0872416707970535e-05  1.1014680842529461e-05 
 1.1158806484580401e-05  1.1304817991708399e-05  1.1452740040214487e-05  1.1602597629286148e-05 
 1.1754416085222142e-05  1.1908221065712809e-05  1.2064038564176227e-05  1.2221894914151251e-05 
 1.2381816793747901e-05  1.2543831230156060e-05  1.2707965604213147e-05  1.2874247655031608e-05 
 1.3042705484686833e-05  1.3213367562966536e-05  1.3386262732182258e-05  1.3561420212043761e-05 
 1.3738869604597293e-05  1.3918640899228382e-05  1.4100764477730198e-05  1.4285271119438118e-05 
 1.4472192006431557e-05  1.4661558728803847e-05  1.4853403290001014e-05  1.5047758112230599e-05 
 1.5244656041940951e-05  1.5444130355372469e-05  1.5646214764181454e-05  1.5850943421137373e-05 
 1.6058350925894874e-05  1.6268472330841242e-05  1.6481343147020344e-05  1.6696999350134134e-05 
 1.6915477386622674e-05  1.7136814179823756e-05  1.7361047136212978e-05  1.7588214151725672e-05 
 1.7818353618161406e-05  1.8051504429672329e-05  1.8287705989336513e-05  1.8526998215817095e-05 
 1.8769421550108771e-05  1.9015016962372476e-05  1.9263825958859438e-05  1.9515890588925972e-05 
 1.9771253452139946e-05  2.0029957705480310e-05  2.0292047070630700e-05  2.0557565841368766e-05 
 2.0826558891051803e-05  2.1099071680200715e-05  2.1375150264182866e-05  2.1654841300995777e-05 
 2.1938192059152449e-05  2.2225250425669955e-05  2.2516064914162606e-05  2.2810684673040919e-05 
 2.3109159493817915e-05  2.3411539819524191e-05  2.3717876753232935e-05  2.4028222066696636e-05 
 2.4342628209096740e-05  2.4661148315907824e-05  2.4983836217877763e-05  2.5310746450125354e-05 
 2.5641934261357073e-05  2.5977455623204362e-05  2.6317367239683158e-05  2.6661726556777071e-05 
 2.7010591772146226e-05  2.7364021844962821e-05  2.7722076505875646e-05  2.8084816267104853e-05 
 2.8452302432668909e-05  2.8824597108745268e-05  2.9201763214166745e-05  2.9583864491055033e-05 
 2.9970965515593735e-05  3.0363131708941954e-05  3.0760429348290885e-05  3.1162925578065137e-05 
 3.1570688421270603e-05  3.1983786790990664e-05  3.2402290502033079e-05  3.2826270282729094e-05 
 3.3255797786887041e-05  3.3690945605902321e-05  3.4131787281025849e-05  3.4578397315793133e-05 
 3.5030851188615755e-05  3.5489225365538031e-05  3.5953597313160040e-05  3.6424045511730414e-05 
 3.6900649468409888e-05  3.7383489730708715e-05  3.7872647900099909e-05  3.8368206645810390e-05 
 3.8870249718793101e-05  3.9378861965881302e-05  3.9894129344128786e-05  4.0416138935336936e-05 
 4.0944978960772865e-05  4.1480738796079207e-05  4.2023508986379737e-05  4.2573381261582195e-05 
 4.3130448551881689e-05  4.3694805003466656e-05  4.4266545994430792e-05  4.4845768150892654e-05 
 4.5432569363326805e-05  4.6027048803108186e-05  4.6629306939273189e-05  4.7239445555500189e-05 
 4.7857567767312094e-05  4.8483778039504070e-05  4.9118182203799391e-05  4.9760887476736344e-05 
 5.0412002477789151e-05  5.1071637247725989e-05  5.1739903267207593e-05  5.2416913475628575e-05 
 5.3102782290206085e-05  5.3797625625317760e-05  5.4501560912093173e-05  5.5214707118261023e-05 
 5.5937184768256694e-05  5.6669115963592850e-05  5.7410624403496167e-05  5.8161835405814988e-05 
 5.8922875928199523e-05  5.9693874589560325e-05  6.0474961691806814e-05  6.1266269241870436e-05 
 6.2067930974016953e-05  6.2880082372448930e-05  6.3702860694205910e-05  6.4536404992363193e-05 
 6.5380856139534471e-05  6.6236356851682434e-05  6.7103051712240336e-05  6.7981087196550014e-05 
 6.8870611696618891e-05  6.9771775546202013e-05  7.0684731046211660e-05  7.1609632490459609e-05 
 7.2546636191736559e-05  7.3495900508232571e-05  7.4457585870303940e-05  7.5431854807589733e-05 
 7.6418871976483422e-05  7.7418804187964426e-05  7.8431820435793693e-05  7.9458091925078075e-05 
 8.0497792101209329e-05  8.1551096679181078e-05  8.2618183673290269e-05  8.3699233427226603e-05 
 8.4794428644556700e-05  8.5903954419606871e-05  8.7027998268749787e-05  8.8166750162101487e-05 
 8.9320402555632768e-05  9.0489150423701036e-05  9.1673191292008304e-05  9.2872725270989927e-05 
 9.4087955089641173e-05  9.5319086129786679e-05  9.6566326460797574e-05  9.7829886874764262e-05 
 9.9109980922128832e-05  1.0040682494778477e-04  1.0172063812764798e-04  1.0305164250570856e-04 
 1.0440006303156548e-04  1.0576612759845442e-04  1.0715006708177272e-04  1.0855211537810890e-04 
 1.0997250944478286e-04  1.1141148933990484e-04  1.1286929826295731e-04  1.1434618259590992e-04 
 1.1584239194487122e-04  1.1735817918228741e-04  1.1889380048969215e-04  1.2044951540101761e-04 
 1.2202558684647114e-04  1.2362228119698770e-04  1.2523986830926447e-04  1.2687862157138421e-04 
 1.2853881794903723e-04  1.3022073803234808e-04  1.3192466608331538e-04  1.3365089008387420e-04 
 1.3539970178458595e-04  1.3717139675396806e-04  1.3896627442846793e-04  1.4078463816309360e-04 
 1.4262679528270539e-04  1.4449305713398050e-04  1.4638373913805942e-04  1.4829916084387968e-04 
 1.5023964598220995e-04  1.5220552252039228e-04  1.5419712271779978e-04  1.5621478318202282e-04 
 1.5825884492579072e-04  1.6032965342463836e-04  1.6242755867533002e-04  1.6455291525504777e-04 
 1.6670608238135548e-04  1.6888742397294941e-04  1.7109730871120332e-04  1.7333611010252308e-04 
 1.7560420654151506e-04  1.7790198137498502e-04  1.8022982296677457e-04  1.8258812476344878e-04 
 1.8497728536084269e-04  1.8739770857148277e-04  1.8984980349289046e-04  1.9233398457678194e-04 
 1.9485067169917555e-04  1.9740029023141670e-04  1.9998327111213750e-04  2.0260005092015597e-04 
 2.0525107194833454e-04  2.0793678227840558e-04  2.1065763585677809e-04  2.1341409257134066e-04 
 2.1620661832926925e-04  2.1903568513585806e-04  2.2190177117438259e-04  2.2480536088701232e-04 
 2.2774694505678391e-04  2.3072702089065004e-04  2.3374609210361877e-04  2.3680466900399745e-04 
 2.3990326857975297e-04  2.4304241458600944e-04  2.4622263763369209e-04  2.4944447527933388e-04 
 2.5270847211606373e-04  2.5601517986578926e-04  2.5936515747258793e-04  2.6275897119732621e-04 
 2.6619719471352137e-04  2.6968040920446280e-04  2.7320920346160808e-04  2.7678417398427363e-04 
 2.8040592508063309e-04  2.8407506897004426e-04  2.8779222588672169e-04  2.9155802418476940e-04 
 2.9537310044459717e-04  2.9923809958073413e-04  3.0315367495106039e-04  3.0712048846747618e-04 
 3.1113921070802388e-04  3.1521052103048862e-04  3.1933510768749056e-04  3.2351366794309248e-04 
 3.2774690819094206e-04  3.3203554407397018e-04  3.3638030060566092e-04  3.4078191229292335e-04 
 3.4524112326057897e-04  3.4975868737748721e-04  3.5433536838433497e-04  3.5897194002310799e-04 
 3.6366918616826879e-04  3.6842790095966441e-04  3.7324888893718413e-04  3.7813296517719429e-04 
 3.8308095543077199e-04  3.8809369626376143e-04  3.9317203519867818e-04  3.9831683085848690e-04 
 4.0352895311227590e-04  4.0880928322285331e-04  4.1415871399629609e-04  4.1957814993347003e-04 
 4.2506850738355375e-04  4.3063071469959127e-04  4.3626571239609955e-04  4.4197445330876090e-04 
 4.4775790275622678e-04  4.5361703870406092e-04  4.5955285193085345e-04  4.6556634619653443e-04 
 4.7165853841291166e-04  4.7783045881646946e-04  4.8408315114346179e-04  4.9041767280731381e-04 
 4.9683509507838803e-04  5.0333650326612545e-04  5.0992299690360773e-04  5.1659568993456413e-04 
 5.2335571090286769e-04  5.3020420314454063e-04  5.3714232498231602e-04  5.4417124992278188e-04 
 5.5129216685614955e-04  5.5850628025867505e-04  5.6581481039778034e-04  5.7321899353989859e-04 
 5.8072008216108952e-04  5.8831934516046761e-04  5.9601806807646582e-04  6.0381755330599096e-04 
 6.1171912032649762e-04  6.1972410592103626e-04  6.2783386440629356e-04  6.3604976786369642e-04 
 6.4437320637359210e-04  6.5280558825257275e-04  6.6134834029396951e-04  6.7000290801157213e-04 
 6.7877075588661608e-04  6.8765336761807485e-04  6.9665224637632393e-04  7.0576891506019966e-04 
 7.1500491655751672e-04  7.2436181400909112e-04  7.3384119107631151e-04  7.4344465221232018e-04 
 7.5317382293683933e-04  7.6303035011471418e-04  7.7301590223820315e-04  7.8313216971309598e-04 
 7.9338086514868522e-04  8.0376372365167253e-04  8.1428250312404736e-04  8.2493898456500179e-04 
 8.3573497237694977e-04  8.4667229467569360e-04  8.5775280360480698e-04  8.6897837565429593e-04 
 8.8035091198359716e-04  8.9187233874898138e-04  9.0354460743542178e-04  9.1536969519299808e-04 
 9.2734960517789234e-04  9.3948636689806630e-04  9.5178203656366461e-04  9.6423869744222969e-04 
 9.7685846021879400e-04  9.8964346336092939e-04  1.0025958734888175e-03  1.0157178857504298e-03 
 1.0290117242018765e-03  1.0424796421930253e-03  1.0561239227584514e-03  1.0699468790138088e-03 
 1.0839508545577043e-03  1.0981382238791602e-03  1.1125113927707468e-03  1.1270727987474790e-03 
 1.1418249114715671e-03  1.1567702331830999e-03  1.1719112991367695e-03  1.1872506780447297e-03 
 1.2027909725256716e-03  1.2185348195602346e-03  1.2344848909528335e-03  1.2506438938000178e-03 
 1.2670145709654721e-03  1.2835997015617450e-03  1.3004021014388347e-03  1.3174246236797311e-03 
 1.3346701591030331e-03  1.3521416367727615e-03  1.3698420245154719e-03  1.3877743294448052e-03 
 1.4059415984935856e-03  1.4243469189536009e-03  1.4429934190231929e-03  1.4618842683627865e-03 
 1.4810226786584903e-03  1.5004119041939212e-03  1.5200552424303728e-03  1.5399560345954804e-03 
 1.5601176662805383e-03  1.5805435680466171e-03  1.6012372160396061e-03  1.6222021326143950e-03 
 1.6434418869683024e-03  1.6649600957839396e-03  1.6867604238816954e-03  1.7088465848819690e-03 
 1.7312223418773809e-03  1.7538915081150978e-03  1.7768579476894891e-03  1.8001255762452927e-03 
 1.8236983616914827e-03  1.8475803249260495e-03  1.8717755405718696e-03  1.8962881377239335e-03 
 1.9211223007080686e-03  1.9462822698514449e-03  1.9717723422650562e-03  1.9975968726384111e-03 
 2.0237602740466915e-03  2.0502670187705937e-03  2.0771216391291349e-03  2.1043287283256532e-03 
 2.1318929413072858e-03  2.1598189956382038e-03  2.1881116723868463e-03  2.2167758170274819e-03 
 2.2458163403563645e-03  2.2752382194228108e-03  2.3050464984754908e-03  2.3352462899242353e-03 
 2.3658427753177461e-03  2.3968412063374847e-03  2.4282469058081397e-03  2.4600652687249694e-03 
 2.4923017632984602e-03  2.5249619320166150e-03  2.5580513927253058e-03  2.5915758397270592e-03 
 2.6255410448987370e-03  2.6599528588284399e-03  2.6948172119721997e-03  2.7301401158308170e-03 
 2.7659276641473344e-03  2.8021860341256263e-03  2.8389214876706238e-03  2.8761403726506227e-03 
 2.9138491241822600e-03  2.9520542659386582e-03  2.9907624114813062e-03  3.0299802656162779e-03 
 3.0697146257753121e-03  3.1099723834224430e-03  3.1507605254867646e-03  3.1920861358219681e-03 
 3.2339563966933770e-03  3.2763785902931251e-03  3.3193601002841949e-03  3.3629084133740624e-03 
 3.4070311209187499e-03  3.4517359205579736e-03  3.4970306178823173e-03  3.5429231281331637e-03 
 3.5894214779363192e-03  3.6365338070702283e-03  3.6842683702696193e-03  3.7326335390656731e-03 
 3.7816378036635342e-03  3.8312897748583952e-03  3.8815981859909631e-03  3.9325718949436324e-03 
 3.9842198861783223e-03  4.0365512728172395e-03  4.0895752987677291e-03  4.1433013408924951e-03 
 4.1977389112264384e-03  4.2528976592414707e-03  4.3087873741607030e-03  4.3654179873234382e-03 
 4.4227995746023646e-03  4.4809423588746148e-03  4.5398567125481742e-03  4.5995531601453216e-03 
 4.6600423809447832e-03  4.7213352116843941e-03  4.7834426493259885e-03  4.8463758538846002e-03 
 4.9101461513236582e-03  4.9747650365184739e-03  5.0402441762898873e-03  5.1065954125103664e-03 
 5.1738307652848484e-03  5.2419624362084341e-03  5.3110028117036960e-03  5.3809644664396823e-03 
 5.4518601668356219e-03  5.5237028746517045e-03  5.5965057506698751e-03  5.6702821584674636e-03 
 5.7450456682867062e-03  5.8208100610031730e-03  5.8975893321963572e-03  5.9753976963258107e-03 
 6.0542495910161321e-03  6.1341596814545960e-03  6.2151428649048785e-03  6.2972142753410449e-03 
 6.3803892882054476e-03  6.4646835252949782e-03  6.5501128597797911e-03  6.6366934213589746e-03 
 6.7244416015578698e-03  6.8133740591717453e-03  6.9035077258608512e-03  6.9948598119019710e-03 
 7.0874478121018868e-03  7.1812895118781982e-03  7.2764029935134308e-03  7.3728066425881693e-03 
 7.4705191545996778e-03  7.5695595417722694e-03  7.6699471400661096e-03  7.7717016163915149e-03 
 7.8748429760357435e-03  7.9793915703099544e-03  8.0853681044238609e-03  8.1927936455963232e-03 
 8.3016896314100259e-03  8.4120778784191105e-03  8.5239805910185106e-03  8.6374203705845403e-03 
 8.7524202248962981e-03  8.8690035778479157e-03  8.9871942794621414e-03  9.1070166162160928e-03 
 9.2284953216903911e-03  9.3516555875532859e-03  9.4765230748920098e-03  9.6031239259038292e-03 
 9.7314847759598783e-03  9.8616327660553185e-03  9.9935955556599010e-03  1.0127401335983510e-02 
 1.0263078843671824e-02  1.0400657374947902e-02  1.0540166800215909e-02  1.0681637579144072e-02 
 1.0825100776244269e-02  1.0970588076966766e-02  1.1118131804328838e-02  1.1267764936097146e-02 
 1.1419521122544043e-02  1.1573434704799362e-02  1.1729540733819356e-02  1.1887874989995960e-02 
 1.2048474003429741e-02  1.2211375074891456e-02  1.2376616297497580e-02  1.2544236579126403e-02 
 1.2714275665602156e-02  1.2886774164675742e-02  1.3061773570831664e-02  1.3239316290951939e-02 
 1.3419445670868958e-02  1.3602206022840109e-02  1.3787642653978921e-02  1.3975801895677951e-02 
 1.4166731134060667e-02  1.4360478841500461e-02  1.4557094609246660e-02  1.4756629181198648e-02 
 1.4959134488871071e-02  1.5164663687594218e-02  1.5373271193995690e-02  1.5585012724811038e-02 
 1.5799945337072629e-02  1.6018127469728298e-02  1.6239618986742275e-02  1.6464481221734044e-02 
 1.6692777024211687e-02  1.6924570807458909e-02  1.7159928598136951e-02  1.7398918087664545e-02 
 1.7641608685441804e-02  1.7888071573985559e-02  1.8138379766046996e-02  1.8392608163783682e-02 
 1.8650833620061768e-02  1.8913135001966133e-02  1.9179593256598872e-02  1.9450291479249673e-02 
 1.9725314984023842e-02  2.0004751377017540e-02  2.0288690632131429e-02  2.0577225169618709e-02 
 2.0870449937464536e-02  2.1168462495698981e-02  2.1471363103747646e-02  2.1779254810927681e-02 
 2.2092243550200535e-02  2.2410438235296069e-02  2.2733950861325871e-02  2.3062896609007566e-02 
 2.3397393952625210e-02  2.3737564771854864e-02  2.4083534467587025e-02  2.4435432081883004e-02 
 2.4793390422204683e-02  2.5157546190060765e-02  2.5528040114217596e-02  2.5905017088625165e-02 
 2.6288626315212442e-02  2.6679021451711676e-02  2.7076360764672038e-02  2.7480807287829249e-02 
 2.7892528985999528e-02  2.8311698924670250e-02  2.8738495445463069e-02  2.9173102347647448e-02 
 2.9615709075886974e-02  3.0066510914401910e-02  3.0525709187735114e-02  3.0993511468310062e-02 
 3.1470131790971939e-02  3.1955790874703877e-02  3.2450716351713253e-02  3.2955143004080562e-02 
 3.3469313008167793e-02  3.3993476186979579e-02  3.4527890270672296e-02  3.5072821165403223e-02 
 3.5628543230710581e-02  3.6195339565613438e-02  3.6773502303615098e-02  3.7363332916791121e-02 
 3.7965142529137012e-02  3.8579252239343907e-02  3.9205993453165063e-02  3.9845708225524960e-02 
 4.0498749612515435e-02  4.1165482033410902e-02  4.1846281642822690e-02  4.2541536713098495e-02 
 4.3251648027058602e-02  4.3977029281140438e-02  4.4718107499007828e-02  4.5475323455657607e-02 
 4.6249132112035116e-02  4.7040003060144650e-02  4.7848420978613707e-02  4.8674886098642761e-02 
 4.9519914680236657e-02  5.0384039498585817e-02  5.1267810340423499e-02  5.2171794510150651e-02 
 5.3096577345477118e-02  5.4042762742283527e-02  5.5010973688363878e-02  5.6001852805657885e-02 
 5.7016062900531919e-02  5.8054287521611479e-02  5.9117231524615808e-02  6.0205621643580468e-02 
 6.1320207067796687e-02  6.2461760023732403e-02  6.3631076361132577e-02  6.4828976142431327e-02 
 6.6056304234538094e-02  6.7313930901991836e-02  6.8602752400403560e-02  6.9923691569039298e-02 
 7.1277698421319827e-02  7.2665750731944853e-02  7.4088854619276390e-02  7.5548045121545726e-02 
 7.7044386765380266e-02  7.8578974125078416e-02  8.0152932370998423e-02  8.1767417805361731e-02 
 8.3423618383718770e-02  8.5122754220264649e-02  8.6866078075145861e-02  8.8654875821852844e-02 
 9.0490466892751170e-02  9.2374204700767529e-02  9.4307477035214735e-02  9.6291706429713714e-02 
 9.8328350500141853e-02  1.0041890225052040e-01  1.0256489034472870e-01  1.0476787934191446e-01 
 1.0702946989344633e-01  1.0935129889922371e-01  1.1173503962112663e-01  1.1418240175133453e-01 
 1.1669513143318141e-01  1.1927501123212106e-01  1.2192386005426918e-01  1.2464353300982331e-01 
 1.2743592121847952e-01  1.3030295155370786e-01  1.3324658632244163e-01  1.3626882287635234e-01 
 1.3937169315041251e-01  1.4255726312388478e-01  1.4582763219819914e-01  1.4918493248538323e-01 
 1.5263132799977169e-01  1.5616901374463590e-01  1.5980021468412292e-01  1.6352718458946411e-01 
 1.6735220474680393e-01  1.7127758251218142e-01  1.7530564969719667e-01  1.7943876076666734e-01 
 1.8367929082718495e-01  1.8802963338284887e-01  1.9249219783170188e-01  1.9706940667343606e-01 
 2.0176369239589653e-01  2.0657749400477551e-01  2.1151325315774597e-01  2.1657340986118218e-01 
 2.2176039768465308e-01  2.2707663844564313e-01  2.3252453631456729e-01  2.3810647128824591e-01 
 2.4382479197872561e-01  2.4968180766383680e-01  2.5567977954635451e-01  2.6182091117024958e-01 
 2.6810733794548430e-01  2.7454111573729939e-01  2.8112420848220065e-01  2.8785847480095772e-01 
 2.9474565358918003e-01  3.0178734857842188e-01  3.0898501187546479e-01  3.1633992650441872e-01 
 3.2385318799552482e-01  3.3152568508590724e-01  3.3935807962074765e-01  3.4735078576808975e-01 
 3.5550394868620916e-01  3.6381742280855262e-01  3.7229074993684214e-01  3.8092313735709221e-01 
 3.8971343621481669e-01  3.9866012040337673e-01  4.0776126623176501e-01  4.1701453314364217e-01 
 4.2641714575661926e-01  4.3596587747794618e-01  4.4565703592869133e-01  4.5548645037172097e-01 
 4.6544946128856990e-01  4.7554091218610728e-01  4.8575514363589123e-01  4.9608598945822369e-01 
 5.0652677486095898e-01  5.1707031623297484e-01  5.2770892217798537e-01  5.3843439526135251e-01 
 5.4923803383744196e-01  5.6011063323573107e-01  5.7104248551934733e-01  5.8202337699990225e-01 
 5.9304258270772459e-01  6.0408885708718607e-01  6.1515042032231615e-01  6.2621493990606891e-01 
 6.3726950735285393e-01  6.4830061031952257e-01  6.5929410084149520e-01  6.7023516089836177e-01 
 6.8110826708011807e-01  6.9189715670612051e-01  7.0258479832016474e-01  7.1315337000456602e-01 
 7.2358424937382104e-01  7.3385801936826978e-01  7.4395449401092217e-01  7.5385276805746215e-01 
 7.6353129390742347e-01  7.7296798821259582e-01  7.8214036929480235e-01  7.9102572477413124e-01 
 7.9960130674964991e-01  8.0784454954790730e-01  8.1573330258681809e-01  8.2324606846857473e-01 
 8.3036223423600242e-01  8.3706228206159317e-01  8.4332796477093708e-01  8.4914243181879812e-01 
 8.5449029289700806e-01  8.5935760945727857e-01  8.6373180917533021e-01  8.6760152471702323e-01 
 8.7095636585929059e-01  8.7378664261915207e-01  8.7608306587064766e-01  8.7783646007348148e-01 
 8.7903752909986277e-01  8.7967671951126025e-01  8.7974422478284509e-01  8.7923016782294061e-01 
 8.7812498693691088e-01  8.7642003191368678e-01  8.7410835266239650e-01  8.7118563416995487e-01 
 8.6765120083171454e-01  8.6350898372268503e-01  8.5876832021352489e-01  8.5344444104075734e-01 
 8.4755850001251432e-01  8.4113701975087296e-01  8.3421066552857204e-01  8.2681231835744939e-01 
 8.1897449506969400e-01  8.1072625086247219e-01  8.0208978894656868e-01  7.9307708006688882e-01 
 7.8369166523600620e-01  7.7394644787017508e-01  7.6385811613741672e-01  7.5344362192107994e-01 
 7.4272014317061297e-01  7.3170504641715128e-01  7.2041584957234972e-01  7.0887018512267674e-01 
 6.9708576382486243e-01  6.8508033881867025e-01  6.7287167116731417e-01  6.6047749507920828e-01 
 6.4791548471755456e-01  6.3520322176026855e-01  6.2235816395648624e-01  6.0939761473874099e-01 
 5.9633869394300065e-01  5.8319830968206265e-01  5.6999313141117780e-01  5.5673956421792259e-01 
 5.4345372436394179e-01  5.3015141609802430e-01  5.1684810975076023e-01  5.0355892112082512e-01 
 4.9029859215554333e-01  4.7708147291912795e-01  4.6392150483866662e-01  4.5083220521187989e-01 
 4.3782665295514961e-01  4.2491747556512183e-01  4.1211683726236614e-01  3.9943642828121828e-01 
 3.8688745526620993e-01  3.7448063273255650e-01  3.6222617554622294e-01  3.5013379237832731e-01 
 3.3821268008927641e-01  3.2647151900022370e-01  3.1491846901338949e-01  3.0356116654852794e-01 
 2.9240672227040793e-01  2.8146171959147009e-01  2.7073221394460811e-01  2.6022373283292327e-01 
 2.4994127667581137e-01  2.3988932048322115e-01  2.3007181640163521e-01  2.2049219718548943e-01 
 2.1115338065555972e-01  2.0205777521059184e-01  1.9320728645952598e-01  1.8460332503865673e-01 
 1.7624681567079148e-01  1.6813820751200195e-01  1.6027748581623841e-01  1.5266418492947595e-01 
 1.4529740260397558e-01  1.3817581560058839e-01  1.3129769652382528e-01  1.2466093181165250e-01 
 1.1826304078062341e-01  1.1210119560784963e-01  1.0617224211511941e-01  1.0047272120769062e-01 
 9.4998890811224465e-02  8.9746748145097935e-02  8.4712052168892549e-02  7.9890346041013749e-02 
 7.5276979433842095e-02  7.0867130558172398e-02  6.6655827760524561e-02  6.2637970569738730e-02 
 5.8808350083632402e-02  5.5161668601926589e-02  5.1692558427706717e-02  4.8395599775939185e-02 
 4.5265337743638716e-02  4.2296298311809109e-02  3.9483003363940894e-02  3.6819984719358705e-02 
 3.4301797191821810e-02  3.1923030694296500e-02  2.9678321419587962e-02  2.7562362133451496e-02 
 2.5569911621865147e-02  2.3695803337369113e-02  2.1934953290855763e-02  2.0282367235078657e-02 
 1.8733147184644132e-02  1.7282497314597849e-02  1.5925729276194976e-02  1.4658266964327343e-02 
 1.3475650766659074e-02  1.2373541320055175e-02  1.1347722795613012e-02  1.0394105729718913e-02 
 9.5087294152037521e-03  8.6877638639654628e-03  7.9275113504194920e-03  7.2244075438441056e-03 
 6.5750222370804731e-03  5.9760596790725366e-03  5.4243585193094555e-03  4.9168913732690923e-03 
 4.4507640193517653e-03  4.0232142394342136e-03  3.6316103169624389e-03  3.2734492083445789e-03 
 2.9463544052171680e-03  2.6480735068676407e-03  2.3764755236443400e-03  2.1295479335263160e-03 
 1.9053935151258296e-03  1.7022269812352324e-03  1.5183714375958141e-03  1.3522546918573845e-03 
 1.2024054377197358e-03  1.0674493390127151e-03  9.4610503799755501e-04  8.3718011147900287e-04 
 7.3956699742898152e-04  6.5223891376285507e-04  5.7424578970461456e-04  5.0471022885308742e-04 
 4.4282352164309071e-04  3.8784172340747605e-04  3.3908181271156073e-04  2.9591794307199108e-04 
 2.5777779960760566e-04  2.2413907061837637e-04  1.9452604256619914e-04  1.6850632545242024e-04 
 1.4568771416384363e-04  1.2571519000202709e-04  1.0826806532857914e-04  9.3057273058822786e-05 
 7.9822801622867962e-05  6.8331274990554315e-05  5.8373676427213943e-05  4.9763213811754296e-05 
 4.2333323607002614e-05  3.5935809923339381e-05  3.0439114558202660e-05  2.5726713423063397e-05 
 2.1695634382259602e-05  1.8255091220341773e-05  1.5325228221569816e-05  1.2835969681775105e-05 
 1.0725968573564255e-05  8.9416485452109259e-06  7.4363334458905759e-06  6.1694586294750234e-06 
 5.1058583902937872e-06  4.2151240215863258e-06  3.4710271554799304e-06  2.8510032371364372e-06 
 2.3356902003746816e-06  1.9085176430549447e-06  1.5553420435869505e-06  1.2641238112154864e-06 
 1.0246422187203413e-06  8.2824452367080394e-07  6.6762584058819789e-07  5.3663657883454482e-07 
 4.3011450764741610e-07  3.4373874869699746e-07  2.7390322638293421e-07  2.1760732564306364e-07 
 1.7236171541603076e-07  1.3610749243994177e-07  1.0714698436359503e-07  8.4084722984501391e-08 
 6.5777257778972023e-08  5.1290626881435904e-08  3.9864437564491902e-08  3.0881631441790220e-08 
 2.3843121527644695e-08  1.8346589477004417e-08  1.4068822387496354e-08  1.0751050099565314e-08 
 8.1868166320471758e-09  6.2119838995544411e-09  4.6965228344579073e-09  3.5377971290478446e-09 
 2.6550886532447092e-09  1.9851517958058867e-09  1.4786170984144866e-09  1.0970931450206175e-09 
 8.1084024011753399e-10  5.9691042866728673e-10  4.3766630854364601e-10  3.1960625719157327e-10 
 2.3243649420728963e-10  1.6834115144262815e-10  1.2141052050692478e-10  8.7195182159947008e-11 
 6.2359435461666078e-11  4.4413676640669493e-11  3.1508335307682584e-11  2.2276041341119118e-11 
 1.5711383065680655e-11  0.0000000000000000e+00  0.0000000000000000e+00  0.0000000000000000e+00 
 0.0000000000000000e+00  0.0000000000000000e+00  0.0000000000000000e+00  0.0000000000000000e+00 
 0.0000000000000000e+00  0.0000000000000000e+00  0.0000000000000000e+00  0.0000000000000000e+00 
 0.0000000000000000e+00  0.0000000000000000e+00  0.0000000000000000e+00  0.0000000000000000e+00 
 0.0000000000000000e+00  0.0000000000000000e+00  0.0000000000000000e+00  0.0000000000000000e+00 
 0.0000000000000000e+00  0.0000000000000000e+00  0.0000000000000000e+00  0.0000000000000000e+00 
 0.0000000000000000e+00  0.0000000000000000e+00  0.0000000000000000e+00  0.0000000000000000e+00 
 0.0000000000000000e+00  0.0000000000000000e+00  0.0000000000000000e+00  0.0000000000000000e+00 
 0.0000000000000000e+00  0.0000000000000000e+00  0.0000000000000000e+00  0.0000000000000000e+00 
 0.0000000000000000e+00  0.0000000000000000e+00  0.0000000000000000e+00  0.0000000000000000e+00 
 0.0000000000000000e+00  0.0000000000000000e+00  0.0000000000000000e+00  0.0000000000000000e+00 
 0.0000000000000000e+00  0.0000000000000000e+00  0.0000000000000000e+00  0.0000000000000000e+00 
 0.0000000000000000e+00  0.0000000000000000e+00  0.0000000000000000e+00  0.0000000000000000e+00 
 0.0000000000000000e+00  0.0000000000000000e+00  0.0000000000000000e+00  0.0000000000000000e+00 
 0.0000000000000000e+00  0.0000000000000000e+00  0.0000000000000000e+00  0.0000000000000000e+00 
 0.0000000000000000e+00  0.0000000000000000e+00  0.0000000000000000e+00  0.0000000000000000e+00 
 0.0000000000000000e+00  0.0000000000000000e+00  0.0000000000000000e+00  0.0000000000000000e+00 
 0.0000000000000000e+00  0.0000000000000000e+00  0.0000000000000000e+00  0.0000000000000000e+00 
 0.0000000000000000e+00  0.0000000000000000e+00  0.0000000000000000e+00  0.0000000000000000e+00 
 0.0000000000000000e+00  0.0000000000000000e+00  0.0000000000000000e+00  0.0000000000000000e+00 
 0.0000000000000000e+00  0.0000000000000000e+00  0.0000000000000000e+00  0.0000000000000000e+00 
 0.0000000000000000e+00  0.0000000000000000e+00  0.0000000000000000e+00  0.0000000000000000e+00 
 0.0000000000000000e+00  0.0000000000000000e+00  0.0000000000000000e+00  0.0000000000000000e+00 
 0.0000000000000000e+00  0.0000000000000000e+00  0.0000000000000000e+00  0.0000000000000000e+00 
 0.0000000000000000e+00  0.0000000000000000e+00  0.0000000000000000e+00  0.0000000000000000e+00 
 0.0000000000000000e+00  0.0000000000000000e+00  0.0000000000000000e+00  0.0000000000000000e+00 
 0.0000000000000000e+00  0.0000000000000000e+00  0.0000000000000000e+00  0.0000000000000000e+00 
 0.0000000000000000e+00  0.0000000000000000e+00  0.0000000000000000e+00  0.0000000000000000e+00 
 0.0000000000000000e+00  0.0000000000000000e+00  0.0000000000000000e+00  0.0000000000000000e+00 
 0.0000000000000000e+00  0.0000000000000000e+00  0.0000000000000000e+00  0.0000000000000000e+00 
 0.0000000000000000e+00  0.0000000000000000e+00  0.0000000000000000e+00  0.0000000000000000e+00 
 0.0000000000000000e+00  0.0000000000000000e+00  0.0000000000000000e+00  0.0000000000000000e+00 
 0.0000000000000000e+00 
P    1   5.00          Wavefunction
 1.4638259265923608e-09  1.5023844898719687e-09  1.5419587222787016e-09  1.5825753775006273e-09 
 1.6242619139433263e-09  1.6670465132928239e-09  1.7109580995674789e-09  1.7560263586717232e-09 
 1.8022817584648619e-09  1.8497555693585077e-09  1.8984798854565698e-09  1.9484876462520858e-09 
 1.9998126588955768e-09  2.0524896210499695e-09  2.1065541443475345e-09  2.1620427784647045e-09 
 2.2189930358310485e-09  2.2774434169891013e-09  2.3374334366222000e-09  2.3990036502679052e-09 
 2.4621956817350964e-09  2.5270522512432473e-09  2.5936172043029227e-09  2.6619355413570088e-09 
 2.7320534482027290e-09  2.8040183272149972e-09  2.8778788293922348e-09  2.9536848872462857e-09 
 3.0314877485587080e-09  3.1113400110262085e-09  3.1932956578187105e-09  3.2774100940740034e-09 
 3.3637401843537537e-09  3.4523442910860832e-09  3.5432823140208182e-09  3.6366157307239799e-09 
 3.7324076381389761e-09  3.8307227952425185e-09  3.9316276668241668e-09  4.0351904684190480e-09 
 4.1414812124241701e-09  4.2505717554294426e-09  4.3625358467954850e-09  4.4774491785109936e-09 
 4.5953894363634040e-09  4.7164363524574419e-09  4.8406717591170562e-09  4.9681796442071917e-09 
 5.0990462079127706e-09  5.2333599210133069e-09  5.3712115846925151e-09  5.5126943919233527e-09 
 5.6579039904700440e-09  5.8069385475495731e-09  5.9598988161964893e-09  6.1168882033757615e-09 
 6.2780128398898478e-09  6.4433816521271308e-09  6.6131064357003057e-09  6.7873019310244802e-09 
 6.9660859008860438e-09  7.1495792100548024e-09  7.3379059069931378e-09  7.5311933077175109e-09 
 7.7295720818689203e-09  7.9331763410505392e-09  8.1421437294922799e-09  8.3566155171035009e-09 
 8.5767366949768532e-09  8.8026560734077736e-09  9.0345263824959028e-09  9.2725043753964132e-09 
 9.5167509342911380e-09  9.7674311791510243e-09  1.0024714579363495e-08  1.0288775068300233e-08 
 1.0559791160902709e-08  1.0837946074365099e-08  1.1123427851996066e-08  1.1416429490343145e-08 
 1.1717149069665814e-08  1.2025789887845193e-08  1.2342560597821228e-08  1.2667675348649904e-08 
 1.3001353930276222e-08  1.3343821922120536e-08  1.3695310845578766e-08  1.4056058320539708e-08 
 1.4426308226025071e-08  1.4806310865060988e-08  1.5196323133892317e-08  1.5596608695654337e-08 
 1.6007438158618936e-08  1.6429089259136148e-08  1.6861847049394491e-08  1.7306004090126977e-08 
 1.7761860648393370e-08  1.8229724900572004e-08  1.8709913140698872e-08  1.9202749994294191e-08 
 1.9708568637821748e-08  2.0227711023928752e-08  2.0760528112618782e-08  2.1307380108514124e-08 
 2.1868636704367676e-08  2.2444677330989357e-08  2.3035891413755600e-08  2.3642678635875868e-08 
 2.4265449208593407e-08  2.4904624148503844e-08  2.5560635562178168e-08  2.6233926938283242e-08 
 2.6924953447396933e-08  2.7634182249720688e-08  2.8362092810897465e-08  2.9109177226148727e-08 
 2.9875940552949451e-08  3.0662901152466016e-08  3.1470591039988124e-08  3.2299556244591129e-08 
 3.3150357178272437e-08  3.4023569014811283e-08  3.4919782078607789e-08  3.5839602243764754e-08 
 3.6783651343681393e-08  3.7752567591436287e-08  3.8747006011243394e-08  3.9767638881273446e-08 
 4.0815156188139096e-08  4.1890266093352241e-08  4.2993695412067718e-08  4.4126190104437940e-08 
 4.5288515779910063e-08  4.6481458214806839e-08  4.7705823883541262e-08  4.8962440503823449e-08 
 5.0252157596229244e-08  5.1575847058508019e-08  5.2934403755018582e-08  5.4328746121691087e-08 
 5.5759816786924358e-08  5.7228583208838328e-08  5.8736038329311954e-08  6.0283201245249561e-08 
 6.1871117897528525e-08  6.3500861778094768e-08  6.5173534655683627e-08  6.6890267320657082e-08 
 6.8652220349460399e-08  7.0460584889215530e-08  7.2316583462981334e-08  7.4221470796225010e-08 
 7.6176534665063666e-08  7.8183096766849205e-08  8.0242513613685633e-08  8.2356177449481759e-08 
 8.4525517191160229e-08  8.6751999394659323e-08  8.9037129246379461e-08  9.1382451580745441e-08 
 9.3789551924572455e-08  9.6260057568941375e-08  9.8795638669308776e-08  1.0139800937459390e-07 
 1.0406892898600771e-07  1.0681020314640594e-07  1.0962368506097123e-07  1.1251127675004892e-07 
 1.1547493033498348e-07  1.1851664935782559e-07  1.2163849013580061e-07  1.2484256315145622e-07 
 1.2813103447942662e-07  1.3150612725077959e-07  1.3497012315593532e-07  1.3852536398717455e-07 
 1.4217425322177634e-07  1.4591925764685784e-07  1.4976290902701419e-07  1.5370780581588423e-07 
 1.5775661491280212e-07  1.6191207346571912e-07  1.6617699072161721e-07  1.7055424992566281e-07 
 1.7504681027038784e-07  1.7965770889621190e-07  1.8439006294466166e-07  1.8924707166567247e-07 
 1.9423201858039873e-07  1.9934827370099515e-07  2.0459929580886845e-07  2.0998863479293963e-07 
 2.1551993404949861e-07  2.2119693294527419e-07  2.2702346934538148e-07  2.3300348220785848e-07 
 2.3914101424654613e-07  2.4544021466410818e-07  2.5190534195704466e-07  2.5854076679458833e-07 
 2.6535097497343670e-07  2.7234057045031127e-07  2.7951427845440019e-07  2.8687694868178273e-07 
 2.9443355857399808e-07  3.0218921668297606e-07  3.1014916612459918e-07  3.1831878812324012e-07 
 3.2670360564965996e-07  3.3530928715473324e-07  3.4414165040152407e-07  3.5320666639830073e-07 
 3.6251046343514922e-07  3.7205933122691438e-07  3.8185972516527091e-07  3.9191827068279363e-07 
 4.0224176773198664e-07  4.1283719538228807e-07  4.2371171653816715e-07  4.3487268278149712e-07 
 4.4632763934148288e-07  4.5808433019549798e-07  4.7015070330428327e-07  4.8253491598504379e-07 
 4.9524534042607618e-07  5.0829056934665835e-07  5.2167942180602270e-07  5.3542094916534450e-07 
 5.4952444120676564e-07  5.6399943241361347e-07  5.7885570841602704e-07  5.9410331260638125e-07 
 6.0975255292895534e-07  6.2581400884845024e-07  6.4229853850206572e-07  6.5921728603995931e-07 
 6.7658168915906768e-07  6.9440348683536318e-07  7.1269472725979645e-07  7.3146777598326602e-07 
 7.5073532427613760e-07  7.7051039770795701e-07  7.9080636495315645e-07  8.1163694682871646e-07 
 8.3301622556987402e-07  8.5495865435017011e-07  8.7747906705225044e-07  9.0059268829604633e-07 
 9.2431514373109538e-07  9.4866247059997317e-07  9.7365112857996627e-07  9.9929801091032758e-07 
 1.0256204558126273e-06  1.0526362582119231e-06  1.0803636817666698e-06  1.1088214712155029e-06 
 1.1380288650492515e-06  1.1680056085167285e-06  1.1987719669731043e-06  1.2303487395798821e-06 
 1.2627572733657401e-06  1.2960194776577386e-06  1.3301578388926556e-06  1.3651954358184584e-06 
 1.4011559550961834e-06  1.4380637073127894e-06  1.4759436434157786e-06  1.5148213715807273e-06 
 1.5547231745231023e-06  1.5956760272660852e-06  1.6377076153764034e-06  1.6808463536804963e-06 
 1.7251214054736816e-06  1.7705627022352772e-06  1.8172009638630511e-06  1.8650677194406338e-06 
 1.9141953285519468e-06  1.9646170031570782e-06  2.0163668300443473e-06  2.0694797938737828e-06 
 2.1239918008275616e-06  2.1799397028834023e-06  2.2373613227273142e-06  2.2962954793225791e-06 
 2.3567820141521921e-06  2.4188618181525447e-06  2.4825768593565418e-06  2.5479702112648283e-06 
 2.6150860819643322e-06  2.6839698440137710e-06  2.7546680651163558e-06  2.8272285396003902e-06 
 2.9017003207290993e-06  2.9781337538614514e-06  3.0565805104864700e-06  3.1370936231539841e-06 
 3.2197275213254259e-06  3.3045380681689855e-06  3.3915825983238851e-06  3.4809199566593681e-06 
 3.5726105380545983e-06  3.6667163282263373e-06  3.7633009456319996e-06  3.8624296844764274e-06 
 3.9641695588514307e-06  4.0685893480379320e-06  4.1757596430013884e-06  4.2857528941117975e-06 
 4.3986434601206939e-06  4.5145076584281152e-06  4.6334238166735898e-06  4.7554723256859424e-06 
 4.8807356938278378e-06  5.0092986027716439e-06  5.1412479647443928e-06  5.2766729812805237e-06 
 5.4156652035221193e-06  5.5583185941073751e-06  5.7047295906891347e-06  5.8549971711264610e-06 
 6.0092229203931971e-06  6.1675110992489154e-06  6.3299687147184739e-06  6.4967055924279718e-06 
 6.6678344508458473e-06  6.8434709774794629e-06  7.0237339070785204e-06  7.2087451018982294e-06 
 7.3986296340765171e-06  7.5935158701807869e-06  7.7935355579816410e-06  7.9988239155119239e-06 
 8.2095197224714349e-06  8.4257654140390448e-06  8.6477071771556528e-06  8.8754950493429299e-06 
 9.1092830201248298e-06  9.3492291351201640e-06  9.5954956028767856e-06  9.8482489045195263e-06 
 1.0107659906285869e-05  1.0373903975025579e-05  1.0647161096742184e-05  1.0927615998256515e-05 
 1.1215458272074492e-05  1.1510882504543453e-05  1.1814088407383823e-05  1.2125280952684628e-05 
 1.2444670511454629e-05  1.2772472995822098e-05  1.3108910004979710e-05  1.3454208974973075e-05 
 1.3808603332433947e-05  1.4172332652362303e-05  1.4545642820063547e-05  1.4928786197350535e-05 
 1.5322021793122411e-05  1.5725615438435951e-05  1.6139839966187136e-05  1.6564975395524769e-05 
 1.7001309121120562e-05  1.7449136107423511e-05  1.7908759088029930e-05  1.8380488770303643e-05 
 1.8864644045384750e-05  1.9361552203728595e-05  1.9871549156320878e-05  2.0394979661717967e-05 
 2.0932197559065958e-05  2.1483566007255863e-05  2.2049457730376489e-05  2.2630255269630675e-05 
 2.3226351241885136e-05  2.3838148605028505e-05  2.4466060930316679e-05  2.5110512681889799e-05 
 2.5771939503648944e-05  2.6450788513686981e-05  2.7147518606471799e-05  2.7862600762986523e-05 
 2.8596518369035696e-05  2.9349767541932616e-05  3.0122857465788349e-05  3.0916310735628451e-05 
 3.1730663710570840e-05  3.2566466876301569e-05  3.3424285217094812e-05  3.4304698597627171e-05 
 3.5208302154844648e-05  3.6135706700146358e-05  3.7087539132156994e-05  3.8064442860366184e-05 
 3.9067078239920514e-05  4.0096123017862963e-05  4.1152272791119048e-05  4.2236241476540092e-05 
 4.3348761793320508e-05  4.4490585758114447e-05  4.5662485193185878e-05  4.6865252247935633e-05 
 4.8099699934156209e-05  4.9366662675376203e-05  5.0666996870665407e-05  5.2001581473279417e-05 
 5.3371318584535768e-05  5.4777134063321087e-05  5.6219978151640846e-05  5.7700826116633441e-05 
 5.9220678909481793e-05  6.0780563841666740e-05  6.2381535279017547e-05  6.4024675354029328e-05 
 6.5711094696925453e-05  6.7441933185959422e-05  6.9218360717461191e-05  7.1041577996147363e-05 
 7.2912817346228116e-05  7.4833343543856943e-05  7.6804454671484942e-05  7.8827482994694406e-05 
 8.0903795862104661e-05  8.3034796628953292e-05  8.5221925604977663e-05  8.7466661027234366e-05 
 8.9770520058511259e-05  9.2135059812006013e-05  9.4561878402959262e-05  9.7052616027952897e-05 
 9.9608956072597284e-05  1.0223262624835697e-04  1.0492539975927613e-04  1.0768909649939175e-04 
 1.1052558428163989e-04  1.1343678009908131e-04  1.1642465141929568e-04  1.1949121751281554e-04 
 1.2263855081649279e-04  1.2586877833271494e-04  1.2918408306541340e-04  1.3258670549382744e-04 
 1.3607894508501598e-04  1.3966316184613363e-04  1.4334177791751435e-04  1.4711727920763365e-04 
 1.5099221707104714e-04  1.5496921003043391e-04  1.5905094554389957e-04  1.6324018181872920e-04 
 1.6753974967280392e-04  1.7195255444493447e-04  1.7648157795539175e-04  1.8112988051795142e-04 
 1.8590060300480171e-04  1.9079696896570161e-04  1.9582228680280751e-04  2.0097995200262924e-04 
 2.0627344942661372e-04  2.1170635566188621e-04  2.1728234143372942e-04  2.2300517408141494e-04 
 2.2887872009904559e-04  2.3490694774311091e-04  2.4109392970850092e-04  2.4744384587476988e-04 
 2.5396098612448596e-04  2.6064975323555895e-04  2.6751466584946975e-04  2.7456036151739699e-04 
 2.8179159982626991e-04  2.8921326560683977e-04  2.9683037222591344e-04  3.0464806496494480e-04 
 3.1267162448724467e-04  3.2090647039611646e-04  3.2935816488630245e-04  3.3803241649116262e-04 
 3.4693508392809596e-04  3.5607218004476249e-04  3.6544987586873415e-04  3.7507450476327592e-04 
 3.8495256669201979e-04  3.9509073259537517e-04  4.0549584888157681e-04  4.1617494203537452e-04 
 4.2713522334740815e-04  4.3838409376742438e-04  4.4992914888455210e-04  4.6177818403794475e-04 
 4.7393919956117942e-04  4.8642040616389141e-04  4.9923023045421455e-04  5.1237732060567347e-04 
 5.2587055217230658e-04  5.3971903405583674e-04  5.5393211462886254e-04  5.6851938801810286e-04 
 5.8349070055185555e-04  5.9885615737592353e-04  6.1462612924237663e-04  6.3081125947562577e-04 
 6.4742247112040022e-04  6.6447097427634581e-04  6.8196827362405790e-04  6.9992617614751120e-04 
 7.1835679905796462e-04  7.3727257792453513e-04  7.5668627501679527e-04  7.7661098786485552e-04 
 7.9706015804254632e-04  8.1804758017944986e-04  8.3958741120769586e-04  8.6169417984954496e-04 
 8.8438279635197608e-04  9.0766856247463353e-04  9.3156718173763807e-04  9.5609476993595819e-04 
 9.8126786592717119e-04  1.0071034426996483e-03  1.0336189187283404e-03  1.0608321696255662e-03 
 1.0887615400943303e-03  1.1174258561919344e-03  1.1468444379118235e-03  1.1770371120917928e-03 
 1.2080242256569073e-03  1.2398266592056743e-03  1.2724658409482234e-03  1.3059637610054642e-03 
 1.3403429860784509e-03  1.3756266744973239e-03  1.4118385916595238e-03  1.4490031258671602e-03 
 1.4871453045736548e-03  1.5262908110500737e-03  1.5664660014817534e-03  1.6076979225061459e-03 
 1.6500143292030153e-03  1.6934437035484701e-03  1.7380152733444865e-03  1.7837590316359675e-03 
 1.8307057566275941e-03  1.8788870321130849e-03  1.9283352684297142e-03  1.9790837239513329e-03 
 2.0311665271333813e-03  2.0846186991237119e-03  2.1394761769534844e-03  2.1957758373225334e-03 
 2.2535555209941419e-03  2.3128540578144117e-03  2.3737112923717979e-03  2.4361681103127592e-03 
 2.5002664653298408e-03  2.5660494068389128e-03  2.6335611083626088e-03  2.7028468966375603e-03 
 2.7739532814632446e-03  2.8469279863108429e-03  2.9218199797108259e-03  2.9986795074385128e-03 
 3.0775581255171954e-03  3.1585087340589698e-03  3.2415856119638229e-03  3.3268444524979933e-03 
 3.4143423997732149e-03  3.5041380861487396e-03  3.5962916705787810e-03  3.6908648779283505e-03 
 3.7879210392810824e-03  3.8875251332631529e-03  3.9897438284079339e-03  4.0946455265866216e-03 
 4.2023004075305405e-03  4.3127804744716664e-03  4.4261596009280780e-03  4.5425135786621258e-03 
 4.6619201668393305e-03  4.7844591424169710e-03  4.9102123517916650e-03  5.0392637637361407e-03 
 5.1716995236559642e-03  5.3076080091975933e-03  5.4470798872400866e-03  5.5902081723030539e-03 
 5.7370882864046574e-03  5.8878181204038297e-03  6.0424980968617941e-03  6.2012312344587057e-03 
 6.3641232140019587e-03  6.5312824460636064e-03  6.7028201402848982e-03  6.8788503763871399e-03 
 7.0594901769284900e-03  7.2448595818474385e-03  7.4350817248344386e-03  7.6302829115741100e-03 
 7.8305926999011431e-03  8.0361439819142191e-03  8.2470730680928306e-03  8.4635197734629734e-03 
 8.6856275058587746e-03  8.9135433563275832e-03  9.1474181917274421e-03  9.3874067495666683e-03 
 9.6336677351360530e-03  9.8863639209854255e-03  1.0145662248797012e-02  1.0411733933709233e-02 
 1.0684754571145242e-02  1.0964904246201898e-02  1.1252367645655145e-02  1.1547334172639355e-02 
 1.1849998064058754e-02  1.2160558510789848e-02  1.2479219780734921e-02  1.2806191344787258e-02 
 1.3141688005769538e-02  1.3485930030407699e-02  1.3839143284403128e-02  1.4201559370666647e-02 
 1.4573415770778355e-02  1.4954955989737494e-02  1.5346429704067821e-02  1.5748092913342431e-02 
 1.6160208095193834e-02  1.6583044363873995e-02  1.7016877632429050e-02  1.7461990778552872e-02 
 1.7918673814183241e-02  1.8387224058903317e-02  1.8867946317209620e-02  1.9361153059707054e-02 
 1.9867164608288780e-02  2.0386309325357160e-02  2.0918923807139257e-02  2.1465353081147189e-02 
 2.2025950807830149e-02  2.2601079486461156e-02  2.3191110665296246e-02  2.3796425156038581e-02 
 2.4417413252635346e-02  2.5054474954425310e-02  2.5708020193650708e-02  2.6378469067335930e-02 
 2.7066252073527114e-02  2.7771810351875540e-02  2.8495595928535820e-02  2.9238071965336936e-02 
 2.9999713013169289e-02  3.0781005269515049e-02  3.1582446840031760e-02  3.2404548004079409e-02 
 3.3247831484060873e-02  3.4112832718421741e-02  3.5000100138131936e-02  3.5910195446443569e-02 
 3.6843693901690802e-02  3.7801184602865176e-02  3.8783270777668716e-02  3.9790570072706352e-02 
 4.0823714845444344e-02  4.1883352457517918e-02  4.2970145568927531e-02  4.4084772432615785e-02 
 4.5227927188868200e-02  4.6400320158927887e-02  4.7602678137159078e-02  4.8835744681036776e-02 
 5.0100280398179868e-02  5.1397063229580667e-02  5.2726888728121105e-02  5.4090570331396387e-02 
 5.5488939627799959e-02  5.6922846614751353e-02  5.8393159947879969e-02  5.9900767179901712e-02 
 6.1446574987859652e-02  6.3031509387320467e-02  6.4656515932055555e-02  6.6322559897662337e-02 
 6.8030626447517797e-02  6.9781720779393139e-02  7.1576868251000625e-02  7.3417114482690768e-02 
 7.5303525435472835e-02  7.7237187462489781e-02  7.9219207332051372e-02  8.1250712220303695e-02 
 8.3332849671604814e-02  8.5466787524669158e-02  8.7653713802563094e-02  8.9894836564644989e-02 
 9.2191383718581585e-02  9.4544602790618340e-02  9.6955760652335576e-02  9.9426143202185721e-02 
 1.0195705500018609e-01  1.0454981885421218e-01  1.0720577535643021e-01  1.0992628236848083e-01 
 1.1271271445409722e-01  1.1556646225791747e-01  1.1848893182927792e-01  1.2148154388980158e-01 
 1.2454573304357193e-01  1.2768294692860502e-01  1.3089464530822170e-01  1.3418229910069027e-01 
 1.3754738934525035e-01  1.4099140610220184e-01  1.4451584728424482e-01  1.4812221741559439e-01 
 1.5181202631458007e-01  1.5558678769445980e-01  1.5944801767600641e-01  1.6339723320404925e-01 
 1.6743595035856881e-01  1.7156568254913601e-01  1.7578793857945352e-01  1.8010422056651604e-01 
 1.8451602169644676e-01  1.8902482379642813e-01  1.9363209469936210e-01  1.9833928537499210e-01 
 2.0314782679828663e-01  2.0805912652297548e-01  2.1307456492535296e-01  2.1819549108093439e-01 
 2.2342321823438507e-01  2.2875901882151994e-01  2.3420411900125021e-01  2.3975969265529953e-01 
 2.4542685481458923e-01  2.5120665447353624e-01  2.5710006675739255e-01  2.6310798441335731e-01 
 2.6923120860371480e-01  2.7547043898887397e-01  2.8182626309999687e-01  2.8829914501501830e-01 
 2.9488941336821439e-01  3.0159724874201960e-01  3.0842267051023731e-01  3.1536552322383710e-01 
 3.2242546265360938e-01  3.2960194162739864e-01  3.3689419582257002e-01  3.4430122969569893e-01 
 3.5182180275000885e-01  3.5945441635527320e-01  3.6719730134334944e-01  3.7504840660338534e-01 
 3.8300538889244690e-01  3.9106560405819940e-01  3.9922609983883334e-01  4.0748361036053882e-01 
 4.1583455239375483e-01  4.2427502335609413e-01  4.3280080096297807e-01  4.4140734432835527e-01 
 4.5008979621031092e-01  4.5884298598412804e-01  4.6766143281407951e-01  4.7653934839201401e-01 
 4.8547063852416905e-01  4.9444890278730214e-01  5.0346743145182593e-01  5.1251919889409403e-01 
 5.2159685280314783e-01  5.3069269863851753e-01  5.3979867902243261e-01  5.4890634805590044e-01 
 5.5800684093254960e-01  5.6709083967988283e-01  5.7614853637011476e-01  5.8516959568913385e-01 
 5.9414311930038932e-01  6.0305761494950005e-01  6.1190097367578922e-01  6.2066045877294951e-01 
 6.2932271021334529e-01  6.3787376806076912e-01  6.4629911789304040e-01  6.5458376040043575e-01 
 6.6271230610168941e-01  6.7066909453870216e-01  6.7843833542421750e-01  6.8600426711718010e-01 
 6.9335132562982826e-01  7.0046431531775699e-01  7.0732857070044786e-01  7.1393009776626581e-01 
 7.2025568290412245e-01  7.2629295852804443e-01  7.3203041672250013e-01  7.3745736594452704e-01 
 7.4256383094672884e-01  7.4734040243048405e-01  7.5177805009101095e-01  7.5586792004236492e-01 
 7.5960114426424818e-01  7.6296869467425543e-01  7.6596131658536548e-01  7.6856957457063213e-01 
 7.7078403721807642e-01  7.7259561537692389e-01  7.7399605128929916e-01  7.7497853422346297e-01 
 7.7553839349386888e-01  7.7567379459000863e-01  7.7538634187426769e-01  7.7468147584985003e-01 
 7.7356854839127043e-01  7.7206046918273019e-01  7.7017284339220193e-01  7.6792256490183119e-01 
 7.6532588924539491e-01  7.6239608080801480e-01  7.5914080182196275e-01  7.5555947569568760e-01 
 7.5164539199187863e-01  7.4740187361526667e-01  7.4283596689073228e-01  7.3795501077360570e-01 
 7.3276662066733989e-01  7.2727867208307984e-01  7.2149928420712450e-01  7.1543680343915861e-01 
 7.0909978696072173e-01  7.0249698639104707e-01  6.9563733158294805e-01  6.8852991460622359e-01 
 6.8118397396538155e-01  6.7360887909399314e-01  6.6581411516229927e-01  6.5780926823200003e-01 
 6.4960401078788677e-01  6.4120808767176918e-01  6.3263130243984611e-01  6.2388350415988703e-01 
 6.1497457453790239e-01  6.0591441600234419e-01  5.9671293950718318e-01  5.8738005328943788e-01 
 5.7792565195965240e-01  5.6835960603312929e-01  5.5869175188400644e-01  5.4893188209789190e-01 
 5.3908973619253742e-01  5.2917499166972859e-01  5.1919725535521555e-01  5.0916605497724066e-01 
 4.9909083092823903e-01  4.8898092814883476e-01  4.7884558806864924e-01  4.6869394053503444e-01 
 4.5853499565904843e-01  4.4837763550823662e-01  4.3823060557851273e-01  4.2810250598305832e-01 
 4.1800178230498652e-01  4.0793671607281612e-01  3.9791541483358184e-01  3.8794580181757327e-01 
 3.7803560521083401e-01  3.6819234707608106e-01  3.5842333198870452e-01  3.4873563548095310e-01 
 3.3913609241299564e-01  3.2963128541297854e-01  3.2022753354812800e-01  3.1093088140414743e-01 
 3.0174708875961531e-01  2.9268162104506518e-01  2.8373964077254343e-01  2.7492600011066520e-01 
 2.6624523476293260e-01  2.5770155928402044e-01  2.4929886394090733e-01  2.4104071319429768e-01 
 2.3293034584210220e-01  2.2497067683215122e-01  2.1716430071707873e-01  2.0951349669162184e-01 
 2.0202023512242012e-01  1.9468618545357935e-01  1.8751272534837629e-01  1.8050095090892951e-01 
 1.7365168780167320e-01  1.6696550310709871e-01  1.6044271770744190e-01  1.5408341902561259e-01 
 1.4788747393248494e-01  1.4185454164738204e-01  1.3598408646789267e-01  1.3027539017965539e-01 
 1.2472756401403527e-01  1.1933956004123691e-01  1.1411018190783474e-01  1.0903809485040424e-01 
 1.0412183494029857e-01  9.9359817537996414e-02  9.4750344958189042e-02  9.0291613368219295e-02 
 8.5981718962010290e-02  8.1818663468660749e-02  7.7800359068970246e-02  7.3924632803940418e-02 
 7.0189230566566715e-02  6.6591820771931640e-02  6.3129997800834475e-02  5.9801285309168714e-02 
 5.6603139489363186e-02  5.3532952361879563e-02  5.0588055164538855e-02  4.7765721895884537e-02 
 4.5063173056434806e-02  4.2477579619059590e-02  4.0006067247311608e-02  3.7645720768754561e-02 
 3.5393588899489667e-02  3.3246689206431292e-02  3.1202013285585049e-02  2.9256532127726467e-02 
 2.7407201637484033e-02  2.5650968267865788e-02  2.3984774729651111e-02  2.2405565733690500e-02 
 2.0910293723881493e-02  1.9495924559272321e-02  1.8159443105237955e-02  1.6897858695827127e-02 
 1.5708210432052529e-02  1.4587572283960454e-02  1.3533057967652060e-02  1.2541825571932171e-02 
 1.1611081912844304e-02  1.0738086597935299e-02  9.9201557856181052e-03  9.1546656284154215e-03 
 8.4390553921312329e-03  7.7708302460812078e-03  7.1475637223953102e-03  6.5668998450720004e-03 
 6.0265549319051120e-03  5.5243190746172366e-03  5.0580573045186294e-03  4.6257104527710384e-03 
 4.2252957158778583e-03  3.8549069383529530e-03  3.5127146256499434e-03  3.1969657013716170e-03 
 2.9059830235362077e-03  2.6381646752648624e-03  2.3919830456837249e-03  2.1659837171164112e-03 
 1.9587841747892151e-03  1.7690723552932165e-03  1.5956050499555379e-03  1.4372061790765571e-03 
 1.2927649527012519e-03  1.1612339332206869e-03  1.0416270146534241e-03  9.3301733294532134e-04 
 8.3453512105846183e-04  7.4536552200395363e-04  6.6474637231708159e-04  5.9196596778405078e-04 
 5.2636082251450824e-04  4.6731343171983313e-04  4.1425004781006999e-04  3.6663847866832256e-04 
 3.2398591620582030e-04  2.8583680254907101e-04  2.5177074046688048e-04  2.2140045391428817e-04 
 1.9436980385636503e-04  1.7035186384102354e-04  1.4904705911968479e-04  1.3018137247067886e-04 
 1.1350461926508989e-04  9.8788793730500532e-05  8.5826487816502024e-05  7.4429383548311914e-05 
 6.4426819272473697e-05  5.5664429752132895e-05  4.8002859659249357e-05  4.1316549637451169e-05 
 3.5492593771934539e-05  3.0429667001466405e-05  2.6037020741512750e-05  2.2233544755930071e-05 
 1.8946893116448674e-05  1.6112671923089458e-05  1.3673686323271762e-05  1.1579244261131223e-05 
 9.7845143097921539e-06  8.2499348862571492e-06  6.9406721193365157e-06  5.8261236337342451e-06 
 4.8794655261044613e-06  4.0772398396394073e-06  3.3989798906054173e-06  2.8268708612871718e-06 
 2.3454431471550159e-06  1.9412960299124284e-06  1.6028493406578824e-06  1.3201208770353991e-06 
 1.0845274433711816e-06  8.8870749191941395e-07  7.2636345509570883e-07  5.9212197170006954e-07 
 4.8141032347661424e-07  3.9034751089507943e-07  3.1564853846543522e-07  2.5454073623987033e-07 
 2.0468980713083602e-07  1.6413626815832089e-07  1.3123996681863756e-07  1.0463198824768238e-07 
 8.3173127033845250e-08  6.5918137417306123e-08  5.2085053119744373e-08  4.1028940292153956e-08 
 3.2219514076594785e-08  2.5222111131731260e-08  1.9681567299279893e-08  1.5308601555076556e-08 
 1.1868354692214951e-08  9.1707740476017484e-09  7.0625742493270613e-09  5.4205386857961082e-09 
 4.1459574421104820e-09  3.1600250817833053e-09  2.4000461390781308e-09  1.8163177916330558e-09 
 1.3695781601677636e-09  1.0289252781832160e-09  7.7012622453572580e-10  5.7424843768417008e-10 
 4.2655604050176953e-10  3.1562329251728040e-10  2.3262523114794360e-10  1.7077232884651352e-10 
 1.2486172834617536e-10  9.0922458301841868e-11  6.5936097837641549e-11  4.7617759062607599e-11 
 3.4245087560964577e-11  2.4525326932980300e-11  1.7492428990870064e-11  1.2427781081611728e-11 
 8.7994226008719412e-12  6.2156829436800159e-12  -0.0000000000000000e+00  -0.0000000000000000e+00 
 -0.0000000000000000e+00  -0.0000000000000000e+00  -0.0000000000000000e+00  -0.0000000000000000e+00 
 -0.0000000000000000e+00  -0.0000000000000000e+00  -0.0000000000000000e+00  -0.0000000000000000e+00 
 -0.0000000000000000e+00  -0.0000000000000000e+00  -0.0000000000000000e+00  -0.0000000000000000e+00 
 -0.0000000000000000e+00  -0.0000000000000000e+00  -0.0000000000000000e+00  -0.0000000000000000e+00 
 -0.0000000000000000e+00  -0.0000000000000000e+00  -0.0000000000000000e+00  -0.0000000000000000e+00 
 -0.0000000000000000e+00  -0.0000000000000000e+00  -0.0000000000000000e+00  -0.0000000000000000e+00 
 -0.0000000000000000e+00  -0.0000000000000000e+00  -0.0000000000000000e+00  -0.0000000000000000e+00 
 -0.0000000000000000e+00  -0.0000000000000000e+00  -0.0000000000000000e+00  -0.0000000000000000e+00 
 -0.0000000000000000e+00  -0.0000000000000000e+00  -0.0000000000000000e+00  -0.0000000000000000e+00 
 -0.0000000000000000e+00  -0.0000000000000000e+00  -0.0000000000000000e+00  -0.0000000000000000e+00 
 -0.0000000000000000e+00  -0.0000000000000000e+00  -0.0000000000000000e+00  -0.0000000000000000e+00 
 -0.0000000000000000e+00  -0.0000000000000000e+00  -0.0000000000000000e+00  -0.0000000000000000e+00 
 -0.0000000000000000e+00  -0.0000000000000000e+00  -0.0000000000000000e+00  -0.0000000000000000e+00 
 -0.0000000000000000e+00  -0.0000000000000000e+00  -0.0000000000000000e+00  -0.0000000000000000e+00 
 -0.0000000000000000e+00  -0.0000000000000000e+00  -0.0000000000000000e+00  -0.0000000000000000e+00 
 -0.0000000000000000e+00  -0.0000000000000000e+00  -0.0000000000000000e+00  -0.0000000000000000e+00 
 -0.0000000000000000e+00  -0.0000000000000000e+00  -0.0000000000000000e+00  -0.0000000000000000e+00 
 -0.0000000000000000e+00  -0.0000000000000000e+00  -0.0000000000000000e+00  -0.0000000000000000e+00 
 -0.0000000000000000e+00  -0.0000000000000000e+00  -0.0000000000000000e+00  -0.0000000000000000e+00 
 -0.0000000000000000e+00  -0.0000000000000000e+00  -0.0000000000000000e+00  -0.0000000000000000e+00 
 -0.0000000000000000e+00  -0.0000000000000000e+00  -0.0000000000000000e+00  -0.0000000000000000e+00 
 -0.0000000000000000e+00  -0.0000000000000000e+00  -0.0000000000000000e+00  -0.0000000000000000e+00 
 -0.0000000000000000e+00  -0.0000000000000000e+00  -0.0000000000000000e+00  -0.0000000000000000e+00 
 -0.0000000000000000e+00 
</PP_PSWFC>


<PP_RHOATOM>
 1.6428541434459614e-10  1.6861284835469408e-10  1.7305427110113881e-10  1.7761268515643168e-10 
 1.8229117218373923e-10  1.8709289502021833e-10  1.9202109981522048e-10  1.9707911822481652e-10 
 2.0227036966412888e-10  2.0759836361899042e-10  2.1306670201849942e-10  2.1867908167006445e-10 
 2.2443929675859326e-10  2.3035124141151519e-10  2.3641891233136554e-10  2.4264641149771588e-10 
 2.4903794894027769e-10  2.5559784558505042e-10  2.6233053617543964e-10  2.6924057227032566e-10 
 2.7633262532109598e-10  2.8361148982973804e-10  2.9108208659011346e-10  2.9874946601461656e-10 
 3.0661881154845532e-10  3.1469544317387088e-10  3.2298482100666161e-10  3.3149254898744578e-10 
 3.4022437867014986e-10  3.4918621311029576e-10  3.5838411085570900e-10  3.6782429004234277e-10 
 3.7751313259799492e-10  3.8745718855675162e-10  3.9766318048708334e-10  4.0813800803657543e-10 
 4.1888875259637679e-10  4.2992268208851420e-10  4.4124725587930641e-10  4.5287012982221414e-10 
 4.6479916143350666e-10  4.7704241520427592e-10  4.8960816805237444e-10  5.0250491491795211e-10 
 5.1574137450639780e-10  5.2932649518255346e-10  5.4326946102018429e-10  5.5757969801080429e-10 
 5.7226688043604732e-10  5.8734093740789742e-10  6.0281205958118717e-10  6.1869070604292369e-10 
 6.3498761138307917e-10  6.5171379295163586e-10  6.6888055830679859e-10  6.8649951285938610e-10 
 7.0458256771860116e-10  7.2314194774446143e-10  7.4219019981233718e-10  7.6174020129519616e-10 
 7.8180516876927530e-10  8.0239866694907450e-10  8.2353461785769936e-10  8.4522731023878698e-10 
 8.6749140921632066e-10  8.9034196620892986e-10  9.1379442910531627e-10  9.3786465270773948e-10 
 9.6256890945058066e-10  9.8792390040125460e-10  1.0139467665509034e-09  1.0406551004024948e-09 
 1.0680669578641710e-09  1.0962008704558929e-09  1.1250758578376065e-09  1.1547114406674364e-09 
 1.1851276537985717e-09  1.2163450598237822e-09  1.2483847629767173e-09  1.2812684233993780e-09 
 1.3150182717854272e-09  1.3496571244092160e-09  1.3852083985507071e-09  1.4216961283266971e-09 
 1.4591449809390868e-09  1.4975802733511224e-09  1.5370279894029408e-09  1.5775147973779522e-09 
 1.6190680680319594e-09  1.6617158930971793e-09  1.7054871042737082e-09  1.7504112927212279e-09 
 1.7965188290641997e-09  1.8438408839239822e-09  1.8924094489918202e-09  1.9422573586569404e-09 
 1.9934183122043681e-09  2.0459268965974476e-09  2.0998186098605350e-09  2.1551298850776032e-09 
 2.2118981150230309e-09  2.2701616774412040e-09  2.3299599609920335e-09  2.3913333918799349e-09 
 2.4543234611842401e-09  2.5189727529095984e-09  2.5853249727752037e-09  2.6534249777624822e-09 
 2.7233188064410446e-09  2.7950537100935276e-09  2.8686781846603362e-09  2.9442420035258305e-09 
 3.0217962511682608e-09  3.1013933576960090e-09  3.1830871342936980e-09  3.2669328096019106e-09 
 3.3529870670553847e-09  3.4413080832046368e-09  3.5319555670471792e-09  3.6249908003947440e-09 
 3.7204766793039317e-09  3.8184777565981922e-09  3.9190602855100154e-09  4.0222922644726813e-09 
 4.1282434830920334e-09  4.2369855693292039e-09  4.3485920379262762e-09  4.4631383401076439e-09 
 4.5807019145906122e-09  4.7013622399397606e-09  4.8252008883004969e-09  4.9523015805480973e-09 
 5.0827502428895469e-09  5.2166350649564147e-09  5.3540465594281594e-09  5.4950776232259657e-09 
 5.6398236003187652e-09  5.7883823461836911e-09  5.9408542939647090e-09  6.0973425223739649e-09 
 6.2579528253820184e-09  6.4227937837439483e-09  6.5919768384096127e-09  6.7656163658679903e-09 
 6.9438297554761395e-09  7.1267374888255449e-09  7.3144632211991011e-09  7.5071338651740306e-09 
 7.7048796764274601e-09  7.9078343418020393e-09  8.1161350696920276e-09  8.3299226828102780e-09 
 8.5493417133991736e-09  8.7745405009499375e-09  9.0056712924961558e-09  9.2428903455496933e-09 
 9.4863580337481994e-09  9.7362389552861816e-09  9.9927020442024787e-09  1.0255920684599661e-08 
 1.0526072827872613e-08  1.0803341113025458e-08  1.1087912990158472e-08  1.1379980847208123e-08 
 1.1679742140026227e-08  1.1987399525886238e-08  1.2303161000506801e-08  1.2627240038685295e-08 
 1.2959855738636718e-08  1.3301232970135153e-08  1.3651602526558466e-08  1.4011201280938606e-08 
 1.4380272346123620e-08  1.4759065239159312e-08  1.5147836050001756e-08  1.5546847614675185e-08 
 1.5956369692991971e-08  1.6376679150955147e-08  1.6808060147966895e-08  1.7250804328969386e-08 
 1.7705211021648415e-08  1.8171587438833052e-08  1.8650248886227896e-08  1.9141518975619185e-08 
 1.9645729843698412e-08  2.0163222376652015e-08  2.0694346440668386e-08  2.1239461118519392e-08 
 2.1798934952374902e-08  2.2373146193016218e-08  2.2962483055616014e-08  2.3567343982258242e-08 
 2.4188137911375577e-08  2.4825284554287181e-08  2.5479214679023004e-08  2.6150370401627949e-08 
 2.6839205485141802e-08  2.7546185646458629e-08  2.8271788871271975e-08  2.9016505737320431e-08 
 2.9780839746150938e-08  3.0565307663625761e-08  3.1370439869403114e-08  3.2196780715627468e-08 
 3.3044888895073546e-08  3.3915337818992247e-08  3.4808716004914769e-08  3.5725627474678007e-08 
 3.6666692162939335e-08  3.7632546336459305e-08  3.8623843024434222e-08  3.9641252460172326e-08 
 4.0685462534409999e-08  4.1757179260577267e-08  4.2857127252327371e-08  4.3986050213652266e-08 
 4.5144711441918088e-08  4.6333894344160739e-08  4.7554402966990064e-08  4.8807062540463952e-08 
 5.0092720036299154e-08  5.1412244740797158e-08  5.2766528842874638e-08  5.4156488037595592e-08 
 5.5583062145614627e-08  5.7047215748951965e-08  5.8549938843529306e-08  6.0092247508912035e-08 
 6.1675184595707572e-08  6.3299820431089848e-08  6.4967253542925640e-08  6.6678611402995727e-08 
 6.8435051189812265e-08  7.0237760571553136e-08  7.2087958509641047e-08  7.3986896083514649e-08 
 7.5935857337150317e-08  7.7936160147907730e-08  7.9989157118292694e-08  8.2096236491236101e-08 
 8.4258823089516381e-08  8.6478379279958974e-08  8.8756405963068088e-08  9.1094443588764807e-08 
 9.3494073198916930e-08  9.5956917497372737e-08  9.8484641948221680e-08  1.0107895590303076e-07 
 1.0374161375782014e-07  1.0647441614056454e-07  1.0927921113002778e-07  1.1215789550675863e-07 
 1.1511241603709509e-07  1.1814477079105590e-07  1.2125701049500931e-07  1.2445123992003956e-07 
 1.2772961930695914e-07  1.3109436582893248e-07  1.3454775509270467e-07  1.3809212267945953e-07 
 1.4172986572635399e-07  1.4546344454980536e-07  1.4929538431163454e-07  1.5322827672920320e-07 
 1.5726478183070377e-07  1.6140762975680225e-07  1.6565962260986038e-07  1.7002363635199213e-07 
 1.7450262275325519e-07  1.7909961139129868e-07  1.8381771170383369e-07  1.8866011509532574e-07 
 1.9363009709934228e-07  1.9873101959803694e-07  2.0396633310027772e-07  2.0933957907997751e-07 
 2.1485439237622286e-07  2.2051450365684023e-07  2.2632374194707611e-07  2.3228603722512965e-07 
 2.3840542308630249e-07  2.4468603947758670e-07  2.5113213550456695e-07  2.5774807231254948e-07 
 2.6453832604389301e-07  2.7150749087356517e-07  2.7866028212499792e-07  2.8600153946838192e-07 
 2.9353623020358665e-07  3.0126945262995531e-07  3.0920643950528612e-07  3.1735256159637260e-07 
 3.2571333132353533e-07  3.3429440650164563e-07  3.4310159418021696e-07  3.5214085458518913e-07 
 3.6141830516512246e-07  3.7094022474458148e-07  3.8071305778755879e-07  3.9074341877387950e-07 
 4.0103809669159237e-07  4.1160405964844143e-07  4.2244845960559880e-07  4.3357863723692033e-07 
 4.4500212691706474e-07  4.5672666184193026e-07  4.6876017928494796e-07  4.8111082599282990e-07 
 4.9378696372454804e-07  5.0679717493733066e-07  5.2015026862363799e-07  5.3385528630313847e-07 
 5.4792150817385708e-07  5.6235845942673328e-07  5.7717591672799088e-07  5.9238391487380228e-07 
 6.0799275362188049e-07  6.2401300470473134e-07  6.4045551902946664e-07  6.5733143406915805e-07 
 6.7465218145089993e-07  6.9242949474587962e-07  7.1067541746685185e-07  7.2940231127863993e-07 
 7.4862286442736756e-07  7.6835010039435351e-07  7.8859738678066771e-07  8.0937844442864492e-07 
 8.3070735678667904e-07  8.5259857952392845e-07  8.7506695040164382e-07  8.9812769940808314e-07 
 9.2179645916414458e-07  9.4608927560702043e-07  9.7102261895946576e-07  9.9661339499235734e-07 
 1.0228789565885465e-06  1.0498371156161870e-06  1.0775061551199232e-06  1.1059048418386223e-06 
 1.1350524390584926e-06  1.1649687198107818e-06  1.1956739804233863e-06  1.2271890544361095e-06 
 1.2595353268894157e-06  1.2927347489969713e-06  1.3268098532124157e-06  1.3617837687011800e-06 
 1.3976802372284954e-06  1.4345236294749541e-06  1.4723389617914064e-06  1.5111519134052686e-06 
 1.5509888440906652e-06  1.5918768123152016e-06  1.6338435938765052e-06  1.6769177010420754e-06 
 1.7211284022063303e-06  1.7665057420792440e-06  1.8130805624212247e-06  1.8608845233394471e-06 
 1.9099501251612257e-06  1.9603107309005073e-06  2.0120005893339757e-06  2.0650548587038224e-06 
 2.1195096310646325e-06  2.1754019572924849e-06  2.2327698727747590e-06  2.2916524237997892e-06 
 2.3520896946660135e-06  2.4141228355308938e-06  2.4777940910204318e-06  2.5431468296207936e-06 
 2.6102255738741612e-06  2.6790760314015435e-06  2.7497451267760915e-06  2.8222810342710777e-06 
 2.8967332115074003e-06  2.9731524340263662e-06  3.0515908308141021e-06  3.1321019208049284e-06 
 3.2147406503917915e-06  3.2995634319726290e-06  3.3866281835625956e-06  3.4759943695028721e-06 
 3.5677230422977978e-06  3.6618768856130714e-06  3.7585202584686622e-06  3.8577192406613276e-06 
 3.9595416794525316e-06  4.0640572375588270e-06  4.1713374424828844e-06  4.2814557372245496e-06 
 4.3944875324125602e-06  4.5105102598989759e-06  4.6296034278594932e-06  4.7518486774443961e-06 
 4.8773298410263368e-06  5.0061330020925632e-06  5.1383465568306254e-06  5.2740612774586955e-06 
 5.4133703773526479e-06  5.5563695780242525e-06  5.7031571780065740e-06  5.8538341237041478e-06 
 6.0085040822680668e-06  6.1672735165574598e-06  6.3302517622514607e-06  6.4975511071776034e-06 
 6.6692868729248952e-06  6.8455774988122483e-06  7.0265446282850656e-06  7.2123131978159518e-06 
 7.4030115283870674e-06  7.5987714196354820e-06  7.7997282467449149e-06  8.0060210601704339e-06 
 8.2177926882859008e-06  8.4351898430466815e-06  8.6583632287639297e-06  8.8874676540897150e-06 
 9.1226621473161474e-06  9.3641100750952981e-06  9.6119792646902249e-06  9.8664421298719865e-06 
 1.0127675800581186e-05  1.0395862256477374e-05  1.0671188464503721e-05  1.0953846520599156e-05 
 1.1244033795695715e-05  1.1541953086142839e-05  1.1847812768706828e-05  1.2161826960297987e-05 
 1.2484215682585217e-05  1.2815205031662391e-05  1.3155027352938277e-05  1.3503921421427499e-05 
 1.3862132627627749e-05  1.4229913169174031e-05  1.4607522248470499e-05  1.4995226276505948e-05 
 1.5393299083068316e-05  1.5802022133581706e-05  1.6221684752798743e-05  1.6652584355589009e-05 
 1.7095026685075598e-05  1.7549326058380546e-05  1.8015805620251000e-05  1.8494797604849239e-05 
 1.8986643605999856e-05  1.9491694856201234e-05  2.0010312514719391e-05  2.0542867965095885e-05 
 2.1089743122415766e-05  2.1651330750694828e-05  2.2228034790760806e-05  2.2820270699019002e-05 
 2.3428465797509515e-05  2.4053059635678589e-05  2.4694504364307383e-05  2.5353265122057174e-05 
 2.6029820435111986e-05  2.6724662630419299e-05  2.7438298263049754e-05  2.8171248558222349e-05 
 2.8924049868560923e-05  2.9697254147177774e-05  3.0491429437199437e-05  3.1307160378383924e-05 
 3.2145048731500854e-05  3.3005713921179816e-05  3.3889793597961198e-05  3.4797944220317520e-05 
 3.5730841657446508e-05  3.6689181813673634e-05  3.7673681275339735e-05  3.8685077981088309e-05 
 3.9724131916506691e-05  4.0791625834122741e-05  4.1888365999799799e-05  4.3015182966622709e-05 
 4.4172932377416915e-05  4.5362495797095596e-05  4.6584781576082615e-05  4.7840725746122110e-05 
 4.9131292949837268e-05  5.0457477405474739e-05  5.1820303908328138e-05  5.3220828870410745e-05 
 5.4660141400019455e-05  5.6139364422903745e-05  5.7659655846845973e-05  5.9222209771528235e-05 
 6.0828257745667902e-05  6.2479070073481830e-05  6.4175957172647974e-05  6.5920270986031268e-05 
 6.7713406449552163e-05  6.9556803018686820e-05  7.1451946256209881e-05  7.3400369483917741e-05 
 7.5403655501196233e-05  7.7463438373445088e-05  7.9581405293504930e-05  8.1759298519400457e-05 
 8.3998917391857661e-05  8.6302120435238064e-05  8.8670827545699152e-05  9.1107022270581125e-05 
 9.3612754183218383e-05  9.6190141357576197e-05  9.8841372947333129e-05  1.0156871187425545e-04 
 1.0437449763095234e-04  1.0726114920334746e-04  1.1023116811847546e-04  1.1328714162347892e-04 
 1.1643174600198769e-04  1.1966775003435864e-04  1.2299801860858232e-04  1.2642551648900740e-04 
 1.2995331225038186e-04  1.3358458238509849e-04  1.3732261559191582e-04  1.4117081725485391e-04 
 1.4513271412139130e-04  1.4921195918956185e-04  1.5341233681402092e-04  1.5773776804167523e-04 
 1.6219231618799603e-04  1.6678019266570110e-04  1.7150576307808983e-04  1.7637355358993603e-04 
 1.8138825758950020e-04  1.8655474265591264e-04  1.9187805784691260e-04  1.9736344132268604e-04 
 2.0301632832235415e-04  2.0884235951051152e-04  2.1484738971210422e-04  2.2103749705487555e-04 
 2.2741899253959542e-04  2.3399843005932991e-04  2.4078261689009685e-04  2.4777862467641106e-04 
 2.5499380093642397e-04  2.6243578111265193e-04  2.7011250119561429e-04  2.7803221094912801e-04 
 2.8620348776747497e-04  2.9463525119625153e-04  3.0333677815032198e-04  3.1231771886406712e-04 
 3.2158811361090946e-04  3.3115841023105232e-04  3.4103948250836590e-04  3.5124264943950227e-04 
 3.6177969544054977e-04  3.7266289153890786e-04  3.8390501760053998e-04  3.9551938564538920e-04 
 4.0751986430649179e-04  4.1992090449120942e-04  4.3273756630609212e-04  4.4598554731005424e-04 
 4.5968121216397327e-04  4.7384162374835556e-04  4.8848457582448788e-04  5.0362862731843233e-04 
 5.1929313831140529e-04  5.3549830782444077e-04  5.5226521348987131e-04  5.6961585320702314e-04 
 5.8757318888462298e-04  6.0616119237784892e-04  6.2540489373355947e-04  6.4533043186331491e-04 
 6.6596510777001548e-04  6.8733744046066728e-04  7.0947722568475390e-04  7.3241559764504168e-04 
 7.5618509383542796e-04  7.8081972316855258e-04  8.0635503756456357e-04  8.3282820718138357e-04 
 8.6027809947646040e-04  8.8874536229997141e-04  9.1827251123003794e-04  9.4890402137167611e-04 
 9.8068642385290409e-04  1.0136684072638634e-03  1.0479009242977196e-03  1.0834373038659869e-03 
 1.1203333689751762e-03  1.1586475606670619e-03  1.1984410683407868e-03  1.2397779667919324e-03 
 1.2827253603214797e-03  1.3273535342863206e-03  1.3737361144826690e-03  1.4219502347745392e-03 
 1.4720767134013381e-03  1.5242002384216681e-03  1.5784095627746353e-03  1.6347977094656834e-03 
 1.6934621874107490e-03  1.7545052185008935e-03  1.8180339764795295e-03  1.8841608382556855e-03 
 1.9530036483098056e-03  2.0246859968836655e-03  2.0993375126822766e-03  2.1770941708546413e-03 
 2.2580986170606288e-03  2.3425005084740662e-03  2.4304568726172316e-03  2.5221324849691463e-03 
 2.6177002663400829e-03  2.7173417010569593e-03  2.8212472770595526e-03  2.9296169490653830e-03 
 3.0426606260221421e-03  3.1605986841305419e-03  3.2836625067881754e-03  3.4120950528751305e-03 
 3.5461514548772613e-03  3.6860996484205611e-03  3.8322210348724940e-03  3.9848111787520405e-03 
 4.1441805417807061e-03  4.3106552555016876e-03  4.4845779344934895e-03  4.6663085323089531e-03 
 4.8562252423795874e-03  5.0547254462395656e-03  5.2622267115437311e-03  5.4791678424789105e-03 
 5.7060099852992065e-03  5.9432377918528286e-03  6.1913606441109650e-03  6.4509139428585429e-03 
 6.7224604638629858e-03  7.0065917849981927e-03  7.3039297879714032e-03  7.6151282384753580e-03 
 7.9408744487715101e-03  8.2818910268995446e-03  8.6389377169052168e-03  9.0128133346828003e-03 
 9.4043578042384297e-03  9.8144542993996789e-03  1.0244031496220430e-02  1.0694065941562206e-02 
 1.1165584543571016e-02  1.1659667190012622e-02  1.2177449500680042e-02  1.2720125720342028e-02 
 1.3288951758962265e-02  1.3885248386183324e-02  1.4510404587339919e-02  1.5165881088534703e-02 
 1.5853214058585689e-02  1.6574018995928030e-02  1.7329994808826681e-02  1.8122928097529464e-02 
 1.8954697647259530e-02  1.9827279141211310e-02  2.0742750102971969e-02  2.1703295078041335e-02 
 2.2711211064362465e-02  2.3768913202001852e-02  2.4878940732330865e-02  2.6043963237252915e-02 
 2.7266787169195148e-02  2.8550362682732033e-02  2.9897790778833158e-02  3.1312330772817122e-02 
 3.2797408097157976e-02  3.4356622450306504e-02  3.5993756302675442e-02  3.7712783770871339e-02 
 3.9517879871144732e-02  4.1413430162864542e-02  4.3404040792600615e-02  4.5494548949114949e-02 
 4.7690033739212018e-02  4.9995827493978087e-02  5.2417527514445152e-02  5.4961008265136932e-02 
 5.7632434023295702e-02  6.0438271990829448e-02  6.3385305875177683e-02  6.6480649944327494e-02 
 6.9731763560148721e-02  7.3146466193024201e-02  7.6732952919430955e-02  8.0499810402649530e-02 
 8.4456033355159887e-02  8.8611041479458780e-02  9.2974696882034663e-02  9.7557321952988274e-02 
 1.0236971770127977e-01  1.0742318253279835e-01  1.1272953145528283e-01  1.1830111569058563e-01 
 1.2415084267075120e-01  1.3029219638980938e-01  1.3673925807800938e-01  1.4350672715924886e-01 
 1.5060994244570181e-01  1.5806490351581423e-01  1.6588829221292833e-01  1.7409749419151763e-01 
 1.8271062042624894e-01  1.9174652858558164e-01  2.0122484415619840e-01  2.1116598118693253e-01 
 2.2159116250083749e-01  2.3252243920134069e-01  2.4398270927281410e-01  2.5599573504716044e-01 
 2.6858615927592899e-01  2.8177951951190017e-01  2.9560226046492272e-01  3.1008174395399335e-01 
 3.2524625603127100e-01  3.4112501080407998e-01  3.5774815042838715e-01  3.7514674069229004e-01 
 3.9335276155147653e-01  4.1239909192148505e-01  4.3231948797524655e-01  4.5314855414028565e-01 
 4.7492170594033312e-01  4.9767512378292095e-01  5.2144569676064079e-01  5.4627095551193938e-01 
 5.7218899318081440e-01  5.9923837352697495e-01  6.2745802527230665e-01  6.5688712182937148e-01 
 6.8756494564622184e-01  7.1953073652189237e-01  7.5282352340040470e-01  7.8748193933916300e-01 
 8.2354401956969026e-01  8.6104698282282510e-01  9.0002699637254546e-01  9.4051892555587180e-01 
 9.8255606884177449e-01  1.0261698798367818e+00  1.0713896779146865e+00  1.1182423494231517e+00 
 1.1667520416309123e+00  1.2169398517126120e+00  1.2688235131000811e+00  1.3224170814357867e+00 
 1.3777306221246615e+00  1.4347699010776083e+00  1.4935360796634789e+00  1.5540254141359726e+00 
 1.6162289588904342e+00  1.6801322718616170e+00  1.7457151192448170e+00  1.8129511755781673e+00 
 1.8818077141546188e+00  1.9522452818516403e+00  2.0242173519089395e+00  2.0976699480983427e+00 
 2.1725412342742416e+00  2.2487610646224931e+00  2.3262504921806073e+00  2.4049212364892321e+00 
 2.4846751156073816e+00  2.5654034531602008e+00  2.6469864774683005e+00  2.7292927368926607e+00 
 2.8121785629437355e+00  2.8954876199251371e+00  2.9790505862449890e+00  3.0626850172370363e+00 
 3.1461954415032394e+00  3.2293737415030748e+00  3.3119998635078303e+00  3.3938428914087542e+00 
 3.4746625028045921e+00  3.5542108043153355e+00  3.6322345167643100e+00  3.7084774510128273e+00 
 3.7826831838540125e+00  3.8545978132681951e+00  3.9239726469750744e+00  3.9905666615130340e+00 
 4.0541485650888482e+00  4.1144983099013555e+00  4.1714079313971641e+00  4.2246816443118078e+00 
 4.2741351976130550e+00  4.3195945791640886e+00  4.3608942596038407e+00  4.3978752640145373e+00 
 4.4303834469697598e+00  4.4582684069648710e+00  4.4813834946034703e+00  4.4995873307983256e+00 
 4.5127471455168848e+00  4.5207440691774146e+00  4.5234802614454743e+00  4.5208874609039489e+00 
 4.5129362115246874e+00  4.4996447080078834e+00  4.4810859514305115e+00  4.4573917730112500e+00 
 4.4287523171878131e+00  4.3954098123640479e+00  4.3576459124573921e+00  4.3157625480022759e+00 
 4.2700570308955932e+00  4.2207930278321459e+00  4.1681698440191646e+00  4.1122931164225562e+00 
 4.0531992288338934e+00  3.9910340117597785e+00  3.9259848117104519e+00  3.8582425724564731e+00 
 3.7880010239639175e+00  3.7154558842392911e+00  3.6408040781870659e+00  3.5642429772879227e+00 
 3.4859696635932886e+00  3.4061802207143232e+00  3.3250690571782107e+00  3.2428282595504787e+00 
 3.1596469826099156e+00  3.0757108758405791e+00  2.9912015482333549e+00  2.9062960725581308e+00 
 2.8211665299458319e+00  2.7359795953104662e+00  2.6508961638455206e+00  2.5660710185452236e+00 
 2.4816525376904486e+00  2.3977824455787897e+00  2.3145955979823842e+00  2.2322198090922529e+00 
 2.1507757149043618e+00  2.0703766724560388e+00  1.9911286934196468e+00  1.9131304104300828e+00 
 1.8364730744165161e+00  1.7612405811245586e+00  1.6875095249522156e+00  1.6153492781815459e+00 
 1.5448220936679276e+00  1.4759832290500312e+00  1.4088810905657390e+00  1.3435573946017512e+00 
 1.2800473451665602e+00  1.2183798255564122e+00  1.1585776025800243e+00  1.1006575418174784e+00 
 1.0446308325085736e+00  9.9050322079214159e-01  9.3827525014560575e-01  8.8794250799840035e-01 
 8.3949587760827671e-01  7.9292179439076982e-01  7.4820250597412086e-01  7.0531633531089044e-01 
 6.6423794621032295e-01  6.2493861066117073e-01  5.8738647729369386e-01  5.5154684028445589e-01 
 5.1738240794270374e-01  4.8485357013853375e-01  4.5391866364780897e-01  4.2453423440460986e-01 
 3.9665529557676904e-01  3.7023558032085313e-01  3.4522778803606019e-01  3.2158382292637727e-01 
 2.9925502369996543e-01  2.7819238328499979e-01  2.5834675752119213e-01  2.3966906189350784e-01 
 2.2211045550531541e-01  2.0562251163756673e-01  1.9015737440320835e-01  1.7566790117624476e-01 
 1.6210779064721503e-01  1.4943169652613103e-01  1.3759532707563088e-01  1.2655553080730347e-01 
 1.1627036880977519e-01  1.0669917429584176e-01  9.7802600056140304e-02  8.9542654587653037e-02 
 8.1882727726467694e-02  7.4787606655943042e-02  6.8223483184469622e-02  6.2157953192496368e-02 
 5.6560009137851648e-02  5.1400026483337691e-02  4.6649744873047842e-02  4.2282244835931029e-02 
 3.8271920739010590e-02  3.4594450650596346e-02  3.1226763708047552e-02  2.8147005517304303e-02 
 2.5334502044516399e-02  2.2769722395463494e-02  2.0434240817624138e-02  1.8310698203937971e-02 
 1.6382763327431448e-02  1.4635093992494557e-02  1.3053298251944283e-02  1.1623895809016070e-02 
 1.0334279699754083e-02  9.1726783333797822e-03  8.1281179554041523e-03  7.1903855897142953e-03 
 6.3499925107665970e-03  5.5981382945208477e-03  4.9266754960611402e-03  4.3280750022565099e-03 
 3.7953921087004500e-03  3.3222333710280602e-03  2.9027242811490881e-03  2.5314778186728533e-03 
 2.2035639266572743e-03  1.9144799586997365e-03  1.6601221412908325e-03  1.4367580913230748e-03 
 1.2410004237831868e-03  1.0697814790901466e-03  9.2032919342416807e-04  7.9014412888715941e-04 
 6.7697767360721660e-04  5.7881141510650574e-04  4.9383768354051055e-04  4.2044125491856566e-04 
 3.5718219824466840e-04  3.0277984476830575e-04  2.5609785228249447e-04  2.1613033270625120e-04 
 1.8198900707898992e-04  1.5289134859573057e-04  1.2814967143039485e-04  1.0716112082244013e-04 
 8.9398518221019984e-05  7.4402014162764030e-05  6.1771500968748041e-05  5.1159737242167531e-05 
 4.2266136485519770e-05  3.4831172887071276e-05  2.8631358402131931e-05  2.3474746626205417e-05 
 1.9196920576341181e-05  1.5657423317597111e-05  1.2736592349417331e-05  1.0332760760776934e-05 
 8.3597903352385814e-06  6.7449040031856271e-06  5.4267872676691975e-06  4.3539304454491080e-06 
 3.4831857425028052e-06  2.7785153036720574e-06  2.2099084227836868e-06  1.7524480593078822e-06 
 1.3855086701944305e-06  1.0920691234862480e-06  8.5812610866346326e-07  6.7219499464067163e-07 
 5.2488650907842755e-07  4.0854892299841780e-07  3.1696662483523457e-07  2.4510706140618050e-07 
 1.8890901415323333e-07  1.4510607244974082e-07  1.1107996733887915e-07  8.4739144709768288e-08 
 6.4418592755917843e-08  4.8797500811618888e-08  3.6831821503106900e-08  2.7699241634544108e-08 
 2.0754445204819318e-08  1.5492880010805404e-08  1.1521522723282792e-08  8.5353810756161787e-09 
 6.2986804804197148e-09  4.6298602195996641e-09  3.3896552064223421e-09  2.4716667025510062e-09 
 1.7949324471259327e-09  1.2980962439623884e-09  9.3485166668291075e-10  6.7039639564502278e-10 
 4.7868473838152556e-10  3.4030780133210470e-10  2.4086504320420290e-10  1.6971881414794013e-10 
 1.1904605315014257e-10  8.3119500727201840e-11  5.7765365598353547e-11  3.9956019363989435e-11 
 2.7505531881673642e-11  1.8843159260424084e-11  1.2845634416854091e-11  8.7135980571502938e-12 
 5.8810001920499475e-12  3.9490057435725953e-12  2.6380197275964747e-12  1.7530423511462089e-12 
 1.1587796058027395e-12  7.6185595298740724e-13  4.9817002865785558e-13  3.2395494723367577e-13 
 2.0948959349369262e-13  1.3470357656985048e-13  8.6119646438335829e-14  5.4739265815759758e-14 
 3.4588845796635912e-14  2.1726004202834269e-14  1.3564263792432967e-14  8.4168697074856722e-15 
 5.1904854366594475e-15  3.1807744497070098e-15  1.9368204567804181e-15  1.1717664078604617e-15 
 7.0428921550110328e-16  4.2051548316082878e-16  2.4939977513628855e-16  1.4691119822106098e-16 
 8.5944815558956447e-17  4.9928792587497925e-17  2.8801107348519211e-17  1.6495051601013903e-17 
 9.3787216840425822e-18  5.2934361404220429e-18  2.9654720085882554e-18  1.6488063409135508e-18 
 9.0975027844273622e-19  4.9809031389724377e-19  2.7057249083317096e-19  1.4581594149830878e-19 
 7.7952256027970453e-20  4.1334467118250865e-20  2.1737844990275192e-20  1.1337254890722741e-20 
 5.8636301102906538e-21  3.0074583058478446e-21  1.5299253600031575e-21  7.7224871306233180e-22 
 3.8714919054367956e-22  1.9317357228177334e-22  0.0000000000000000e+00  0.0000000000000000e+00 
 0.0000000000000000e+00  0.0000000000000000e+00  0.0000000000000000e+00  0.0000000000000000e+00 
 0.0000000000000000e+00  0.0000000000000000e+00  0.0000000000000000e+00  0.0000000000000000e+00 
 0.0000000000000000e+00  0.0000000000000000e+00  0.0000000000000000e+00  0.0000000000000000e+00 
 0.0000000000000000e+00  0.0000000000000000e+00  0.0000000000000000e+00  0.0000000000000000e+00 
 0.0000000000000000e+00  0.0000000000000000e+00  0.0000000000000000e+00  0.0000000000000000e+00 
 0.0000000000000000e+00  0.0000000000000000e+00  0.0000000000000000e+00  0.0000000000000000e+00 
 0.0000000000000000e+00  0.0000000000000000e+00  0.0000000000000000e+00  0.0000000000000000e+00 
 0.0000000000000000e+00  0.0000000000000000e+00  0.0000000000000000e+00  0.0000000000000000e+00 
 0.0000000000000000e+00  0.0000000000000000e+00  0.0000000000000000e+00  0.0000000000000000e+00 
 0.0000000000000000e+00  0.0000000000000000e+00  0.0000000000000000e+00  0.0000000000000000e+00 
 0.0000000000000000e+00  0.0000000000000000e+00  0.0000000000000000e+00  0.0000000000000000e+00 
 0.0000000000000000e+00  0.0000000000000000e+00  0.0000000000000000e+00  0.0000000000000000e+00 
 0.0000000000000000e+00  0.0000000000000000e+00  0.0000000000000000e+00  0.0000000000000000e+00 
 0.0000000000000000e+00  0.0000000000000000e+00  0.0000000000000000e+00  0.0000000000000000e+00 
 0.0000000000000000e+00  0.0000000000000000e+00  0.0000000000000000e+00  0.0000000000000000e+00 
 0.0000000000000000e+00  0.0000000000000000e+00  0.0000000000000000e+00  0.0000000000000000e+00 
 0.0000000000000000e+00  0.0000000000000000e+00  0.0000000000000000e+00  0.0000000000000000e+00 
 0.0000000000000000e+00  0.0000000000000000e+00  0.0000000000000000e+00  0.0000000000000000e+00 
 0.0000000000000000e+00  0.0000000000000000e+00  0.0000000000000000e+00  0.0000000000000000e+00 
 0.0000000000000000e+00  0.0000000000000000e+00  0.0000000000000000e+00  0.0000000000000000e+00 
 0.0000000000000000e+00  0.0000000000000000e+00  0.0000000000000000e+00  0.0000000000000000e+00 
 0.0000000000000000e+00  0.0000000000000000e+00  0.0000000000000000e+00  0.0000000000000000e+00 
 0.0000000000000000e+00  0.0000000000000000e+00  0.0000000000000000e+00  0.0000000000000000e+00 
 0.0000000000000000e+00 
</PP_RHOATOM>
