  <PP_INFO>

############################################################
#    Opium Parameter File                                  #
############################################################
#-----------------------------------------------------------
#Command line   : ../../../opium ti ti.log all ke rpt upf 
 
#Opium version  : 3.7 
#Compile Host   : onefish 
#Compile OS     : Linux 2.6.37-ARCH Intel(R) Core(TM)2 Duo CPU E7500 @ 2.93GHz 
#Compile Date   : Fri Jul 20 04:33:21 EDT 2012 
#-----------------------------------------------------------
#Execution Host : thidwick 
#Execution Date : Fri May 16 15:36:51 2014
 
#-----------------------------------------------------------
############################################################
[Atom]
	Ti                # element
	7                 # norb: number of orbitals
	# reference configuration
	100  2.00  -135.0
	200  2.00   -19.4
	210  6.00   -19.4
        300  2.00   -13.0
 	310  6.00    -6.0
	320  0.00   -6.0
	400  0.00    -6.0
        

  [Pseudo]
  4 1.48 1.72 1.84 1.75
  opt
  
  [XC]
  pbesol

 [Optinfo]
  7.070 10       # rc[a.u.] Qc[sqrt(Ry)] Nb
  7.070 10
  7.070 10
  7.070 10

       [Configs]
       6                 # number of valence configurations
       #
       300 2.00   -1.4   # test configuration
       310 6.00   -0.4   # test configuration
       320 0.00   -0.4   # test configuration
       400 0.00   -0.4   # test configuration
       #
       300 2.00   -1.4   # test configuration
       310 6.00   -0.4   # test configuration
       320 1.00   -0.4   # test configuration
       400 0.00   -0.4   # test configuration
       #
       300 2.00   -1.4   # test configuration
       310 6.00   -0.4   # test configuration
       320 1.00   -0.4   # test configuration
       400 1.00   -0.4   # test configuration
       #
       300 2.00   -1.4   # test configuration
       310 6.00   -0.4   # test configuration
       320 1.00   -0.4   # test configuration
       400 2.00   -0.4   # test configuration
       #
       300 2.00   -1.4   # test configuration
       310 6.00   -0.4   # test configuration
       320 1.50   -0.4   # test configuration
       400 1.50   -0.4   # test configuration
       #
       300 2.00   -1.4   # test configuration
       310 6.00   -0.4   # test configuration
       320 2.00   -0.4   # test configuration
       400 2.00   -0.4   # test configuration

 [KBdesign]
 s                 # local orbital
 1                 # number of aug. operators
 au 0.01 1.41 2.65  # unit(gp or au)  left  right  height(Ry)

############################################################
  </PP_INFO>



<PP_HEADER>
   0         Version Number
   Ti        Element
   NC        Norm - Conserving pseudopotential
    F      Nonlinear Core Correction
SLA PW PSX PSC PBEsol    Exchange-Correlation functional
 12          Z valence
 0          Total energy
 0.000000   0.000000     Suggested cutoff for wfc and rho
 2           Max angular momentum component
 1156           Number of points in mesh
 3  3     Number of Wavefuncitons, Number of Projectors
 Wavefunctions         nl  l   occ
                       S  0  2.000000
                       P  1  6.000000
                       D  2  0.000000
</PP_HEADER>
<PP_MESH>
  <PP_R>
 3.5688292775180416e-05  3.6155269352441679e-05  3.6628356256276550e-05  3.7107633439497763e-05 
 3.7593181901090000e-05  3.8085083699898973e-05  3.8583421968499381e-05  3.9088280927244740e-05 
 3.9599745898500691e-05  4.0117903321064714e-05  4.0642840764774494e-05  4.1174646945307407e-05 
 4.1713411739173713e-05  4.2259226198905909e-05  4.2812182568446800e-05  4.3372374298738858e-05 
 4.3939896063517847e-05  4.4514843775312764e-05  4.5097314601655361e-05  4.5687406981501605e-05 
 4.6285220641868161e-05  4.6890856614686499e-05  4.7504417253877498e-05  4.8126006252649555e-05 
 4.8755728661022819e-05  4.9393690903583137e-05  5.0040000797467935e-05  5.0694767570587540e-05 
 5.1358101880085028e-05  5.2030115831037499e-05  5.2710922995402129e-05  5.3400638431210069e-05 
 5.4099378702011636e-05  5.4807261896575531e-05  5.5524407648846535e-05  5.6250937158163665e-05 
 5.6986973209743187e-05  5.7732640195429671e-05  5.8488064134718444e-05  5.9253372696053242e-05 
 6.0028695218402482e-05  6.0814162733117682e-05  6.1609907986078373e-05  6.2416065460126245e-05 
 6.3232771397793156e-05  6.4060163824326412e-05  6.4898382571015368e-05  6.5747569298823245e-05 
 6.6607867522328206e-05  6.7479422633977588e-05  6.8362381928659753e-05  6.9256894628596873e-05 
 7.0163111908564337e-05  7.1081186921439338e-05  7.2011274824084157e-05  7.2953532803568061e-05 
 7.3908120103732228e-05  7.4875198052102405e-05  7.5854930087153666e-05  7.6847481785931670e-05 
 7.7853020892035919e-05  7.8871717343968647e-05  7.9903743303854838e-05  8.0949273186538007e-05 
 8.2008483689056803e-05  8.3081553820507181e-05  8.4168664932295352e-05  8.5270000748786641e-05 
 8.6385747398355411e-05  8.7516093444840875e-05  8.8661229919415277e-05  8.9821350352868359e-05 
 9.0996650808314569e-05  9.2187329914328228e-05  9.3393588898512181e-05  9.4615631621505737e-05 
 9.5853664611437789e-05  9.7107897098830054e-05  9.8378541051958240e-05  9.9665811212674646e-05 
 1.0096992513270027e-04  1.0229110321039150e-04  1.0362956872798801e-04  1.0498554788934796e-04 
 1.0635926985817696e-04  1.0775096679675735e-04  1.0916087390518409e-04  1.1058922946111436e-04 
 1.1203627486003654e-04  1.1350225465606721e-04  1.1498741660328114e-04  1.1649201169758217e-04 
 1.1801629421912236e-04  1.1956052177527578e-04  1.2112495534417493e-04  1.2270985931881625e-04 
 1.2431550155174380e-04  1.2594215340031649e-04  1.2759008977256838e-04  1.2925958917366857e-04 
 1.3095093375298944e-04  1.3266440935179042e-04  1.3440030555152602e-04  1.3615891572278554e-04 
 1.3794053707487361e-04  1.3974547070603929e-04  1.4157402165436189e-04  1.4342649894930396e-04 
 1.4530321566393739e-04  1.4720448896785374e-04  1.4913064018076658e-04  1.5108199482681531e-04 
 1.5305888268957971e-04  1.5506163786781340e-04  1.5709059883190849e-04  1.5914610848109700e-04 
 1.6122851420140194e-04  1.6333816792434637e-04  1.6547542618643065e-04  1.6764065018938797e-04 
 1.6983420586122827e-04  1.7205646391808095e-04  1.7430779992684680e-04  1.7658859436866991e-04 
 1.7889923270323905e-04  1.8124010543393257e-04  1.8361160817381339e-04  1.8601414171248896e-04 
 1.8844811208384559e-04  1.9091393063466917e-04  1.9341201409416375e-04  1.9594278464437942e-04 
 1.9850666999156276e-04  2.0110410343843972e-04  2.0373552395744506e-04  2.0640137626490941e-04 
 2.0910211089621779e-04  2.1183818428195086e-04  2.1461005882502301e-04  2.1741820297882926e-04 
 2.2026309132641526e-04  2.2314520466068313e-04  2.2606503006564560e-04  2.2902306099874581e-04 
 2.3201979737425186e-04  2.3505574564774374e-04  2.3813141890170547e-04  2.4124733693223742e-04 
 2.4440402633690313e-04  2.4760202060372481e-04  2.5084186020134523e-04  2.5412409267036763e-04 
 2.5744927271589119e-04  2.6081796230125793e-04  2.6423073074302556e-04  2.6768815480718349e-04 
 2.7119081880662752e-04  2.7473931469991026e-04  2.7833424219128339e-04  2.8197620883204928e-04 
 2.8566583012323875e-04  2.8940372961963108e-04  2.9319053903513801e-04  2.9702689834956367e-04 
 3.0091345591676347e-04  3.0485086857421609e-04  3.0883980175403229e-04  3.1288092959541353e-04 
 3.1697493505858327e-04  3.2112251004020893e-04  3.2532435549033399e-04  3.2958118153084040e-04 
 3.3389370757546055e-04  3.3826266245136040e-04  3.4268878452231230e-04  3.4717282181348096e-04 
 3.5171553213784096e-04  3.5631768322424929e-04  3.6098005284719331e-04  3.6570342895823568e-04 
 3.7048860981918162e-04  3.7533640413698564e-04  3.8024763120042613e-04  3.8522312101856531e-04 
 3.9026371446102492e-04  3.9537026340009381e-04  4.0054363085469683e-04  4.0578469113624683e-04 
 4.1109432999640572e-04  4.1647344477677823e-04  4.2192294456056516e-04  4.2744375032620021e-04 
 4.3303679510299791e-04  4.3870302412883747e-04  4.4444339500991035e-04  4.5025887788255824e-04 
 4.5615045557722845e-04  4.6211912378457291e-04  4.6816589122372523e-04  4.7429177981277452e-04 
 4.8049782484147282e-04  4.8678507514620024e-04  4.9315459328722305e-04  4.9960745572826687e-04 
 5.0614475301844289e-04  5.1276758997655255e-04  5.1947708587780472e-04  5.2627437464297590e-04 
 5.3316060503004567e-04  5.4013694082833937e-04  5.4720456105521132e-04  5.5436466015530120e-04 
 5.6161844820239897e-04  5.6896715110394921e-04  5.7641201080823332e-04  5.8395428551425994e-04 
 5.9159524988440602e-04  5.9933619525983663e-04  6.0717842987874468e-04  6.1512327909744521e-04 
 6.2317208561436614e-04  6.3132620969696561e-04  6.3958702941162141e-04  6.4795594085652677e-04 
 6.5643435839763471e-04  6.6502371490768919e-04  6.7372546200838372e-04  6.8254107031568952e-04 
 6.9147202968839242e-04  7.0051984947988295e-04  7.0968605879324063e-04  7.1897220673965590e-04 
 7.2837986270023409e-04  7.3791061659122257e-04  7.4756607913271369e-04  7.5734788212085782e-04 
 7.6725767870364215e-04  7.7729714366027436e-04  7.8746797368422746e-04  7.9777188766998316e-04 
 8.0821062700352924e-04  8.1878595585665873e-04  8.2949966148511758e-04  8.4035355453065681e-04 
 8.5134946932703443e-04  8.6248926421002292e-04  8.7377482183147040e-04  8.8520804947747600e-04 
 8.9679087939072415e-04  9.0852526909703825e-04  9.2041320173620817e-04  9.3245668639714379e-04 
 9.4465775845741743e-04  9.5701847992724727e-04  9.6954093979798180e-04  9.8222725439514299e-04 
 9.9507956773609279e-04  1.0081000518923757e-03  1.0212909073568041e-03  1.0346543634153474e-03 
 1.0481926785238847e-03  1.0619081406898930e-03  1.0758030678591215e-03  1.0898798083073342e-03 
 1.1041407410371700e-03  1.1185882761802026e-03  1.1332248554042580e-03  1.1480529523260616e-03 
 1.1630750729292856e-03  1.1782937559880657e-03  1.1937115734960606e-03  1.2093311311011257e-03 
 1.2251550685456723e-03  1.2411860601127902e-03  1.2574268150782101e-03  1.2738800781681757e-03 
 1.2905486300233094e-03  1.3074352876685481e-03  1.3245429049892250e-03  1.3418743732133852e-03 
 1.3594326214004093e-03  1.3772206169360317e-03  1.3952413660338341e-03  1.4134979142433055e-03 
 1.4319933469645460e-03  1.4507307899697063e-03  1.4697134099312516e-03  1.4889444149571345e-03 
 1.5084270551329771e-03  1.5281646230713396e-03  1.5481604544681814e-03  1.5684179286665990e-03 
 1.5889404692279480e-03  1.6097315445104286e-03  1.6307946682552479e-03  1.6521334001804527e-03 
 1.6737513465825242e-03  1.6956521609458582e-03  1.7178395445602082e-03  1.7403172471462142e-03 
 1.7630890674891105e-03  1.7861588540807349e-03  1.8095305057699298e-03  1.8332079724214577e-03 
 1.8571952555835379e-03  1.8814964091641150e-03  1.9061155401159844e-03  1.9310568091308730e-03 
 1.9563244313426068e-03  1.9819226770394784e-03  2.0078558723859393e-03  2.0341284001537232e-03 
 2.0607447004625554e-03  2.0877092715305373e-03  2.1150266704343581e-03  2.1427015138794502e-03 
 2.1707384789802250e-03  2.1991423040505147e-03  2.2279177894043603e-03  2.2570697981672775e-03 
 2.2866032570981274e-03  2.3165231574217636e-03  2.3468345556725539e-03  2.3775425745489452e-03 
 2.4086524037792174e-03  2.4401693009985536e-03  2.4720985926375977e-03  2.5044456748226310e-03 
 2.5372160142875353e-03  2.5704151492976710e-03  2.6040486905858748e-03  2.6381223223006754e-03 
 2.6726418029669311e-03  2.7076129664590342e-03  2.7430417229868500e-03  2.7789340600945550e-03 
 2.8152960436725479e-03  2.8521338189826011e-03  2.8894536116964142e-03  2.9272617289477828e-03 
 2.9655645603985097e-03  3.0043685793182747e-03  3.0436803436786324e-03  3.0835064972613252e-03 
 3.1238537707810989e-03  3.1647289830232096e-03  3.2061390419958137e-03  3.2480909460974347e-03 
 3.2905917852997166e-03  3.3336487423456405e-03  3.3772690939634278e-03  3.4214602120963213e-03 
 3.4662295651484657e-03  3.5115847192470824e-03  3.5575333395211628e-03  3.6040831913968989e-03 
 3.6512421419100448e-03  3.6990181610354824e-03  3.7474193230341568e-03  3.7964538078176439e-03 
 3.8461299023305803e-03  3.8964560019511710e-03  3.9474406119100339e-03  3.9990923487275998e-03 
 4.0514199416703317e-03  4.1044322342259736e-03  4.1581381855981450e-03  4.2125468722204540e-03 
 4.2676674892904365e-03  4.3235093523235719e-03  4.3800818987276193e-03  4.4373946893975710e-03 
 4.4954574103314594e-03  4.5542798742673214e-03  4.6138720223415572e-03  4.6742439257690307e-03 
 4.7354057875451114e-03  4.7973679441700107e-03  4.8601408673956759e-03  4.9237351659955353e-03 
 4.9881615875574138e-03  5.0534310202998978e-03  5.1195544949124714e-03  5.1865431864197148e-03 
 5.2544084160699384e-03  5.3231616532484777e-03  5.3928145174160563e-03  5.4633787800724976e-03 
 5.5348663667461415e-03  5.6072893590092829e-03  5.6806599965199883e-03  5.7549906790906316e-03 
 5.8302939687834695e-03  5.9065825920336960e-03  5.9838694418002138e-03  6.0621675797445842e-03 
 6.1414902384384767e-03  6.2218508236000060e-03  6.3032629163593317e-03  6.3857402755538965e-03 
 6.4692968400537152e-03  6.5539467311170503e-03  6.6397042547769710e-03  6.7265839042590873e-03 
 6.8146003624309443e-03  6.9037685042834607e-03  6.9941033994448364e-03  7.0856203147273613e-03 
 7.1783347167075377e-03  7.2722622743399750e-03  7.3674188616054568e-03  7.4638205601937199e-03 
 7.5614836622212708e-03  7.6604246729847980e-03  7.7606603137506140e-03  7.8622075245805747e-03 
 7.9650834671950044e-03  8.0693055278730583e-03  8.1748913203910575e-03  8.2818586889992305e-03 
 8.3902257114374674e-03  8.5000107019904854e-03  8.6112322145829884e-03  8.7239090459153221e-03 
 8.8380602386401632e-03  8.9537050845807722e-03  9.0708631279913590e-03  9.1895541688601159e-03 
 9.3097982662554302e-03  9.4316157417159638e-03  9.5550271826850049e-03  9.6800534459898085e-03 
 9.8067156613664483e-03  9.9350352350307883e-03  1.0065033853296197e-02  1.0196733486238565e-02 
 1.0330156391409330e-02  1.0465325117597004e-02  1.0602262508638039e-02  1.0740991707277443e-02 
 1.0881536159079979e-02  1.1023919616392507e-02  1.1168166142358200e-02  1.1314300114983267e-02 
 1.1462346231256894e-02  1.1612329511325110e-02  1.1764275302719195e-02  1.1918209284639552e-02 
 1.2074157472295505e-02  1.2232146221301941e-02  1.2392202232133465e-02  1.2554352554636862e-02 
 1.2718624592602564e-02  1.2885046108395975e-02  1.3053645227649372e-02  1.3224450444015169e-02 
 1.3397490623981474e-02  1.3572795011750559e-02  1.3750393234181191e-02  1.3930315305795670e-02 
 1.4112591633852324e-02  1.4297253023484431e-02  1.4484330682906355e-02  1.4673856228687811e-02 
 1.4865861691097099e-02  1.5060379519514371e-02  1.5257442587915599e-02  1.5457084200428378e-02 
 1.5659338096960383e-02  1.5864238458901517e-02  1.6071819914900622e-02  1.6282117546717836e-02 
 1.6495166895153471e-02  1.6711003966054468e-02  1.6929665236399535e-02  1.7151187660463793e-02 
 1.7375608676064157e-02  1.7602966210886403e-02  1.7833298688895053e-02  1.8066645036827103e-02 
 1.8303044690770737e-02  1.8542537602830145e-02  1.8785164247877448e-02  1.9030965630393151e-02 
 1.9279983291395932e-02  1.9532259315463183e-02  1.9787836337843413e-02  2.0046757551661704e-02 
 2.0309066715219450e-02  2.0574808159389609e-02  2.0844026795108758e-02  2.1116768120967060e-02 
 2.1393078230897759e-02  2.1673003821967074e-02  2.1956592202266149e-02  2.2243891298906217e-02 
 2.2534949666118416e-02  2.2829816493459550e-02  2.3128541614125250e-02  2.3431175513371923e-02 
 2.3737769337048801e-02  2.4048374900241830e-02  2.4363044696030452e-02  2.4681831904359110e-02 
 2.5004790401024754e-02  2.5331974766781992e-02  2.5663440296567364e-02  2.5999243008844323e-02 
 2.6339439655070518e-02  2.6684087729288809e-02  2.7033245477844060e-02  2.7386971909226811e-02 
 2.7745326804045858e-02  2.8108370725131358e-02  2.8476165027770041e-02  2.8848771870074442e-02 
 2.9226254223487760e-02  2.9608675883426180e-02  2.9996101480060388e-02  3.0388596489238352e-02 
 3.0786227243550793e-02  3.1189060943541600e-02  3.1597165669064842e-02  3.2010610390790464e-02 
 3.2429464981860487e-02  3.2853800229697701e-02  3.3283687847968986e-02  3.3719200488704956e-02 
 3.4160411754578464e-02  3.4607396211343587e-02  3.5060229400437376e-02  3.5518987851746578e-02 
 3.5983749096541347e-02  3.6454591680578248e-02  3.6931595177374606e-02  3.7414840201656752e-02 
 3.7904408422983878e-02  3.8400382579550654e-02  3.8902846492169997e-02  3.9411885078439061e-02 
 3.9927584367090471e-02  4.0450031512531431e-02  4.0979314809573002e-02  4.1515523708352126e-02 
 4.2058748829448961e-02  4.2609081979201824e-02  4.3166616165222910e-02  4.3731445612116643e-02 
 4.4303665777403890e-02  4.4883373367654529e-02  4.5470666354831081e-02  4.6065643992846177e-02 
 4.6668406834336755e-02  4.7279056747657693e-02  4.7897696934097685e-02  4.8524431945320683e-02 
 4.9159367701035288e-02  4.9802611506895418e-02  5.0454272072635239e-02  5.1114459530441386e-02 
 5.1783285453565545e-02  5.2460862875180585e-02  5.3147306307483495e-02  5.3842731761048063e-02 
 5.4547256764431153e-02  5.5261000384035183e-02  5.5984083244230647e-02  5.6716627547741913e-02 
 5.7458757096299801e-02  5.8210597311564374e-02  5.8972275256321448e-02  5.9743919655956622e-02 
 6.0525660920209903e-02  6.1317631165215623e-02  6.2119964235830168e-02  6.2932795728252083e-02 
 6.3756263012938227e-02  6.4590505257819619e-02  6.5435663451821238e-02  6.6291880428689429e-02 
 6.7159300891131216e-02  6.8038071435269173e-02  6.8928340575416872e-02  6.9830258769177950e-02 
 7.0743978442873792e-02  7.1669654017303977e-02  7.2607441933843817e-02  7.3557500680883195e-02 
 7.4519990820611615e-02  7.5495075016153587e-02  7.6482918059058783e-02  7.7483686897152709e-02 
 7.8497550662750937e-02  7.9524680701242911e-02  8.0565250600049848e-02  8.1619436217961278e-02 
 8.2687415714855703e-02  8.3769369581809972e-02  8.4865480671602850e-02  8.5975934229617218e-02 
 8.7100917925147417e-02  8.8240621883115600e-02  8.9395238716203237e-02  9.0564963557403219e-02 
 9.1749994092997778e-02  9.2950530595967917e-02  9.4166775959840035e-02  9.5398935732975476e-02 
 9.6647218153308415e-02  9.7911834183538979e-02  9.9192997546786218e-02  1.0049092476270777e-01 
 1.0180583518409235e-01  1.0313795103393079e-01  1.0448749744297224e-01  1.0585470248777193e-01 
 1.0723979722923647e-01  1.0864301575167384e-01  1.1006459520235415e-01  1.1150477583158803e-01 
 1.1296380103332981e-01  1.1444191738631079e-01  1.1593937469571290e-01  1.1745642603538550e-01 
 1.1899332779061572e-01  1.2055033970145823e-01  1.2212772490663172e-01  1.2372574998799026e-01 
 1.2534468501557600e-01  1.2698480359326186e-01  1.2864638290499111e-01  1.3032970376162212e-01 
 1.3203505064838617e-01  1.3376271177296595e-01  1.3551297911420357e-01  1.3728614847144549e-01 
 1.3908251951453343e-01  1.4090239583444916e-01  1.4274608499462249e-01  1.4461389858290916e-01 
 1.4650615226425140e-01  1.4842316583402512e-01  1.5036526327208627e-01  1.5233277279752430e-01 
 1.5432602692413180e-01  1.5634536251660042e-01  1.5839112084745138e-01  1.6046364765471177e-01 
 1.6256329320034482e-01  1.6469041232944506e-01  1.6684536453020812e-01  1.6902851399468488e-01 
 1.7124022968033098e-01  1.7348088537236134e-01  1.7575085974692095e-01  1.7805053643508179e-01 
 1.8038030408767802e-01  1.8274055644098730e-01  1.8513169238327531e-01  1.8755411602220742e-01 
 1.9000823675314429e-01  1.9249446932833036e-01  1.9501323392698841e-01  1.9756495622633044e-01 
 2.0015006747349851e-01  2.0276900455844604e-01  2.0542221008777384e-01  2.0811013245953117e-01 
 2.1083322593899645e-01  2.1359195073544884e-01  2.1638677307994508e-01  2.1921816530411323e-01 
 2.2208660591997828e-01  2.2499257970083136e-01  2.2793657776315843e-01  2.3091909764963817e-01 
 2.3394064341323045e-01  2.3700172570236100e-01  2.4010286184722221e-01  2.4324457594720367e-01 
 2.4642739895946583e-01  2.4965186878867318e-01  2.5291853037790141e-01  2.5622793580073416e-01 
 2.5958064435456440e-01  2.6297722265511764e-01  2.6641824473221082e-01  2.6990429212676498e-01 
 2.7343595398908688e-01  2.7701382717843687e-01  2.8063851636389980e-01  2.8431063412657503e-01 
 2.8803080106310497e-01  2.9179964589055524e-01  2.9561780555267242e-01  2.9948592532752699e-01 
 3.0340465893656732e-01  3.0737466865510044e-01  3.1139662542421770e-01  3.1547120896418573e-01 
 3.1959910788932072e-01  3.2378101982436575e-01  3.2801765152239126e-01  3.3230971898423783e-01 
 3.3665794757952200e-01  3.4106307216922560e-01  3.4552583722988889e-01  3.5004699697942898e-01 
 3.5462731550460430e-01  3.5926756689014722e-01  3.6396853534958673e-01  3.6873101535778008e-01 
 3.7355581178518432e-01  3.7844374003387932e-01  3.8339562617537265e-01  3.8841230709020835e-01 
 3.9349463060940110e-01  3.9864345565772225e-01  4.0385965239885946e-01  4.0914410238247712e-01 
 4.1449769869319991e-01  4.1992134610154658e-01  4.2541596121683778e-01  4.3098247264210576e-01 
 4.3662182113103026e-01  4.4233495974692810e-01  4.4812285402382307e-01  4.5398648212962384e-01 
 4.5992683503143716e-01  4.6594491666304028e-01  4.7204174409455352e-01  4.7821834770432364e-01 
 4.8447577135306175e-01  4.9081507256025775e-01  4.9723732268290383e-01  5.0374360709655619e-01 
 5.1033502537876629e-01  5.1701269149491236e-01  5.2377773398646110e-01  5.3063129616169524e-01 
 5.3757453628893470e-01  5.4460862779228625e-01  5.5173475944995587e-01  5.5895413559515472e-01 
 5.6626797631963399e-01  5.7367751767988395e-01  5.8118401190603075e-01  5.8878872761346290e-01 
 5.9649295001723590e-01  6.0429798114927258e-01  6.1220514007841120e-01  6.2021576313333060e-01 
 6.2833120412839294e-01  6.3655283459244205e-01  6.4488204400059468e-01  6.5332024000906497e-01 
 6.6186884869306217e-01  6.7052931478780042e-01  6.7930310193266241e-01  6.8819169291855820e-01 
 6.9719658993851996e-01  7.0631931484157662e-01  7.1556140938994994e-01  7.2492443551961550e-01 
 7.3440997560427546e-01  7.4401963272277782e-01  7.5375503093004925e-01  7.6361781553155772e-01 
 7.7360965336137533e-01  7.8373223306387674e-01  7.9398726537912456e-01  8.0437648343198798e-01 
 8.1490164302504520e-01  8.2556452293531823e-01  8.3636692521489098e-01  8.4731067549545924e-01 
 8.5839762329686764e-01  8.6962964233968243e-01  8.8100863086185521e-01  8.9253651193952976e-01 
 9.0421523381204516e-01  9.1604677021119441e-01  9.2803312069479105e-01  9.4017631098459198e-01 
 9.5247839330866002e-01  9.6494144674818794e-01  9.7756757758887014e-01  9.9035891967687040e-01 
 1.0033176347794461e+00  1.0164459129502925e+00  1.0297459728996670e+00  1.0432200623693566e+00 
 1.0568704585125515e+00  1.0706994682786888e+00  1.0847094288033334e+00  1.0989027078031592e+00 
 1.1132817039760987e+00  1.1278488474067283e+00  1.1426065999769588e+00  1.1575574557820998e+00 
 1.1727039415523686e+00  1.1880486170799065e+00  1.2035940756514016e+00  1.2193429444863524e+00 
 1.2352978851810752e+00  1.2514615941585223e+00  1.2678368031239817e+00  1.2844262795267434e+00 
 1.3012328270278037e+00  1.3182592859736919e+00  1.3355085338764943e+00  1.3529834859001613e+00 
 1.3706870953531771e+00  1.3886223541876754e+00  1.4067922935050867e+00  1.4251999840684026e+00 
 1.4438485368211396e+00  1.4627411034130986e+00  1.4818808767330021e+00  1.5012710914480911e+00 
 1.5209150245508054e+00  1.5408159959125931e+00  1.5609773688449815e+00  1.5814025506679819e+00 
 1.6020949932859361e+00  1.6230581937708968e+00  1.6442956949536403e+00  1.6658110860224136e+00 
 1.6876080031295166e+00  1.7096901300058185e+00  1.7320611985833194e+00  1.7547249896258541e+00 
 1.7776853333680505e+00  1.8009461101626494e+00  1.8245112511362918e+00  1.8483847388538892e+00 
 1.8725706079916911e+00  1.8970729460191393e+00  1.9218958938896820e+00  1.9470436467405903e+00 
 1.9725204546019497e+00  1.9983306231149265e+00  2.0244785142594299e+00  2.0509685470912982e+00 
 2.0778051984891279e+00  2.1049930039108800e+00  2.1325365581603797e+00  2.1604405161638520e+00 
 2.1887095937566134e+00  2.2173485684800602e+00  2.2463622803890844e+00  2.2757556328700534e+00 
 2.3055335934694967e+00  2.3357011947336290e+00  2.3662635350588705e+00  2.3972257795534686e+00 
 2.4285931609104408e+00  2.4603709802918932e+00  2.4925646082249355e+00  2.5251794855093137e+00 
 2.5582211241369137e+00  2.5916951082233068e+00  2.6256070949514747e+00  2.6599628155278885e+00 
 2.6947680761510955e+00  2.7300287589929799e+00  2.7657508231928674e+00  2.8019403058646288e+00 
 2.8386033231169701e+00  2.8757460710870690e+00  2.9133748269877349e+00  2.9514959501682765e+00 
 2.9901158831892474e+00  3.0292411529112369e+00  3.0688783715979553e+00  3.1090342380337019e+00 
 3.1497155386554776e+00  3.1909291486999138e+00  3.2326820333652009e+00  3.2749812489882220e+00 
 3.3178339442370945e+00  3.3612473613193092e+00  3.4052288372056809e+00  3.4497858048703138e+00 
 3.4949257945467944e+00  3.5406564350008143e+00  3.5869854548194549e+00  3.6339206837173310e+00 
 3.6814700538598397e+00  3.7296416012037041e+00  3.7784434668550873e+00  3.8278838984454229e+00 
 3.8779712515253304e+00  3.9287139909766919e+00  3.9801206924432480e+00  4.0322000437798993e+00 
 4.0849608465209757e+00  4.1384120173677159e+00  4.1925625896952123e+00  4.2474217150790716e+00 
 4.3029986648420540e+00  4.3593028316209477e+00  4.4163437309539484e+00  4.4741310028888046e+00 
 4.5326744136120141e+00  4.5919838570993283e+00  4.6520693567878570e+00  4.7129410672700578e+00 
 4.7746092760098922e+00  4.8370844050813959e+00  4.9003770129300870e+00  4.9644977961573344e+00 
 5.0294575913281170e+00  5.0952673768024308e+00  5.1619382745906526e+00  5.2294815522331923e+00 
 5.2979086247047329e+00  5.3672310563433818e+00  5.4374605628050832e+00  5.5086090130435812e+00 
 5.5806884313163048e+00  5.6537109992164991e+00  5.7276890577319408e+00  5.8026351093305930e+00 
 5.8785618200735543e+00  5.9554820217556559e+00  6.0334087140740653e+00  6.1123550668252413e+00 
 6.1923344221307071e+00  6.2733602966918660e+00  6.3554463840743720e+00  6.4386065570223625e+00 
 6.5228548698029982e+00  6.6082055605816548e+00  6.6946730538282173e+00  6.7822719627548480e+00 
 6.8710170917856468e+00  6.9609234390586439e+00  7.0520061989605116e+00  7.1442807646944608e+00 
 7.2377627308817232e+00  7.3324678961970795e+00  7.4284122660388769e+00  7.5256120552339745e+00 
 7.6240836907781047e+00  7.7238438146120192e+00  7.8249092864341003e+00  7.9272971865496284e+00 
 8.0310248187574178e+00  8.1361097132741929e+00  8.2425696296972397e+00  8.3504225600058177e+00 
 8.4596867316018507e+00  8.5703806103903997e+00  8.6825229039004359e+00  8.7961325644464790e+00 
 8.9112287923315563e+00  9.0278310390921277e+00  9.1459590107854147e+00  9.2656326713197910e+00 
 9.3868722458287248e+00  9.5096982240888668e+00  9.6341313639828989e+00  9.7601926950075910e+00 
 9.8879035218279423e+00  1.0017285427877651e+01  1.0148360279006777e+01  1.0281150227177136e+01 
 1.0415677714206019e+01  1.0551965475558923e+01  1.0690036544191896e+01  1.0829914254444160e+01 
 1.0971622245981667e+01  1.1115184467792268e+01  1.1260625182233140e+01  1.1407968969131185e+01 
 1.1557240729937085e+01  1.1708465691933695e+01  1.1861669412499522e+01  1.2016877783427981e+01 
 1.2174117035303196e+01  1.2333413741932929e+01  1.2494794824839767e+01  1.2658287557810825e+01 
 1.2823919571507099e+01  1.2991718858133130e+01  1.3161713776167733e+01  1.3333933055156660e+01 
 1.3508405800567958e+01  1.3685161498710864e+01  1.3864230021719061e+01  1.4045641632599137e+01 
 1.4229426990345109e+01  1.4415617155119863e+01  1.4604243593504394e+01  1.4795338183815742e+01 
 1.4988933221494488e+01  1.5185061424562777e+01  1.5383755939153763e+01  1.5585050345113263e+01 
 1.5788978661675019e+01  1.5995575353209892e+01  1.6204875335050474e+01  1.6416913979391850e+01 
 1.6631727121269588e+01  1.6849351064615941e+01  1.7069822588395297e+01  1.7293178952819922e+01 
 1.7519457905647013e+01  1.7748697688558163e+01  1.7980937043622294e+01  1.8216215219843168e+01 
 1.8454571979792551e+01  1.8696047606330186e+01  1.8940682909411692e+01  1.9188519232985549e+01 
 1.9439598461980342e+01  1.9693963029383301e+01  1.9951655923411767e+01  2.0212720694778159e+01 
 2.0477201464050196e+01  2.0745142929107384e+01  2.1016590372695035e+01  2.1291589670077187e+01 
 2.1570187296789630e+01  2.1852430336494361e+01  2.2138366488936857e+01  2.2428044078007435e+01 
 2.2721512059908115e+01  2.3018820031426316e+01  2.3320018238316845e+01  2.3625157583793545e+01 
 2.3934289637132075e+01  2.4247466642385238e+01  2.4564741527212245e+01  2.4886167911823815e+01 
 2.5211800118043968e+01  2.5541693178490586e+01  2.5875902845876077e+01  2.6214485602429672e+01 
 2.6557498669443088e+01  2.6905000016941059e+01  2.7257048373478391e+01  2.7613703236065252e+01 
 2.7975024880222296e+01  2.8341074370167362e+01  2.8711913569135490e+01  2.9087605149833927e+01 
 2.9468212605034008e+01  2.9853800258301529e+01  3.0244433274867639e+01  3.0640177672641929e+01 
 3.1041100333369432e+01  3.1447269013934093e+01  3.1858752357809657e+01  3.2275619906660602e+01 
 3.2697942112094864e+01  3.3125790347570337e+01  3.3559236920457145e+01  3.3998355084257732e+01 
 3.4443219050986933e+01  3.4893904003713949e+01  3.5350486109268452e+01  3.5813042531113005e+01 
 3.6281651442383819e+01  3.6756392039102238e+01  3.7237344553559033e+01  3.7724590267873857e+01 
 3.8218211527732130e+01  3.8718291756301703e+01  3.9224915468331297e+01  3.9738168284434138e+01 
 4.0258136945557730e+01  4.0784909327643383e+01  4.1318574456477428e+01  4.1859222522736836e+01 
 4.2406944897231575e+01  4.2961834146346582e+01  4.3523984047685644e+01  4.4093489605920055e+01 
 4.4670447068844638e+01  4.5254953943643841e+01  4.5847109013370691e+01  4.6447012353641348e+01 
 4.7054765349548163e+01  4.7670470712793936e+01  4.8294232499050509e+01  4.8926156125544452e+01 
 4.9566348388872512e+01  5.0214917483050996e+01  5.0871973017800471e+01  5.1537626037070169e+01 
 5.2211989037804685e+01  5.2895175988956161e+01  5.3587302350745404e+01  5.4288485094174895e+01 
 5.4998842720797143e+01  5.5718495282741770e+01  5.6447564403004598e+01  5.7186173296002195e+01 
 5.7934446788395441e+01  5.8692511340185504e+01  5.9460495066085926e+01  6.0238527757174239e+01 
 6.1026740902827036e+01  6.1825267712942079e+01  6.2634243140450614e+01  6.3453803904125429e+01 
 6.4284088511686249e+01  6.5125237283207881e+01  6.5977392374834750e+01  6.6840697802805551e+01 
 6.7715299467792335e+01  6.8601345179558152e+01  6.9498984681937145e+01  7.0408369678141696e+01 
 7.1329653856400583e+01  7.2262992915932671e+01  7.3208544593260470e+01  7.4166468688867951e+01 
 7.5136927094207223e+01  7.6120083819058564e+01  7.7116105019248494e+01  7.8125159024730607e+01 
 7.9147416368033191e+01  8.0183049813080501e+01  8.1232234384389614e+01  8.2295147396650265e+01 
 8.3371968484691379e+01  8.4462879633839734e+01  8.5568065210676053e+01  8.6687711994193236e+01 
 8.7822009207362598e+01  8.8971148549112854e+01  9.0135324226727874e+01  9.1314732988667984e+01 
 9.2509574157821078e+01  9.3720049665188583e+01  9.4946364084012302e+01  9.6188724664347760e+01 
 9.7447341368089923e+01  9.8722426904457592e+01  1.0001419676594087e+02  1.0132286926472104e+02 
 1.0264866556956521e+02  1.0399180974320437e+02  1.0535252878020069e+02  1.0673105264531009e+02 
 1.0812761431234675e+02  1.0954244980355639e+02  1.1097579822950448e+02  1.1242790182948647e+02 
 1.1389900601246694e+02  1.1538935939855418e+02  1.1689921386101759e+02  1.1842882456885495e+02 
  </PP_R>
  <PP_RAB>
 4.6394780607734539e-07  4.7001850158174179e-07  4.7616863133159510e-07  4.8239923471347089e-07 
 4.8871136471417002e-07  4.9510608809868663e-07  5.0158448559049191e-07  5.0814765205418164e-07 
 5.1479669668050893e-07  5.2153274317384121e-07  5.2835692994206838e-07  5.3527041028899621e-07 
 5.4227435260925821e-07  5.4936994058577675e-07  5.5655837338980835e-07  5.6384086588360509e-07 
 5.7121864882573200e-07  5.7869296907906595e-07  5.8626508982151967e-07  5.9393629075952086e-07 
 6.0170786834428602e-07  6.0958113599092449e-07  6.1755742430040749e-07  6.2563808128444421e-07 
 6.3382447259329662e-07  6.4211798174658073e-07  6.5052001036708313e-07  6.5903197841763798e-07 
 6.6765532444110534e-07  6.7639150580348750e-07  6.8524199894022765e-07  6.9420829960573083e-07 
 7.0329192312615119e-07  7.1249440465548183e-07  7.2181729943500498e-07  7.3126218305612761e-07 
 7.4083065172666139e-07  7.5052432254058573e-07  7.6034483375133977e-07  7.7029384504869208e-07 
 7.8037303783923220e-07  7.9058411553052985e-07  8.0092880381901883e-07  8.1140885098164119e-07 
 8.2202602817131104e-07  8.3278212971624329e-07  8.4367897342319971e-07  8.5471840088470218e-07 
 8.6590227779026664e-07  8.7723249424170855e-07  8.8871096507257678e-07  9.0033963017175928e-07 
 9.1212045481133633e-07  9.2405542997871139e-07  9.3614657271309404e-07  9.4839592644638471e-07 
 9.6080556134851883e-07  9.7337757467733121e-07  9.8611409113299767e-07  9.9901726321711162e-07 
 1.0120892715964670e-06  1.0253323254715924e-06  1.0387486629501129e-06  1.0523405514249940e-06 
 1.0661102879577385e-06  1.0800601996665933e-06  1.0941926441198395e-06  1.1085100097342262e-06 
 1.1230147161786203e-06  1.1377092147829313e-06  1.1525959889523986e-06  1.1676775545872886e-06 
 1.1829564605080893e-06  1.1984352888862668e-06  1.2141166556806582e-06  1.2300032110795745e-06 
 1.2460976399486911e-06  1.2624026622847906e-06  1.2789210336754570e-06  1.2956555457647703e-06 
 1.3126090267251035e-06  1.3297843417350895e-06  1.3471843934638442e-06  1.3648121225615233e-06 
 1.3826705081563003e-06  1.4007625683578455e-06  1.4190913607673931e-06  1.4376599829944865e-06 
 1.4564715731804750e-06  1.4755293105288737e-06  1.4948364158426548e-06  1.5143961520685682e-06 
 1.5342118248485906e-06  1.5542867830785851e-06  1.5746244194742740e-06  1.5952281711446112e-06 
 1.6161015201726692e-06  1.6372479942041144e-06  1.6586711670433889e-06  1.6803746592576913e-06 
 1.7023621387888626e-06  1.7246373215732754e-06  1.7472039721698381e-06  1.7700659043962119e-06 
 1.7932269819733569e-06  1.8166911191785107e-06  1.8404622815067045e-06  1.8645444863409514e-06 
 1.8889418036311860e-06  1.9136583565820985e-06  1.9386983223499654e-06  1.9640659327485989e-06 
 1.9897654749645362e-06  2.0158012922815744e-06  2.0421777848148101e-06  2.0688994102542611e-06 
 2.0959706846182251e-06  2.1233961830165028e-06  2.1511805404235982e-06  2.1793284524620437e-06 
 2.2078446761959676e-06  2.2367340309350521e-06  2.2660013990490081e-06  2.2956517267927088e-06 
 2.3256900251421077e-06  2.3561213706411235e-06  2.3869509062595739e-06  2.4181838422623566e-06 
 2.4498254570899927e-06  2.4818810982506990e-06  2.5143561832241287e-06  2.5472562003769323e-06 
 2.5805867098903158e-06  2.6143533446997162e-06  2.6485618114467857e-06  2.6832178914438222e-06 
 2.7183274416508311e-06  2.7538963956653611e-06  2.7899307647252990e-06  2.8264366387247801e-06 
 2.8634201872433983e-06  2.9008876605888803e-06  2.9388453908533927e-06  2.9772997929836953e-06 
 3.0162573658652739e-06  3.0557246934206682e-06  3.0957084457221709e-06  3.1362153801190861e-06 
 3.1772523423797407e-06  3.2188262678484226e-06  3.2609441826174878e-06  3.3036132047147790e-06 
 3.3468405453065852e-06  3.3906335099163530e-06  3.4349994996593323e-06  3.4799460124933852e-06 
 3.5254806444861576e-06  3.5716110910988330e-06  3.6183451484866840e-06  3.6656907148166404e-06 
 3.7136557916021036e-06  3.7622484850552039e-06  3.8114770074567938e-06  3.8613496785443277e-06 
 3.9118749269179250e-06  3.9630612914648090e-06  4.0149174228024199e-06  4.0674520847403761e-06 
 4.1206741557615823e-06  4.1745926305227154e-06  4.2292166213743421e-06  4.2845553599009246e-06 
 4.3406181984809874e-06  4.3974146118676847e-06  4.4549541987900596e-06  4.5132466835752526e-06 
 4.5723019177919321e-06  4.6321298819152407e-06  4.6927406870135126e-06  4.7541445764570639e-06 
 4.8163519276493608e-06  4.8793732537808133e-06  4.9432192056055393e-06  5.0079005732413487e-06 
 5.0734282879933234e-06  5.1398134242012193e-06  5.2070672011110583e-06  5.2752009847712083e-06 
 5.3442262899532741e-06  5.4141547820981163e-06  5.4849982792873468e-06  5.5567687542406029e-06 
 5.6294783363389727e-06  5.7031393136748865e-06  5.7777641351288346e-06  5.8533654124732568e-06 
 5.9299559225039693e-06  6.0075486091994476e-06  6.0861565859084274e-06  6.1657931375660682e-06 
 6.2464717229391460e-06  6.3282059769006030e-06  6.4110097127338996e-06  6.4948969244674687e-06 
 6.5798817892397571e-06  6.6659786696951826e-06  6.7532021164114611e-06  6.8415668703586864e-06 
 6.9310878653905931e-06  7.0217802307684113e-06  7.1136592937177467e-06  7.2067405820189151e-06 
 7.3010398266311864e-06  7.3965729643513393e-06  7.4933561405070329e-06  7.5914057116853792e-06 
 7.6907382484972775e-06  7.7913705383778759e-06  7.8933195884236797e-06  7.9966026282667879e-06 
 8.1012371129867591e-06  8.2072407260605532e-06  8.3146313823510787e-06  8.4234272311348475e-06 
 8.5336466591692506e-06  8.6453082937999595e-06  8.7584310061089885e-06  8.8730339141039635e-06 
 8.9891363859491006e-06  9.1067580432384780e-06  9.2259187643121282e-06  9.3466386876155260e-06 
 9.4689382151030419e-06  9.5928380156858928e-06  9.7183590287252771e-06  9.8455224675711512e-06 
 9.9743498231473477e-06  1.0104862867583566e-05  1.0237083657894956e-05  1.0371034539709781e-05 
 1.0506738151045879e-05  1.0644217426136564e-05  1.0783495599306528e-05  1.0924596208898538e-05 
 1.1067543101251447e-05  1.1212360434730297e-05  1.1359072683809115e-05  1.1507704643207187e-05 
 1.1658281432079414e-05  1.1810828498261497e-05  1.1965371622570705e-05  1.2121936923162869e-05 
 1.2280550859946426e-05  1.2441240239054214e-05  1.2604032217373763e-05  1.2768954307136859e-05 
 1.2936034380569205e-05  1.3105300674600883e-05  1.3276781795638452e-05  1.3450506724399515e-05 
 1.3626504820810501e-05  1.3804805828968608e-05  1.3985439882168579e-05  1.4168437507995345e-05 
 1.4353829633483209e-05  1.4541647590342633e-05  1.4731923120255353e-05  1.4924688380238801e-05 
 1.5119975948080713e-05  1.5317818827844853e-05  1.5518250455448786e-05  1.5721304704314634e-05 
 1.5927015891093741e-05  1.6135418781466272e-05  1.6346548596016730e-05  1.6560441016186285e-05 
 1.6777132190303021e-05  1.6996658739691123e-05  1.7219057764859924e-05  1.7444366851774006e-05 
 1.7672624078205319e-05  1.7903868020168412e-05  1.8138137758439843e-05  1.8375472885162969e-05 
 1.8615913510539095e-05  1.8859500269606180e-05  1.9106274329106269e-05  1.9356277394442749e-05 
 1.9609551716728701e-05  1.9866140099927413e-05  2.0126085908086356e-05  2.0389433072665786e-05 
 2.0656226099963323e-05  2.0926510078635572e-05  2.1200330687318220e-05  2.1477734202345884e-05 
 2.1758767505572813e-05  2.2043478092296155e-05  2.2331914079282704e-05  2.2624124212900784e-05 
 2.2920157877358435e-05  2.3220065103049553e-05  2.3523896575009085e-05  2.3831703641478948e-05 
 2.4143538322585990e-05  2.4459453319133493e-05  2.4779502021507797e-05  2.5103738518701349e-05 
 2.5432217607453886e-05  2.5764994801513219e-05  2.6102126341017209e-05  2.6443669201998399e-05 
 2.6789681106013217e-05  2.7140220529896984e-05  2.7495346715646655e-05  2.7855119680432851e-05 
 2.8219600226742924e-05  2.8588849952656689e-05  2.8962931262256683e-05  2.9341907376174606e-05 
 2.9725842342275654e-05  3.0114801046482926e-05  3.0508849223743200e-05  3.0908053469136287e-05 
 3.1312481249129822e-05  3.1722200912981197e-05  3.2137281704288769e-05  3.2557793772694201e-05 
 3.2983808185737957e-05  3.3415396940869718e-05  3.3852632977616374e-05  3.4295590189908781e-05 
 3.4744343438570102e-05  3.5198968563967444e-05  3.5659542398829049e-05  3.6126142781229215e-05 
 3.6598848567743122e-05  3.7077739646773812e-05  3.7562896952053379e-05  3.8054402476321177e-05 
 3.8552339285180625e-05  3.9056791531137570e-05  3.9567844467822217e-05  4.0085584464397229e-05 
 4.0610099020154285e-05  4.1141476779301726e-05  4.1679807545945578e-05  4.2225182299266648e-05 
 4.2777693208896312e-05  4.3337433650493324e-05  4.3904498221524561e-05  4.4478982757252174e-05 
 4.5060984346930049e-05  4.5650601350212070e-05  4.6247933413775112e-05  4.6853081488159685e-05 
 4.7466147844830578e-05  4.8087236093461271e-05  4.8716451199444037e-05  4.9353899501629370e-05 
 4.9999688730297539e-05  5.0653928025365218e-05  5.1316727954830436e-05  5.1988200533458794e-05 
 5.2668459241714309e-05  5.3357619044937657e-05  5.4055796412775880e-05  5.4763109338865900e-05 
 5.5479677360775673e-05  5.6205621580206436e-05  5.6941064683459051e-05  5.7686130962168420e-05 
 5.8440946334308967e-05  5.9205638365475172e-05  5.9980336290440243e-05  6.0765171034997395e-05 
 6.1560275238086446e-05  6.2365783274210130e-05  6.3181831276143790e-05  6.4008557157941949e-05 
 6.4846100638246376e-05  6.5694603263898672e-05  6.6554208433862130e-05  6.7425061423456286e-05 
 6.8307309408909201e-05  6.9201101492230205e-05  7.0106588726408724e-05  7.1023924140942469e-05 
 7.1953262767699832e-05  7.2894761667120675e-05  7.3848579954759850e-05  7.4814878828178205e-05 
 7.5793821594185098e-05  7.6785573696438043e-05  7.7790302743402774e-05  7.8808178536679589e-05 
 7.9839373099700189e-05  8.0884060706800081e-05  8.1942417912671302e-05  8.3014623582200648e-05 
 8.4100858920698290e-05  8.5201307504521656e-05  8.6316155312100615e-05  8.7445590755368127e-05 
 8.8589804711602273e-05  8.9748990555684984e-05  9.0923344192782874e-05  9.2113064091455698e-05 
 9.3318351317197979e-05  9.4539409566419676e-05  9.5776445200870933e-05  9.7029667282518353e-05 
 9.8299287608876522e-05  9.9585520748802372e-05  1.0088858407875798e-04  1.0220869781954746e-04 
 1.0354608507353505e-04  1.0490097186234975e-04  1.0627358716508374e-04  1.0766416295698999e-04 
 1.0907293424868707e-04  1.1050013912587631e-04  1.1194601878957885e-04  1.1341081759689919e-04 
 1.1489478310232211e-04  1.1639816609955003e-04  1.1792122066388766e-04  1.1946420419518150e-04 
 1.2102737746132059e-04  1.2261100464230752e-04  1.2421535337490505e-04  1.2584069479786752e-04 
 1.2748730359776381e-04  1.2915545805540024e-04  1.3084544009285055e-04  1.3255753532110133e-04 
 1.3429203308832128e-04  1.3604922652876104e-04  1.3782941261229449e-04  1.3963289219460676e-04 
 1.4145997006803973e-04  1.4331095501310257e-04  1.4518615985065659e-04  1.4708590149478247e-04 
 1.4901050100633962e-04  1.5096028364722643e-04  1.5293557893534951e-04  1.5493672070031417e-04 
 1.5696404713984156e-04  1.5901790087692524e-04  1.6109862901773504e-04  1.6320658321027919e-04 
 1.6534211970383332e-04  1.6750559940914767e-04  1.6969738795944185e-04  1.7191785577219719e-04 
 1.7416737811175916e-04  1.7644633515275727e-04  1.7875511204435549e-04  1.8109409897534371e-04 
 1.8346369124008020e-04  1.8586428930529759e-04  1.8829629887778262e-04  1.9076013097294153e-04 
 1.9325620198426229e-04  1.9578493375368682e-04  1.9834675364290279e-04  2.0094209460556892e-04 
 2.0357139526048495e-04  2.0623509996571971e-04  2.0893365889370808e-04  2.1166752810733186e-04 
 2.1443716963699512e-04  2.1724305155870806e-04  2.2008564807319395e-04  2.2296543958602930e-04 
 2.2588291278883402e-04  2.2883856074152324e-04  2.3183288295563567e-04  2.3486638547875232e-04 
 2.3793958098001957e-04  2.4105298883679186e-04  2.4420713522240681e-04  2.4740255319511095e-04 
 2.5063978278814711e-04  2.5391937110102135e-04  2.5724187239196434e-04  2.6060784817160212e-04 
 2.6401786729785286e-04  2.6747250607206489e-04  2.7097234833641382e-04  2.7451798557257180e-04 
 2.7811001700167083e-04  2.8174904968557193e-04  2.8543569862945990e-04  2.8917058688578080e-04 
 2.9295434565953940e-04  2.9678761441497416e-04  3.0067104098362824e-04  3.0460528167383497e-04 
 3.0859100138163438e-04  3.1262887370314376e-04  3.1671958104839584e-04  3.2086381475666839e-04 
 3.2506227521332179e-04  3.2931567196816590e-04  3.3362472385537573e-04  3.3799015911497617e-04 
 3.4241271551591670e-04  3.4689314048075450e-04  3.5143219121197279e-04  3.5603063481994853e-04 
 3.6068924845259615e-04  3.6540881942670765e-04  3.7019014536101051e-04  3.7503403431096775e-04 
 3.7994130490534084e-04  3.8491278648454031e-04  3.8994931924078501e-04  3.9505175436009853e-04 
 4.0022095416616032e-04  4.0545779226604077e-04  4.1076315369784294e-04  4.1613793508027603e-04 
 4.2158304476418629e-04  4.2709940298607009e-04  4.3268794202359678e-04  4.3834960635316439e-04 
 4.4408535280952003e-04  4.4989615074746662e-04  4.5578298220568588e-04  4.6174684207270548e-04 
 4.6778873825503747e-04  4.7390969184751722e-04  4.8011073730586985e-04  4.8639292262153775e-04 
 4.9275730949879034e-04  4.9920497353415851e-04  5.0573700439820990e-04  5.1235450601970782e-04 
 5.1905859677217614e-04  5.2585040966290854e-04  5.3273109252444898e-04  5.3970180820857761e-04 
 5.4676373478283649e-04  5.5391806572962371e-04  5.6116601014789781e-04  5.6850879295751628e-04 
 5.7594765510625054e-04  5.8348385377950888e-04  5.9111866261280400e-04  5.9885337190700031e-04 
 6.0668928884637780e-04  6.1462773771955002e-04  6.2267006014326989e-04  6.3081761528916889e-04 
 6.3907178011345870e-04  6.4743394958964042e-04  6.5590553694425807e-04  6.6448797389573799e-04 
 6.7318271089635202e-04  6.8199121737734752e-04  6.9091498199728540e-04  6.9995551289362475e-04 
 7.0911433793760493e-04  7.1839300499245730e-04  7.2779308217499838e-04  7.3731615812064485e-04 
 7.4696384225189736e-04  7.5673776505033683e-04  7.6663957833217875e-04  7.7667095552743607e-04 
 7.8683359196272875e-04  7.9712920514780309e-04  8.0755953506579214e-04  8.1812634446727704e-04 
 8.2883141916819693e-04  8.3967656835165505e-04  8.5066362487367601e-04  8.6179444557296257e-04 
 8.7307091158470571e-04  8.8449492865849927e-04  8.9606842748041931e-04  9.0779336399931328e-04 
 9.1967171975735923e-04  9.3170550222495163e-04  9.4389674513996953e-04  9.5624750885148148e-04 
 9.6875988066795092e-04  9.8143597520999664e-04  9.9427793476776407e-04  1.0072879296629852e-03 
 1.0204681586157621e-03  1.0338208491161578e-03  1.0473482578006480e-03  1.0610526708334967e-03 
 1.0749364042931240e-03  1.0890018045635295e-03  1.1032512487308369e-03  1.1176871449850238e-03 
 1.1323119330269164e-03  1.1471280844805028e-03  1.1621381033106420e-03  1.1773445262462418e-03 
 1.1927499232089710e-03  1.2083568977475829e-03  1.2241680874779204e-03  1.2401861645286812e-03 
 1.2564138359930093e-03  1.2728538443860067e-03  1.2895089681082207e-03  1.3063820219152010e-03 
 1.3234758573932004e-03  1.3407933634411002e-03  1.3583374667586392e-03  1.3761111323410350e-03 
 1.3941173639800740e-03  1.4123592047717598e-03  1.4308397376306039e-03  1.4495620858106443e-03 
 1.4685294134332875e-03  1.4877449260220403e-03  1.5072118710442676e-03  1.5269335384600115e-03 
 1.5469132612780042e-03  1.5671544161189569e-03  1.5876604237862124e-03  1.6084347498438731e-03 
 1.6294809052024878e-03  1.6508024467124041e-03  1.6724029777648844e-03  1.6942861489010873e-03 
 1.7164556584290201e-03  1.7389152530485573e-03  1.7616687284846464e-03  1.7847199301287912e-03 
 1.8080727536889346e-03  1.8317311458478391e-03  1.8556991049300923e-03  1.8799806815778190e-03 
 1.9045799794352681e-03  1.9295011558423266e-03  1.9547484225371213e-03  1.9803260463678160e-03 
 2.0062383500137134e-03  2.0324897127158054e-03  2.0590845710168680e-03  2.0860274195112528e-03 
 2.1133228116044828e-03  2.1409753602827856e-03  2.1689897388927053e-03  2.1973706819309034e-03 
 2.2261229858443025e-03  2.2552515098406972e-03  2.2847611767099723e-03  2.3146569736560629e-03 
 2.3449439531398140e-03  2.3756272337328347e-03  2.4067120009825791e-03  2.4382035082886962e-03 
 2.4701070777908758e-03  2.5024281012682946e-03  2.5351720410508494e-03  2.5683444309422955e-03 
 2.6019508771554806e-03  2.6359970592597986e-03  2.6704887311410600e-03  2.7054317219739050e-03 
 2.7408319372069535e-03  2.7766953595608347e-03  2.8130280500392861e-03  2.8498361489534716e-03 
 2.8871258769597175e-03  2.9249035361108076e-03  2.9631755109210596e-03  3.0019482694452959e-03 
 3.0412283643719957e-03  3.0810224341306929e-03  3.1213372040138888e-03  3.1621794873136475e-03 
 3.2035561864730555e-03  3.2454742942527510e-03  3.2879408949127182e-03  3.3309631654095439e-03 
 3.3745483766093372e-03  3.4187038945165289e-03  3.4634371815187403e-03  3.5087557976479443e-03 
 3.5546674018581293e-03  3.6011797533196791e-03  3.6483007127306971e-03  3.6960382436454753e-03 
 3.7444004138203644e-03  3.7933953965772179e-03  3.8430314721847412e-03  3.8933170292578508e-03 
 3.9442605661753746e-03  3.9958706925163059e-03  4.0481561305148296e-03  4.1011257165344140e-03 
 4.1547884025611688e-03  4.2091532577167544e-03  4.2642294697910858e-03  4.3200263467950920e-03 
 4.3765533185337862e-03  4.4338199381999330e-03  4.4918358839885555e-03  4.5506109607325769e-03 
 4.6101551015598555e-03  4.6704783695719135e-03  4.7315909595446277e-03  4.7935031996511404e-03 
 4.8562255532073962e-03  4.9197686204404305e-03  4.9841431402798441e-03  5.0493599921727084e-03 
 5.1154301979222140e-03  5.1823649235503890e-03  5.2501754811851726e-03  5.3188733309722019e-03 
 5.3884700830115987e-03  5.4589774993201055e-03  5.5304074958188905e-03  5.6027721443473750e-03 
 5.6760836747033932e-03  5.7503544767100647e-03  5.8255971023096998e-03  5.9018242676851093e-03 
 5.9790488554086830e-03  6.0572839166195235e-03  6.1365426732291955e-03  6.2168385201562069e-03 
 6.2981850275898024e-03  6.3805959432833501e-03  6.4640851948777498e-03  6.5486668922552305e-03 
 6.6343553299239612e-03  6.7211649894338603e-03  6.8091105418239938e-03  6.8982068501020379e-03 
 6.9884689717561507e-03  7.0799121612997208e-03  7.1725518728494256e-03  7.2664037627370110e-03 
 7.3614836921552414e-03  7.4578077298384912e-03  7.5553921547783995e-03  7.6542534589750175e-03 
 7.7544083502240667e-03  7.8558737549405434e-03  7.9586668210193459e-03  8.0628049207332967e-03 
 8.1683056536691074e-03  8.2751868497017468e-03  8.3834665720077303e-03  8.4931631201178442e-03 
 8.6042950330098081e-03  8.7168810922414047e-03  8.8309403251246102e-03  8.9464920079412556e-03 
 9.0635556692007582e-03  9.1821510929404951e-03  9.3022983220693491e-03  9.4240176617550013e-03 
 9.5473296828555813e-03  9.6722552253961109e-03  9.7988154020906392e-03  9.9270316019102502e-03 
 1.0056925493697879e-02  1.0188519029830397e-02  1.0321834449928619e-02  1.0456894284615843e-02 
 1.0593721359325587e-02  1.0732338798159137e-02  1.0872770027793582e-02  1.1015038781440969e-02 
 1.1159169102859278e-02  1.1305185350415871e-02  1.1453112201204117e-02  1.1602974655213887e-02 
 1.1754798039556586e-02  1.1908608012745526e-02  1.2064430569032282e-02  1.2222292042799695e-02 
 1.2382219113012580e-02  1.2544238807726442e-02  1.2708378508655312e-02  1.2874665955799315e-02 
 1.3043129252132800e-02  1.3213796868353802e-02  1.3386697647695669e-02  1.3561860810801634e-02 
 1.3739315960663169e-02  1.3919093087622953e-02  1.4101222574443333e-02  1.4285735201441069e-02 
 1.4472662151689283e-02  1.4662035016287467e-02  1.4853885799700463e-02  1.5048246925167296e-02 
 1.5245151240180790e-02  1.5444632022038784e-02  1.5646722983468222e-02  1.5851458278322579e-02 
 1.6058872507353977e-02  1.6269000724060789e-02  1.6481878440611761e-02  1.6697541633847662e-02 
 1.6916026751361449e-02  1.7137370717657995e-02  1.7361610940394425e-02  1.7588785316702094e-02 
 1.7818932239591301e-02  1.8052090604439779e-02  1.8288299815566126e-02  1.8527599792889232e-02 
 1.8770030978674815e-02  1.9015634344370282e-02  1.9264451397529025e-02  1.9516524188825185e-02 
 1.9771895319160470e-02  2.0030607946863708e-02  2.0292705794984760e-02  2.0558233158683763e-02 
 2.0827234912717169e-02  2.1099756519021656e-02  2.1375844034397323e-02  2.1655544118291375e-02 
 2.1938904040683715e-02  2.2225971690075640e-02  2.2516795581583152e-02  2.2811424865136102e-02 
 2.3109909333784654e-02  2.3412299432114442e-02  2.3718646264771791e-02  2.4029001605100558e-02 
 2.4343417903891981e-02  2.4661948298248811e-02  2.4984646620565865e-02  2.5311567407627671e-02 
 2.5642765909825345e-02  2.5978298100494044e-02  2.6318220685372588e-02  2.6662591112186874e-02 
 2.7011467580358661e-02  2.7364909050841438e-02  2.7722975256084935e-02  2.8085726710130075e-02 
 2.8453224718835973e-02  2.8825531390240782e-02  2.9202709645058094e-02  2.9584823227310694e-02 
 2.9971936715103457e-02  3.0364115531537176e-02  3.0761425955765316e-02  3.1163935134195089e-02 
 3.1571711091835729e-02  3.1984822743794612e-02  3.2403339906924157e-02  3.2827333311621076e-02 
 3.3256874613779880e-02  3.3692036406902985e-02  3.4132892234369168e-02  3.4579516601862550e-02 
 3.5031984989964238e-02  3.5490373866908738e-02  3.5954760701507271e-02  3.6425223976240172e-02 
 3.6901843200520611e-02  3.7384698924131897e-02  3.7873872750840552e-02  3.8369447352187593e-02 
 3.8871506481460212e-02  3.9380134987846080e-02  3.9895418830773417e-02  4.0417445094438120e-02 
 4.0946302002521209e-02  4.1482078933098882e-02  4.2024866433747608e-02  4.2574756236846881e-02 
 4.3131841275082225e-02  4.3696215697151021e-02  4.4267974883673851e-02  4.4847215463314077e-02 
 4.5434035329108328e-02  4.6028533655010584e-02  4.6630810912652913e-02  4.7240968888325303e-02 
 4.7859110700177912e-02  4.8485340815648155e-02  4.9119765069116132e-02  4.9762490679790494e-02 
 5.0413626269829294e-02  5.1073281882696990e-02  5.1741569001762223e-02  5.2418600569138690e-02 
 5.3104491004772679e-02  5.3799356225780304e-02  5.4503313666037757e-02  5.5216482296027929e-02 
 5.5938982642946701e-02  5.6670936811072319e-02  5.7412468502401323e-02  5.8163703037554457e-02 
 5.8924767376956178e-02  5.9695790142291268e-02  6.0476901638242139e-02  6.1268233874510747e-02 
 6.2069920588128595e-02  6.2882097266058146e-02  6.3704901168091133e-02  6.4538471350045340e-02 
 6.5382948687265519e-02  6.6238475898431598e-02  6.7105197569678476e-02  6.7983260179031502e-02 
 6.8872812121161531e-02  6.9774003732463966e-02  7.0686987316466082e-02  7.1611917169566552e-02 
 7.2548949607111959e-02  7.3498242989814486e-02  7.4459957750515227e-02  7.5434256421297710e-02 
 7.6421303660956202e-02  7.7421266282823517e-02  7.8434313282962839e-02  7.9460615868728129e-02 
 8.0500347487699186e-02  8.1553683856994255e-02  8.2620802992966827e-02  8.3701885241290713e-02 
 8.4797113307438970e-02  8.5906672287561506e-02  8.7030749699766818e-02  8.8169535515813025e-02 
 8.9323222193213397e-02  9.0492004707762363e-02  9.1676080586486644e-02  9.2875649941027982e-02 
 9.4090915501462397e-02  9.5322082650562023e-02  9.6569359458505394e-02  9.7832956718041666e-02 
 9.9113087980115352e-02  1.0040996958995624e-01  1.0172382072364330e-01  1.0305486342514517e-01 
 1.0440332264384643e-01  1.0576942627256450e-01  1.0715340518606412e-01  1.0855549328007563e-01 
 1.0997592751082405e-01  1.1141494793507518e-01  1.1287279775070566e-01  1.1434972333780422e-01 
 1.1584597430031023e-01  1.1736180350819765e-01  1.1889746714021039e-01  1.2045322472715728e-01 
 1.2202933919577341e-01  1.2362607691315526e-01  1.2524370773177768e-01  1.2688250503509868e-01 
 1.2854274578376323e-01  1.3022471056240945e-01  1.3192868362708809e-01  1.3365495295330276e-01 
 1.3540381028467824e-01  1.3717555118226599e-01  1.3897047507449464e-01  1.4078888530777409e-01 
 1.4263108919776166e-01  1.4449739808129947e-01  1.4638812736903081e-01  1.4830359659870540e-01 
 1.5024412948918209e-01  1.5221005399513801e-01  1.5420170236249378e-01  1.5621941118456376e-01 
 1.5826352145894154e-01  1.6033437864512809e-01  1.6243233272291696e-01  1.6455773825154071e-01 
 1.6671095442959227e-01  1.6889234515573068e-01  1.7110227909018053e-01  1.7334112971703658e-01 
 1.7560927540738344e-01  1.7790709948324121e-01  1.8023499028234780e-01  1.8259334122378879e-01 
 1.8498255087448642e-01  1.8740302301655820e-01  1.8985516671555711e-01  1.9233939638960465e-01 
 1.9485613187942832e-01  1.9740579851931608e-01  1.9998882720899891e-01  2.0260565448647241e-01 
 2.0525672260177524e-01  2.0794247959172860e-01  2.1066337935565616e-01  2.1341988173209406e-01 
 2.1621245257650462e-01  2.1904156384000723e-01  2.2190769364913884e-01  2.2481132638665896e-01 
 2.2775295277341115e-01  2.3073306995125611e-01  2.3375218156708982e-01  2.3681079785796116e-01 
 2.3990943573730314e-01  2.4304861888229240e-01  2.4622887782235198e-01  2.4945075002881212e-01 
 2.5271478000574443e-01  2.5602151938198292e-01  2.5937152700435295e-01  2.6276536903211606e-01 
 2.6620361903265255e-01  2.6968685807839599e-01  2.7321567484503545e-01  2.7679066571100341e-01 
 2.8041243485826517e-01  2.8408159437442670e-01  2.8779876435617913e-01  2.9156457301409666e-01 
 2.9537965677880546e-01  2.9924466040854208e-01  3.0316023709811896e-01  3.0712704858931605e-01 
 3.1114576528271698e-01  3.1521706635100810e-01  3.1934163985375918e-01  3.2352018285370959e-01 
 3.2775340153457155e-01  3.3204201132037758e-01  3.3638673699638899e-01  3.4078831283158573e-01 
 3.4524748270276012e-01  3.4976500022023377e-01  3.5434162885521908e-01  3.5897814206884826e-01 
 3.6367532344288983e-01  3.6843396681217572e-01  3.7325487639876137e-01  3.7813886694784105e-01 
 3.8308676386544210e-01  3.8809940335791987e-01  3.9317763257327931e-01  3.9832230974434507e-01 
 4.0353430433380261e-01  4.0881449718114321e-01  4.1416378065152554e-01  4.1958305878658780e-01 
 4.2507324745723324e-01  4.3063527451841438e-01  4.3627007996594286e-01  4.4197861609535050e-01 
 4.4776184766283011e-01  4.5362075204828134e-01  4.5955631942048986e-01  4.6556955290446905e-01 
 4.7166146875098963e-01  4.7783309650832906e-01  4.8408547919626743e-01  4.9041967348236010e-01 
 4.9683674986051768e-01  5.0333779283192215e-01  5.0992390108830687e-01  5.1659618769764382e-01 
 5.2335578029225049e-01  5.3020382125936394e-01  5.3714146793420658e-01  5.4416989279557881e-01 
 5.5129028366401045e-01  5.5850384390250551e-01  5.6581179261991332e-01  5.7321536487696068e-01 
 5.8071581189498023e-01  5.8831440126736989e-01  5.9601241717381892e-01  6.0381116059733753e-01 
 6.1171194954412611e-01  6.1971611926632109e-01  6.2782502248765659e-01  6.3604002963207784e-01 
 6.4436252905534264e-01  6.5279392727966290e-01  6.6133564923140609e-01  6.6998913848191222e-01 
 6.7875585749146083e-01  6.8763728785643008e-01  6.9663493055969017e-01  7.0575030622427359e-01 
 7.1498495537036277e-01  7.2434043867564302e-01  7.3381833723905976e-01  7.4342025284802848e-01 
 7.5314780824914074e-01  7.6300264742241153e-01  7.7298643585911697e-01  7.8310086084326502e-01 
 7.9334763173675149e-01  8.0372848026824695e-01  8.1424516082585796e-01  8.2489945075363058e-01 
 8.3569315065192118e-01  8.4662808468170236e-01  8.5770610087285171e-01  8.6892907143647213e-01 
 8.8029889308130027e-01  8.9181748733425592e-01  9.0348680086518285e-01  9.1530880581584195e-01 
 9.2728550013320754e-01  9.3941890790712468e-01  9.5171107971238611e-01  9.6416409295528327e-01 
 9.7678005222469388e-01  9.8956108964776124e-01  1.0025093652502304e+00  1.0156270673214978e+00 
 1.0289164127844315e+00  1.0423796475700464e+00  1.0560190469970649e+00  1.0698369161564534e+00 
 1.0838355903009880e+00  1.0980174352399166e+00  1.1123848477387885e+00  1.1269402559245121e+00 
 1.1416861196957138e+00  1.1566249311384671e+00  1.1717592149474623e+00  1.1870915288526838e+00 
 1.2026244640516739e+00  1.2183606456474516e+00  1.2343027330921599e+00  1.2504534206365208e+00 
 1.2668154377851690e+00  1.2833915497579487e+00  1.3001845579572313e+00  1.3171973004413733e+00 
 1.3344326524043477e+00  1.3518935266616567e+00  1.3695828741426088e+00  1.3875036843890312e+00 
 1.4056589860605078e+00  1.4240518474462331e+00  1.4426853769835581e+00  1.4615627237833240e+00 
 1.4806870781620702e+00  1.5000616721812043e+00  1.5196897801932285e+00  1.5395747193951144e+00 
  </PP_RAB>
</PP_MESH>


<PP_LOCAL>
-2.4758030930210211e+01 -2.4758030929213305e+01 -2.4758030928191847e+01 -2.4758030926959051e+01 
-2.4758030925693774e+01 -2.4758030924394927e+01 -2.4758030923061781e+01 -2.4758030921693081e+01 
-2.4758030920287990e+01 -2.4758030918846085e+01 -2.4758030917365968e+01 -2.4758030915846266e+01 
-2.4758030914286170e+01 -2.4758030912684792e+01 -2.4758030911041104e+01 -2.4758030909353678e+01 
-2.4758030907621198e+01 -2.4758030905842812e+01 -2.4758030904017332e+01 -2.4758030902143314e+01 
-2.4758030900219332e+01 -2.4758030898243913e+01 -2.4758030896215985e+01 -2.4758030894134404e+01 
-2.4758030891997198e+01 -2.4758030889802573e+01 -2.4758030887549811e+01 -2.4758030885237154e+01 
-2.4758030882862297e+01 -2.4758030880424126e+01 -2.4758030877921136e+01 -2.4758030875351047e+01 
-2.4758030872711899e+01 -2.4758030870002216e+01 -2.4758030867220384e+01 -2.4758030864363533e+01 
-2.4758030861429944e+01 -2.4758030858418383e+01 -2.4758030855325423e+01 -2.4758030852149009e+01 
-2.4758030848887692e+01 -2.4758030845538642e+01 -2.4758030842099068e+01 -2.4758030838566633e+01 
-2.4758030834939145e+01 -2.4758030831213890e+01 -2.4758030827387568e+01 -2.4758030823457752e+01 
-2.4758030819421695e+01 -2.4758030815275923e+01 -2.4758030811017537e+01 -2.4758030806643664e+01 
-2.4758030802150888e+01 -2.4758030797535493e+01 -2.4758030792793878e+01 -2.4758030787922902e+01 
-2.4758030782918958e+01 -2.4758030777777861e+01 -2.4758030772495541e+01 -2.4758030767067734e+01 
-2.4758030761490655e+01 -2.4758030755759993e+01 -2.4758030749870560e+01 -2.4758030743818107e+01 
-2.4758030737598119e+01 -2.4758030731204894e+01 -2.4758030724633194e+01 -2.4758030717878199e+01 
-2.4758030710934030e+01 -2.4758030703794731e+01 -2.4758030696454796e+01 -2.4758030688907613e+01 
-2.4758030681146284e+01 -2.4758030673165017e+01 -2.4758030664956113e+01 -2.4758030656511981e+01 
-2.4758030647826420e+01 -2.4758030638890688e+01 -2.4758030629695849e+01 -2.4758030620234251e+01 
-2.4758030610497233e+01 -2.4758030600475060e+01 -2.4758030590157656e+01 -2.4758030579534942e+01 
-2.4758030568596531e+01 -2.4758030557331097e+01 -2.4758030545726953e+01 -2.4758030533772004e+01 
-2.4758030521453207e+01 -2.4758030508756775e+01 -2.4758030495668692e+01 -2.4758030482174181e+01 
-2.4758030468256653e+01 -2.4758030453899650e+01 -2.4758030439086031e+01 -2.4758030423796878e+01 
-2.4758030408012122e+01 -2.4758030391710950e+01 -2.4758030374871293e+01 -2.4758030357469050e+01 
-2.4758030339479649e+01 -2.4758030320876443e+01 -2.4758030301629699e+01 -2.4758030281709299e+01 
-2.4758030261083679e+01 -2.4758030239717058e+01 -2.4758030217571843e+01 -2.4758030194609340e+01 
-2.4758030170784064e+01 -2.4758030146049563e+01 -2.4758030120359098e+01 -2.4758030093656313e+01 
-2.4758030065881414e+01 -2.4758030036973253e+01 -2.4758030006863976e+01 -2.4758029975478500e+01 
-2.4758029942735352e+01 -2.4758029908547954e+01 -2.4758029872821815e+01 -2.4758029835452323e+01 
-2.4758029796325058e+01 -2.4758029755318027e+01 -2.4758029712293382e+01 -2.4758029667102036e+01 
-2.4758029619588108e+01 -2.4758029569566659e+01 -2.4758029516837532e+01 -2.4758029461190951e+01 
-2.4758029402385983e+01 -2.4758029340161944e+01 -2.4758029274227940e+01 -2.4758029204259593e+01 
-2.4758029129904166e+01 -2.4758029050767931e+01 -2.4758028966419943e+01 -2.4758028876372208e+01 
-2.4758028780082530e+01 -2.4758028676961224e+01 -2.4758028566342066e+01 -2.4758028447481639e+01 
-2.4758028319558676e+01 -2.4758028181642942e+01 -2.4758028032705692e+01 -2.4758027871606480e+01 
-2.4758027697049684e+01 -2.4758027507592054e+01 -2.4758027301619070e+01 -2.4758027077309404e+01 
-2.4758026832634265e+01 -2.4758026565318485e+01 -2.4758026272771023e+01 -2.4758025952103694e+01 
-2.4758025600065544e+01 -2.4758025212972225e+01 -2.4758024786708901e+01 -2.4758024316598060e+01 
-2.4758023797338037e+01 -2.4758023223005363e+01 -2.4758022586864985e+01 -2.4758021881260515e+01 
-2.4758021097591207e+01 -2.4758020226098147e+01 -2.4758019255692481e+01 -2.4758018173789079e+01 
-2.4758016966154315e+01 -2.4758015616643394e+01 -2.4758014106821076e+01 -2.4758012415788741e+01 
-2.4758010519886497e+01 -2.4758008392035119e+01 -2.4758006001374532e+01 -2.4758003313016491e+01 
-2.4758000287136745e+01 -2.4757996878153136e+01 -2.4757993034243011e+01 -2.4757988696387969e+01 
-2.4757983797144057e+01 -2.4757978259589795e+01 -2.4757971996031053e+01 -2.4757964906170450e+01 
-2.4757956875473589e+01 -2.4757947773440012e+01 -2.4757937450683219e+01 -2.4757925736394583e+01 
-2.4757912436008585e+01 -2.4757897326923914e+01 -2.4757880154317419e+01 -2.4757860627577642e+01 
-2.4757838414937929e+01 -2.4757813136601719e+01 -2.4757784358902210e+01 -2.4757751587533786e+01 
-2.4757714256667647e+01 -2.4757671720698404e+01 -2.4757623244526123e+01 -2.4757567987940856e+01 
-2.4757504993086329e+01 -2.4757433167756496e+01 -2.4757351268869570e+01 -2.4757257882984103e+01 
-2.4757151396792661e+01 -2.4757029978501279e+01 -2.4756891549418683e+01 -2.4756733746906914e+01 
-2.4756553892220673e+01 -2.4756348945192869e+01 -2.4756115465678707e+01 -2.4755849567578551e+01 
-2.4755546855196183e+01 -2.4755202366311025e+01 -2.4754810505825294e+01 -2.4754364977570315e+01 
-2.4753858699938270e+01 -2.4753283717890149e+01 -2.4752631113801403e+01 -2.4751890901872684e+01 
-2.4751051920372269e+01 -2.4750101701392047e+01 -2.4749026368533276e+01 -2.4747810492745234e+01 
-2.4746436948383092e+01 -2.4744886773914406e+01 -2.4743139041035903e+01 -2.4741170721754020e+01 
-2.4738956523693425e+01 -2.4736468820916215e+01 -2.4733677536769846e+01 -2.4730550117332893e+01 
-2.4727051541665777e+01 -2.4723144401167492e+01 -2.4718789099423986e+01 -2.4713944172264622e+01 
-2.4708566849574417e+01 -2.4702613692138019e+01 -2.4696041598609177e+01 -2.4688809107267861e+01 
-2.4680877998843208e+01 -2.4672215372866106e+01 -2.4662795991693326e+01 -2.4652605184846756e+01 
-2.4641642205681034e+01 -2.4629923706921076e+01 -2.4617487629225639e+01 -2.4604397203343659e+01 
-2.4590744641753272e+01 -2.4576654483641917e+01 -2.4562286169713545e+01 -2.4547835352746539e+01 
-2.4533533678068995e+01 -2.4519646507534084e+01 -2.4506468236981050e+01 -2.4494315103622561e+01 
-2.4483515306484367e+01 -2.4474396588601255e+01 -2.4467271700565782e+01 -2.4462422496702672e+01 
-2.4460083590342411e+01 -2.4459896469211721e+01 -2.4459905370360069e+01 -2.4459914512574795e+01 
-2.4459923885064850e+01 -2.4459933501531587e+01 -2.4459943384456569e+01 -2.4459953523490086e+01 
-2.4459963923171415e+01 -2.4459974602101131e+01 -2.4459985559169667e+01 -2.4459996803403826e+01 
-2.4460008349039899e+01 -2.4460020197737851e+01 -2.4460032351148662e+01 -2.4460044827263271e+01 
-2.4460057636208475e+01 -2.4460070781416235e+01 -2.4460084270957779e+01 -2.4460098110870231e+01 
-2.4460112317704887e+01 -2.4460126905403765e+01 -2.4460141873136884e+01 -2.4460157229062595e+01 
-2.4460172990793772e+01 -2.4460189169853319e+01 -2.4460205777283107e+01 -2.4460222816733758e+01 
-2.4460240304168156e+01 -2.4460258254582328e+01 -2.4460276674728398e+01 -2.4460295583599379e+01 
-2.4460314986863558e+01 -2.4460334897938779e+01 -2.4460355335760852e+01 -2.4460376309711101e+01 
-2.4460397835745180e+01 -2.4460419930050698e+01 -2.4460442604769241e+01 -2.4460465872334535e+01 
-2.4460489752491299e+01 -2.4460514262511325e+01 -2.4460539416813873e+01 -2.4460565231276476e+01 
-2.4460591724500429e+01 -2.4460618915286059e+01 -2.4460646819449828e+01 -2.4460675457487877e+01 
-2.4460704848387323e+01 -2.4460735010510032e+01 -2.4460765966184859e+01 -2.4460797736971418e+01 
-2.4460830341047213e+01 -2.4460863800854987e+01 -2.4460898141362094e+01 -2.4460933383088129e+01 
-2.4460969550095601e+01 -2.4461006668007279e+01 -2.4461044761526598e+01 -2.4461083854090539e+01 
-2.4461123972383714e+01 -2.4461165147595509e+01 -2.4461207401545057e+01 -2.4461250762870488e+01 
-2.4461295266388532e+01 -2.4461340936857926e+01 -2.4461387804434700e+01 -2.4461435904213047e+01 
-2.4461485265339991e+01 -2.4461535920650409e+01 -2.4461587907427685e+01 -2.4461641256129180e+01 
-2.4461696003912458e+01 -2.4461752190644198e+01 -2.4461809848125789e+01 -2.4461869016357085e+01 
-2.4461929738776274e+01 -2.4461992052849190e+01 -2.4462055999551605e+01 -2.4462121622838257e+01 
-2.4462188964657134e+01 -2.4462258071147925e+01 -2.4462328990113651e+01 -2.4462401766112194e+01 
-2.4462476446896336e+01 -2.4462553083641261e+01 -2.4462631727840801e+01 -2.4462712430846128e+01 
-2.4462795246093982e+01 -2.4462880228629658e+01 -2.4462967434743383e+01 -2.4463056922679499e+01 
-2.4463148751112634e+01 -2.4463242981075002e+01 -2.4463339674953211e+01 -2.4463438896491475e+01 
-2.4463540711586791e+01 -2.4463645187375477e+01 -2.4463752392215628e+01 -2.4463862397451059e+01 
-2.4463975276030880e+01 -2.4464091101328258e+01 -2.4464209949558985e+01 -2.4464331899493978e+01 
-2.4464457031551920e+01 -2.4464585427367219e+01 -2.4464717170880338e+01 -2.4464852348999191e+01 
-2.4464991050664544e+01 -2.4465133365679016e+01 -2.4465279387500878e+01 -2.4465429212525063e+01 
-2.4465582937381772e+01 -2.4465740662367242e+01 -2.4465902490845149e+01 -2.4466068528055221e+01 
-2.4466238882196635e+01 -2.4466413663640353e+01 -2.4466592985602158e+01 -2.4466776964605994e+01 
-2.4466965719897050e+01 -2.4467159373479827e+01 -2.4467358050732628e+01 -2.4467561879977502e+01 
-2.4467770991768624e+01 -2.4467985521185483e+01 -2.4468205606232456e+01 -2.4468431388159033e+01 
-2.4468663012111087e+01 -2.4468900625630113e+01 -2.4469144381128416e+01 -2.4469394434056266e+01 
-2.4469650943722293e+01 -2.4469914073779442e+01 -2.4470183990889428e+01 -2.4470460866275516e+01 
-2.4470744875339417e+01 -2.4471036197783796e+01 -2.4471335017258781e+01 -2.4471641522034396e+01 
-2.4471955904627301e+01 -2.4472278361947421e+01 -2.4472609096537067e+01 -2.4472948314686477e+01 
-2.4473296227801992e+01 -2.4473653052277342e+01 -2.4474019009353977e+01 -2.4474394326231625e+01 
-2.4474779234400422e+01 -2.4475173970895931e+01 -2.4475578778473583e+01 -2.4475993905417610e+01 
-2.4476419605434330e+01 -2.4476856137814238e+01 -2.4477303768393941e+01 -2.4477762768503101e+01 
-2.4478233415351419e+01 -2.4478715992746508e+01 -2.4479210790594546e+01 -2.4479718105004668e+01 
-2.4480238238834648e+01 -2.4480771501487840e+01 -2.4481318208748206e+01 -2.4481878683572727e+01 
-2.4482453255868471e+01 -2.4483042262116040e+01 -2.4483646046172680e+01 -2.4484264959089309e+01 
-2.4484899359069910e+01 -2.4485549611808928e+01 -2.4486216090521015e+01 -2.4486899175865275e+01 
-2.4487599256174843e+01 -2.4488316727689213e+01 -2.4489051994188923e+01 -2.4489805467481563e+01 
-2.4490577567441505e+01 -2.1841368721769292e+01 -2.1842179366436426e+01 -2.1843009945585170e+01 
-2.1843860911422123e+01 -2.1844732724429498e+01 -2.1845625853384927e+01 -2.1846540775562801e+01 
-2.1847477976492634e+01 -2.1848437949942433e+01 -2.1849421198236438e+01 -2.1850428231970053e+01 
-2.1851459570120060e+01 -2.1852515740113535e+01 -2.1853597277522411e+01 -2.1854704726286563e+01 
-2.1855838638654710e+01 -2.1856999574766505e+01 -2.1858188102918341e+01 -2.1859404799531312e+01 
-2.1860650248730121e+01 -2.1861925042294480e+01 -2.1863229779568215e+01 -2.1864565067393016e+01 
-2.1865931519784461e+01 -2.1867329757627651e+01 -2.1868760408670177e+01 -2.1870224107187877e+01 
-2.1871721493623955e+01 -2.1873253214341279e+01 -2.1874819921327234e+01 -2.1876422271822960e+01 
-2.1878060927891291e+01 -2.1879736556067716e+01 -2.1881449826874128e+01 -2.1883201414320336e+01 
-2.1884991995462340e+01 -2.1886822249828345e+01 -2.1888692858778651e+01 -2.1890604504918844e+01 
-2.1892557871518598e+01 -2.1894553641727452e+01 -2.1896592497790341e+01 -2.1898675120341959e+01 
-2.1900802187590592e+01 -2.1902974374372526e+01 -2.1905192351255074e+01 -2.1907456783562989e+01 
-2.1909768330346218e+01 -2.1912127643343730e+01 -2.1914535365801004e+01 -2.1916992131283973e+01 
-2.1919498562494720e+01 -2.1922055269939879e+01 -2.1924662850553499e+01 -2.1927321886332194e+01 
-2.1930032942832252e+01 -2.1932796567635890e+01 -2.1935613288768430e+01 -2.1938483613033377e+01 
-2.1941408024299623e+01 -2.1944386981710160e+01 -2.1947420917833423e+01 -2.1950510236765993e+01 
-2.1953655312157458e+01 -2.1956856485166252e+01 -2.1960114062371623e+01 -2.1963428313612809e+01 
-2.1966799469764819e+01 -2.1970227720466628e+01 -2.1973713211782201e+01 -2.1977256043801912e+01 
-2.1980856268207834e+01 -2.1984513885764255e+01 -2.1988228843771772e+01 -2.1992001033486435e+01 
-2.1995830287468230e+01 -2.1999716376910378e+01 -2.2003659008946492e+01 -2.2007657823885886e+01 
-2.2011712392459049e+01 -2.2015822213055174e+01 -2.2019986708893821e+01 -2.2024205225224009e+01 
-2.2028477026539012e+01 -2.2032801293769751e+01 -2.2037177121482859e+01 -2.2041603515115092e+01 
-2.2046079388258157e+01 -2.2050603559963022e+01 -2.2055174752071942e+01 -2.2059791586646874e+01 
-2.2064452583452642e+01 -2.2069156157494529e+01 -2.2073900616686345e+01 -2.2078684159612433e+01 
-2.2083504873372501e+01 -2.2088360731557319e+01 -2.2093249592416267e+01 -2.2098169197117759e+01 
-2.2103117168179981e+01 -2.2108091008101841e+01 -2.2113088098154954e+01 -2.2118105697424092e+01 
-2.2123140941994475e+01 -2.2128190844410817e+01 -2.2133252293409079e+01 -2.2138322053834990e+01 
-2.2143396766849104e+01 -2.2148472950445175e+01 -2.2153547000243783e+01 -2.2158615190558191e+01 
-2.2163673675820476e+01 -2.2168718492312500e+01 -2.2173745560208502e+01 -2.2178750685995396e+01 
-2.2183729565244857e+01 -2.2188677785719300e+01 -2.2193590830838463e+01 -2.2198464083564868e+01 
-2.2203292830632527e+01 -2.2208072267128330e+01 -2.2212797501497466e+01 -2.2217463560917711e+01 
-2.2222065397054006e+01 -2.2226597892187073e+01 -2.2231055865693033e+01 -2.2235434080956811e+01 
-2.2239727252618859e+01 -2.2243930054136111e+01 -2.2248037125764171e+01 -2.2252043082844498e+01 
-2.2255942524416753e+01 -2.2259730042162563e+01 -2.2263400229624882e+01 -2.2266947691733233e+01 
-2.2270367054604726e+01 -2.2273652975580262e+01 -2.2276800153482519e+01 -2.2279803339130485e+01 
-2.2282657346030579e+01 -2.2285357061197253e+01 -2.2287897456165783e+01 -2.2290273598159438e+01 
-2.2292480661304602e+01 -2.2294513937955546e+01 -2.2296368850081279e+01 -2.2298040960681071e+01 
-2.2299525985229891e+01 -2.2300819803093582e+01 -2.2301918468927234e+01 -2.2302818224008281e+01 
-2.2303515507510806e+01 -2.2304006967669952e+01 -2.2304289472839493e+01 -2.2304360122415634e+01 
-2.2304216257602924e+01 -2.2303855472028726e+01 -2.2303275622154903e+01 -2.2302474837499521e+01 
-2.2301451530660803e+01 -2.2300204407117121e+01 -2.2298732474781435e+01 -2.2297035053330337e+01 
-2.2295111783310411e+01 -2.2292962634968362e+01 -2.2290587916826876e+01 -2.2287988284034785e+01 
-2.2285164746457141e+01 -2.2282118676500083e+01 -2.2278851816709427e+01 -2.2275366287110526e+01 
-2.2271664592321201e+01 -2.2267749628446403e+01 -2.2263624689722104e+01 -2.2259293474978882e+01 
-2.2254760093888915e+01 -2.2250029073024606e+01 -2.2245105361742993e+01 -2.2239994337891932e+01 
-2.2234701813371913e+01 -2.2229234039537964e+01 -2.2223597712480057e+01 -2.2217799978168589e+01 
-2.2211848437480931e+01 -2.2205751151119333e+01 -2.2199516644433583e+01 -2.2193153912125439e+01 
-2.2186672422841315e+01 -2.2180082123687960e+01 -2.2173393444607608e+01 -2.2166617302637871e+01 
-2.2159765106040759e+01 -2.2152848758252890e+01 -2.2145880661659682e+01 -2.2138873721159648e+01 
-2.2131841347467134e+01 -2.2124797460104407e+01 -2.2117756490051942e+01 -2.2110733381991125e+01 
-2.2103743596051270e+01 -2.2096803108999808e+01 -2.2089928414788368e+01 -2.2083136524360125e+01 
-2.2076444964601162e+01 -2.2069871776315214e+01 -2.2063435511124965e+01 -2.2057155227141326e+01 
-2.2051050483223083e+01 -2.2045141331722089e+01 -2.2039448309528211e+01 -2.2033992427196111e+01 
-2.2028795156010172e+01 -2.2023878412773186e+01 -2.2019264542098291e+01 -2.2014976295998007e+01 
-2.2011036810551811e+01 -2.2007469579415272e+01 -2.2004298423927935e+01 -2.2001547459602477e+01 
-2.1999241058748250e+01 -2.1997403808979726e+01 -2.1996060467390723e+01 -2.1995235910159220e+01 
-2.1994955077361372e+01 -2.1995242912788626e+01 -2.1996124298563881e+01 -2.1997623984392760e+01 
-2.1999766511293494e+01 -2.2002576129673706e+01 -2.2006076711661436e+01 -2.2010291657629285e+01 
-2.2015243796905910e+01 -2.2020955282691403e+01 -2.2027447481255692e+01 -2.2034740855579045e+01 
-2.2042854843622930e+01 -2.2051807731515140e+01 -2.2061616522001838e+01 -2.2072296798597691e+01 
-2.2083862585978022e+01 -2.2096326207217867e+01 -2.2109698138613552e+01 -2.2123986862924124e+01 
-2.2139198721969585e+01 -2.2155337769666563e+01 -2.2172405626682572e+01 -2.2190401338018731e+01 
-2.2209321234970002e+01 -2.2229158803034750e+01 -2.2249904557466575e+01 -2.2271545928290333e+01 
-2.2294067156734439e+01 -2.2317449205136850e+01 -2.2341669682483161e+01 -2.2366702787840918e+01 
-2.2392519274027986e+01 -2.2419086433903939e+01 -2.2446368111726787e+01 -2.2474324742013827e+01 
-2.2502913418333954e+01 -2.2532087994410713e+01 -2.2561799219800101e+01 -2.2591994912286925e+01 
-2.2622620168950064e+01 -2.2653617617592349e+01 -2.2684927709930740e+01 -2.2716489057569490e+01 
-2.2748238811333582e+01 -2.2780113084017561e+01 -2.2812047416011453e+01 -2.2843977282578617e+01 
-2.2875838640788587e+01 -2.2907568513263538e+01 -2.2939105604950417e+01 -2.2970390948104157e+01 
-2.3001368569573117e+01 -2.3031986173295394e+01 -2.3062195829682139e+01 -2.3091954662278905e+01 
-2.3121225520778545e+01 -2.3149977628139183e+01 -2.3178187188249201e+01 -2.3205837939324791e+01 
-2.3232921637054140e+01 -2.3259438450455168e+01 -2.3285397252544026e+01 -2.3310815698978939e+01 
-2.3335720600851950e+01 -2.3360147272798027e+01 -2.3384139552977398e+01 -2.3407749205831049e+01 
-2.3431035193361026e+01 -2.3454062718902250e+01 -2.3476902032168727e+01 -2.3499626987490583e+01 
-2.3522313351825805e+01 -2.3545036864873172e+01 -2.3567871058702149e+01 -2.3590884851678751e+01 
-2.3614139938747627e+01 -2.3637688009475031e+01 -2.3661567833032151e+01 -2.3685802259246245e+01 
-2.3710395195270259e+01 -2.3735328625949645e+01 -2.3760559756097813e+01 -2.3786018362105871e+01 
-2.3811604446212147e+01 -2.3837186295720930e+01 -2.3862599050187168e+01 -2.3887643884563055e+01 
-2.3912087911427793e+01 -2.3935664902749767e+01 -2.3958076920938428e+01 -2.3979005808139839e+01 
-2.3998075255522007e+01 -2.4014930366131178e+01 -2.4029182536194547e+01 -2.4040432857950787e+01 
-2.4048284968313457e+01 -2.4052350929194031e+01 -2.4052260567011214e+01 -2.4047671267209243e+01 
-2.4038277948572883e+01 -2.4023822888903037e+01 -2.4004105023838200e+01 -2.3978988297057295e+01 
-2.3948408605785119e+01 -2.3912378863549836e+01 -2.3870991698287515e+01 -2.3824419319839848e+01 
-2.3772910132889436e+01 -2.3716781742772174e+01 -2.3656410103510030e+01 -2.3592214696991380e+01 
-2.3524639803264513e+01 -2.3454132130484048e+01 -2.3381115309357863e+01 -2.3305962017765822e+01 
-2.3228964775749876e+01 -2.3150306724028052e+01 -2.3070033956231313e+01 -2.2988031192540099e+01 
-2.2904002739131176e+01 -2.2817460748097048e+01 -2.2727722750782085e+01 -2.2633920259794412e+01 
-2.2535019900754904e+01 -2.2429858028868960e+01 -2.2317189099063366e+01 -2.2195747198337664e+01 
-2.2064319125761184e+01 -2.1921826257678592e+01 -2.1767411207981390e+01 -2.1600524059631127e+01 
-2.1421001797481559e+01 -2.1229133629710734e+01 -2.1025704285222059e+01 -2.0812007276146442e+01 
-2.0589820679400592e+01 -2.0361339381813266e+01 -2.0129060076434197e+01 -1.9895618664631957e+01 
-1.9663584088394529e+01 -1.9435217839831818e+01 -1.9212214164561271e+01 -1.8995441816569418e+01 
-1.8784713494202212e+01 -1.8578613028472898e+01 -1.8374412178758632e+01 -1.8168107736327503e+01 
-1.7954604875412720e+01 -1.7728063908592098e+01 -1.7482414663710532e+01 -1.7212025836376792e+01 
-1.6912496504332854e+01 -1.6581514592473660e+01 -1.6219704097865741e+01 -1.5831361729162365e+01 
-1.5424967648178219e+01 -1.5013349040135534e+01 -1.4613381617187288e+01 -1.6895169625623691e+01 
-1.6580442157469697e+01 -1.6342576153776484e+01 -1.6184961007545947e+01 -1.5989514080902403e+01 
-1.5782008362220409e+01 -1.5578477311644519e+01 -1.5377233521270238e+01 -1.5178431294098550e+01 
-1.4982052642642060e+01 -1.4788114196245962e+01 -1.4596647151817002e+01 -1.4407700007035977e+01 
-1.4221337408043901e+01 -1.4037585251655322e+01 -1.3856311196843510e+01 -1.3677358500112263e+01 
-1.3500703781347427e+01 -1.3326330596567161e+01 -1.3154209506635310e+01 -1.2984311448074916e+01 
-1.2816607728546071e+01 -1.2651070022474370e+01 -1.2487670366651729e+01 -1.2326381155888086e+01 
-1.2167175138887162e+01 -1.2010025414203804e+01 -1.1854905426283205e+01 -1.1701788960969850e+01 
-1.1550650140971852e+01 -1.1401463422933883e+01 -1.1254203593311747e+01 -1.1108845763510342e+01 
-1.0965365366204022e+01 -1.0823738151319866e+01 -1.0683940182016135e+01 -1.0545947830706449e+01 
-1.0409737775088637e+01 -1.0275286994237181e+01 -1.0142572764704111e+01 -1.0011572656688195e+01 
-9.8822645301913674e+00 -9.7546265310503966e+00 -9.6286370877917378e+00 -9.5042749082468081e+00 
-9.3815189746799525e+00 -9.2603485405095221e+00 -9.1407431275062709e+00 -9.0226825219920812e+00 
-8.9061467713965463e+00 -8.7911161808683271e+00 -8.6775713099520413e+00 -8.5654929692895205e+00 
-8.4548622174195156e+00 -8.3456603591987477e+00 -8.2378689361959587e+00 -8.1314697326760843e+00 
-8.0264447669562156e+00 -7.9227762895700291e+00 -7.8204467802974849e+00 -7.7194389452070418e+00 
-7.6197357137323225e+00 -7.5213202357848159e+00 -7.4241758789134682e+00 -7.3282862254867913e+00 
-7.2336350699193259e+00 -7.1402064159325489e+00 -7.0479844738585475e+00 -6.9569536579670910e+00 
-6.8670985838309750e+00 -6.7784040657262539e+00 -6.6908551140657124e+00 -6.6044369328656636e+00 
-6.5191349172453519e+00 -6.4349346509588408e+00 -6.3518219039584203e+00 -6.2697826299899866e+00 
-6.1888029642189251e+00 -6.1088692208870761e+00 -6.0299678909998349e+00 -5.9520856400429620e+00 
-5.8752093057291654e+00 -5.7993258957735403e+00 -5.7244225856978952e+00 -5.6504867166633836e+00 
-5.5775057933310395e+00 -5.5054674817501752e+00 -5.4343596072738016e+00 -5.3641701525011465e+00 
-5.2948872552466018e+00 -5.2264992065350455e+00 -5.1589944486230008e+00 -5.0923615730452774e+00 
-5.0265893186869919e+00 -4.9616665698803697e+00 -4.8975823545260821e+00 -4.8343258422391679e+00 
-4.7718863425183482e+00 -4.7102533029395746e+00 -4.6494163073724621e+00 -4.5893650742200620e+00 
-4.5300894546811215e+00 -4.4715794310350043e+00 -4.4138251149486329e+00 -4.3568167458053075e+00 
-4.3005446890552310e+00 -4.2449994350666609e+00 -4.1901715955507060e+00 -4.1360519050059255e+00 
-4.0826312170757273e+00 -4.0299005035367319e+00 -3.9778508527728240e+00 -3.9264734682691458e+00 
-3.8757596671254748e+00 -3.8257008785887270e+00 -3.7762886426045794e+00 -3.7275146083875716e+00 
-3.6793705330098594e+00 -3.6318482800082177e+00 -3.5849398180088170e+00 -3.5386372193700009e+00 
-3.4929326588424741e+00 -3.4478184122467885e+00 -3.4032868551679645e+00 -3.3593304616668953e+00 
-3.3159418030085366e+00 -3.2731135464064516e+00 -3.2308384537832824e+00 -3.1891093805478388e+00 
-3.1479192743875672e+00 -3.1072611740764455e+00 -3.0671282082988323e+00 -3.0275135944880414e+00 
-2.9884106376800967e+00 -2.9498127293822707e+00 -2.9117133464562239e+00 -2.8741060500156217e+00 
-2.8369844843378225e+00 -2.8003423757899566e+00 -2.7641735317759517e+00 -2.7284718396590386e+00 
-2.6932312657770558e+00 -2.6584458543891389e+00 -2.6241097266779732e+00 -2.5902170797562509e+00 
-2.5567621856859741e+00 -2.5237393905104200e+00 -2.4911431132986013e+00 -2.4589678452021055e+00 
-2.4272081485240209e+00 -2.3958586558000268e+00 -2.3649140688912391e+00 -2.3343691580888173e+00 
-2.3042187612301377e+00 -2.2744577828263695e+00 -2.2450811932013282e+00 -2.2160840276414482e+00 
-2.1874613855567344e+00 -2.1592084296525487e+00 -2.1313203851121001e+00 -2.1037925387894840e+00 
-2.0766202384131525e+00 -2.0497988917996701e+00 -2.0233239660776219e+00 -1.9971909869215474e+00 
-1.9713955377957664e+00 -1.9459332592079890e+00 -1.9207998479725292e+00 -1.8959910564830640e+00 
-1.8715026919947868e+00 -1.8473306159158140e+00 -1.8234707431077564e+00 -1.7999190411953210e+00 
-1.7766715298848288e+00 -1.7537242802915376e+00 -1.7310734142756490e+00 -1.7087151037868951e+00 
-1.6866455702175884e+00 -1.6648610837640281e+00 -1.6433579627961543e+00 -1.6221325732353440e+00 
-1.6011813279402431e+00 -1.5805006861005306e+00 -1.5600871526385105e+00 -1.5399372776184479e+00 
-1.5200476556635021e+00 -1.5004149253802239e+00 -1.4810357687904681e+00 -1.4619069107706459e+00 
-1.4430251184982239e+00 -1.4243872009053673e+00 -1.4059900081396433e+00 -1.3878304310316871e+00 
-1.3699054005697457e+00 -1.3522118873810081e+00 -1.3347469012196334e+00 -1.3175074904613817e+00 
-1.3004907416048230e+00 -1.2836937787788891e+00 -1.2671137632568843e+00 -1.2507478929767231e+00 
-1.2345934020673739e+00 -1.2186475603814282e+00 -1.2029076730336856e+00 -1.1873710799457227e+00 
-1.1720351553963286e+00 -1.1568973075777533e+00 -1.1419549781576863e+00 -1.1272056418468914e+00 
-1.1126468059724270e+00 -1.0982760100563789e+00 -1.0840908254000337e+00 -1.0700888546734220e+00 
-1.0562677315101650e+00 -1.0426251201075527e+00 -1.0291587148317871e+00 -1.0158662398283256e+00 
-1.0027454486372547e+00 -9.8979412381363341e-01 -9.7701007655274374e-01 -9.6439114632016998e-01 
-9.5193520048666858e-01 -9.3964013396774759e-01 -9.2750386886790137e-01 -9.1552435412944266e-01 
-9.0369956518586847e-01 -8.9202750361970296e-01 -8.8050619682476117e-01 -8.6913369767277260e-01 
-8.5790808418431297e-01 -8.4682745920398472e-01 -8.3588995007979316e-01 -8.2509370834666418e-01 
-8.1443690941404834e-01 -8.0391775225756235e-01 -7.9353445911460985e-01 -7.8328527518393520e-01 
-7.7316846832906272e-01 -7.6318232878555359e-01 -7.5332516887205692e-01 -7.4359532270508644e-01 
-7.3399114591748194e-01 -7.2451101538050755e-01 -7.1515332892953842e-01 -7.0591650509329285e-01 
-6.9679898282655739e-01 -6.8779922124636872e-01 -6.7891569937159935e-01 -6.7014691586590880e-01 
-6.6149138878401403e-01 -6.5294765532123733e-01 -6.4451427156628849e-01 -6.3618981225724069e-01 
-6.2797287054065765e-01 -6.1986205773383107e-01 -6.1185600309009425e-01 -6.0395335356715607e-01 
-5.9615277359843821e-01 -5.8845294486735977e-01 -5.8085256608453895e-01 -5.7335035276787161e-01 
-5.6594503702545140e-01 -5.5863536734129238e-01 -5.5142010836382016e-01 -5.4429804069709475e-01 
-5.3726796069472915e-01 -5.3032868025647062e-01 -5.2347902662740897e-01 -5.1671784219977823e-01 
-5.1004398431731757e-01 -5.0345632508216065e-01 -4.9695375116421725e-01 -4.9053516361301780e-01 
-4.8419947767199095e-01 -4.7794562259513224e-01 -4.7177254146604902e-01 -4.6567919101933786e-01 
-4.5966454146427033e-01 -4.5372757631075644e-01 -4.4786729219755467e-01 -4.4208269872270167e-01 
-4.3637281827613245e-01 -4.3073668587446140e-01 -4.2517334899789805e-01 -4.1968186742926905e-01 
-4.1426131309511910e-01 -4.0891076990886427e-01 -4.0362933361597109e-01 -3.9841611164113599e-01 
-3.9327022293743708e-01 -3.8819079783743504e-01 -3.8317697790619992e-01 -3.7822791579622933e-01 
-3.7334277510424718e-01 -3.6852073022984966e-01 -3.6376096623597592e-01 -3.5906267871118230e-01 
-3.5442507363369491e-01 -3.4984736723721749e-01 -3.4532878587847377e-01 -3.4086856590645942e-01 
-3.3646595353338338e-01 -3.3212020470727610e-01 -3.2783058498624251e-01 -3.2359636941434006e-01 
-3.1941684239905932e-01 -3.1529129759038704e-01 -3.1121903776143134e-01 -3.0719937469058811e-01 
-3.0323162904523243e-01 -2.9931513026690598e-01 -2.9544921645799366e-01 -2.9163323426986043e-01 
-2.8786653879243407e-01 -2.8414849344521392e-01 -2.8047846986968683e-01 -2.7685584782313366e-01 
-2.7328001507380623e-01 -2.6975036729745921e-01 -2.6626630797521744e-01 -2.6282724829276305e-01 
-2.5943260704082438e-01 -2.5608181051695034e-01 -2.5277429242855315e-01 -2.4950949379720358e-01 
-2.4628686286416257e-01 -2.4310585499713169e-01 -2.3996593259821122e-01 -2.3686656501304199e-01 
-2.3380722844112523e-01 -2.3078740584729890e-01 -2.2780658687435715e-01 -2.2486426775679882e-01 
-2.2195995123569018e-01 -2.1909314647462649e-01 -2.1626336897677986e-01 -2.1347014050301807e-01 
-2.1071298899108087e-01 -2.0799144847580045e-01 -2.0530505901035223e-01 -2.0265336658852265e-01 
</PP_LOCAL>


<PP_NONLOCAL>
  <PP_BETA>
  1  0      Beta    L
  1155  
 0.0000000000000000e+00  0.0000000000000000e+00  0.0000000000000000e+00  0.0000000000000000e+00 
 0.0000000000000000e+00  0.0000000000000000e+00  0.0000000000000000e+00  0.0000000000000000e+00 
 0.0000000000000000e+00  0.0000000000000000e+00  0.0000000000000000e+00  0.0000000000000000e+00 
 0.0000000000000000e+00  0.0000000000000000e+00  0.0000000000000000e+00  0.0000000000000000e+00 
 0.0000000000000000e+00  0.0000000000000000e+00  0.0000000000000000e+00  0.0000000000000000e+00 
 0.0000000000000000e+00  0.0000000000000000e+00  0.0000000000000000e+00  0.0000000000000000e+00 
 0.0000000000000000e+00  0.0000000000000000e+00  0.0000000000000000e+00  0.0000000000000000e+00 
 0.0000000000000000e+00  0.0000000000000000e+00  0.0000000000000000e+00  0.0000000000000000e+00 
 0.0000000000000000e+00  0.0000000000000000e+00  0.0000000000000000e+00  0.0000000000000000e+00 
 0.0000000000000000e+00  0.0000000000000000e+00  0.0000000000000000e+00  0.0000000000000000e+00 
 0.0000000000000000e+00  0.0000000000000000e+00  0.0000000000000000e+00  0.0000000000000000e+00 
 0.0000000000000000e+00  0.0000000000000000e+00  0.0000000000000000e+00  0.0000000000000000e+00 
 0.0000000000000000e+00  0.0000000000000000e+00  0.0000000000000000e+00  0.0000000000000000e+00 
 0.0000000000000000e+00  0.0000000000000000e+00  0.0000000000000000e+00  0.0000000000000000e+00 
 0.0000000000000000e+00  0.0000000000000000e+00  0.0000000000000000e+00  0.0000000000000000e+00 
 0.0000000000000000e+00  0.0000000000000000e+00  0.0000000000000000e+00  0.0000000000000000e+00 
 0.0000000000000000e+00  0.0000000000000000e+00  0.0000000000000000e+00  0.0000000000000000e+00 
 0.0000000000000000e+00  0.0000000000000000e+00  0.0000000000000000e+00  0.0000000000000000e+00 
 0.0000000000000000e+00  0.0000000000000000e+00  0.0000000000000000e+00  0.0000000000000000e+00 
 0.0000000000000000e+00  0.0000000000000000e+00  0.0000000000000000e+00  0.0000000000000000e+00 
 0.0000000000000000e+00  0.0000000000000000e+00  0.0000000000000000e+00  0.0000000000000000e+00 
 0.0000000000000000e+00  0.0000000000000000e+00  0.0000000000000000e+00  0.0000000000000000e+00 
 0.0000000000000000e+00  0.0000000000000000e+00  0.0000000000000000e+00  0.0000000000000000e+00 
 0.0000000000000000e+00  0.0000000000000000e+00  0.0000000000000000e+00  0.0000000000000000e+00 
 0.0000000000000000e+00  0.0000000000000000e+00  0.0000000000000000e+00  0.0000000000000000e+00 
 0.0000000000000000e+00  0.0000000000000000e+00  0.0000000000000000e+00  0.0000000000000000e+00 
 0.0000000000000000e+00  0.0000000000000000e+00  0.0000000000000000e+00  0.0000000000000000e+00 
 0.0000000000000000e+00  0.0000000000000000e+00  0.0000000000000000e+00  0.0000000000000000e+00 
 0.0000000000000000e+00  0.0000000000000000e+00  0.0000000000000000e+00  0.0000000000000000e+00 
 0.0000000000000000e+00  0.0000000000000000e+00  0.0000000000000000e+00  0.0000000000000000e+00 
 0.0000000000000000e+00  0.0000000000000000e+00  0.0000000000000000e+00  0.0000000000000000e+00 
 0.0000000000000000e+00  0.0000000000000000e+00  0.0000000000000000e+00  0.0000000000000000e+00 
 0.0000000000000000e+00  0.0000000000000000e+00  0.0000000000000000e+00  0.0000000000000000e+00 
 0.0000000000000000e+00  0.0000000000000000e+00  0.0000000000000000e+00  0.0000000000000000e+00 
 0.0000000000000000e+00  0.0000000000000000e+00  0.0000000000000000e+00  0.0000000000000000e+00 
 0.0000000000000000e+00  0.0000000000000000e+00  0.0000000000000000e+00  0.0000000000000000e+00 
 0.0000000000000000e+00  0.0000000000000000e+00  0.0000000000000000e+00  0.0000000000000000e+00 
 0.0000000000000000e+00  0.0000000000000000e+00  0.0000000000000000e+00  0.0000000000000000e+00 
 0.0000000000000000e+00  0.0000000000000000e+00  0.0000000000000000e+00  0.0000000000000000e+00 
 0.0000000000000000e+00  0.0000000000000000e+00  0.0000000000000000e+00  0.0000000000000000e+00 
 0.0000000000000000e+00  0.0000000000000000e+00  0.0000000000000000e+00  0.0000000000000000e+00 
 0.0000000000000000e+00  0.0000000000000000e+00  0.0000000000000000e+00  0.0000000000000000e+00 
 0.0000000000000000e+00  0.0000000000000000e+00  0.0000000000000000e+00  0.0000000000000000e+00 
 0.0000000000000000e+00  0.0000000000000000e+00  0.0000000000000000e+00  0.0000000000000000e+00 
 0.0000000000000000e+00  0.0000000000000000e+00  0.0000000000000000e+00  0.0000000000000000e+00 
 0.0000000000000000e+00  0.0000000000000000e+00  0.0000000000000000e+00  0.0000000000000000e+00 
 0.0000000000000000e+00  0.0000000000000000e+00  0.0000000000000000e+00  0.0000000000000000e+00 
 0.0000000000000000e+00  0.0000000000000000e+00  0.0000000000000000e+00  0.0000000000000000e+00 
 0.0000000000000000e+00  0.0000000000000000e+00  0.0000000000000000e+00  0.0000000000000000e+00 
 0.0000000000000000e+00  0.0000000000000000e+00  0.0000000000000000e+00  0.0000000000000000e+00 
 0.0000000000000000e+00  0.0000000000000000e+00  0.0000000000000000e+00  0.0000000000000000e+00 
 0.0000000000000000e+00  0.0000000000000000e+00  0.0000000000000000e+00  0.0000000000000000e+00 
 0.0000000000000000e+00  0.0000000000000000e+00  0.0000000000000000e+00  0.0000000000000000e+00 
 0.0000000000000000e+00  0.0000000000000000e+00  0.0000000000000000e+00  0.0000000000000000e+00 
 0.0000000000000000e+00  0.0000000000000000e+00  0.0000000000000000e+00  0.0000000000000000e+00 
 0.0000000000000000e+00  0.0000000000000000e+00  0.0000000000000000e+00  0.0000000000000000e+00 
 0.0000000000000000e+00  0.0000000000000000e+00  0.0000000000000000e+00  0.0000000000000000e+00 
 0.0000000000000000e+00  0.0000000000000000e+00  0.0000000000000000e+00  0.0000000000000000e+00 
 0.0000000000000000e+00  0.0000000000000000e+00  0.0000000000000000e+00  0.0000000000000000e+00 
 0.0000000000000000e+00  0.0000000000000000e+00  0.0000000000000000e+00  0.0000000000000000e+00 
 0.0000000000000000e+00  0.0000000000000000e+00  0.0000000000000000e+00  0.0000000000000000e+00 
 0.0000000000000000e+00  0.0000000000000000e+00  0.0000000000000000e+00  0.0000000000000000e+00 
 0.0000000000000000e+00  0.0000000000000000e+00  0.0000000000000000e+00  0.0000000000000000e+00 
 0.0000000000000000e+00  0.0000000000000000e+00  0.0000000000000000e+00  0.0000000000000000e+00 
 0.0000000000000000e+00  0.0000000000000000e+00  0.0000000000000000e+00  0.0000000000000000e+00 
 0.0000000000000000e+00  0.0000000000000000e+00  0.0000000000000000e+00  0.0000000000000000e+00 
 0.0000000000000000e+00  0.0000000000000000e+00  0.0000000000000000e+00  0.0000000000000000e+00 
 0.0000000000000000e+00  0.0000000000000000e+00  0.0000000000000000e+00  0.0000000000000000e+00 
 0.0000000000000000e+00  0.0000000000000000e+00  0.0000000000000000e+00  0.0000000000000000e+00 
 0.0000000000000000e+00  0.0000000000000000e+00  0.0000000000000000e+00  0.0000000000000000e+00 
 0.0000000000000000e+00  0.0000000000000000e+00  0.0000000000000000e+00  0.0000000000000000e+00 
 0.0000000000000000e+00  0.0000000000000000e+00  0.0000000000000000e+00  0.0000000000000000e+00 
 0.0000000000000000e+00  0.0000000000000000e+00  0.0000000000000000e+00  0.0000000000000000e+00 
 0.0000000000000000e+00  0.0000000000000000e+00  0.0000000000000000e+00  0.0000000000000000e+00 
 0.0000000000000000e+00  0.0000000000000000e+00  0.0000000000000000e+00  0.0000000000000000e+00 
 0.0000000000000000e+00  0.0000000000000000e+00  0.0000000000000000e+00  0.0000000000000000e+00 
 0.0000000000000000e+00  0.0000000000000000e+00  0.0000000000000000e+00  0.0000000000000000e+00 
 0.0000000000000000e+00  0.0000000000000000e+00  0.0000000000000000e+00  0.0000000000000000e+00 
 0.0000000000000000e+00  0.0000000000000000e+00  0.0000000000000000e+00  0.0000000000000000e+00 
 0.0000000000000000e+00  0.0000000000000000e+00  0.0000000000000000e+00  0.0000000000000000e+00 
 0.0000000000000000e+00  0.0000000000000000e+00  0.0000000000000000e+00  0.0000000000000000e+00 
 0.0000000000000000e+00  0.0000000000000000e+00  0.0000000000000000e+00  0.0000000000000000e+00 
 0.0000000000000000e+00  0.0000000000000000e+00  0.0000000000000000e+00  0.0000000000000000e+00 
 0.0000000000000000e+00  0.0000000000000000e+00  0.0000000000000000e+00  0.0000000000000000e+00 
 0.0000000000000000e+00  0.0000000000000000e+00  0.0000000000000000e+00  0.0000000000000000e+00 
 0.0000000000000000e+00  0.0000000000000000e+00  0.0000000000000000e+00  0.0000000000000000e+00 
 0.0000000000000000e+00  0.0000000000000000e+00  0.0000000000000000e+00  0.0000000000000000e+00 
 0.0000000000000000e+00  0.0000000000000000e+00  0.0000000000000000e+00  0.0000000000000000e+00 
 0.0000000000000000e+00  0.0000000000000000e+00  0.0000000000000000e+00  0.0000000000000000e+00 
 0.0000000000000000e+00  0.0000000000000000e+00  0.0000000000000000e+00  0.0000000000000000e+00 
 0.0000000000000000e+00  0.0000000000000000e+00  0.0000000000000000e+00  0.0000000000000000e+00 
 0.0000000000000000e+00  0.0000000000000000e+00  0.0000000000000000e+00  0.0000000000000000e+00 
 0.0000000000000000e+00  0.0000000000000000e+00  0.0000000000000000e+00  0.0000000000000000e+00 
 0.0000000000000000e+00  0.0000000000000000e+00  0.0000000000000000e+00  0.0000000000000000e+00 
 0.0000000000000000e+00  0.0000000000000000e+00  0.0000000000000000e+00  0.0000000000000000e+00 
 0.0000000000000000e+00  0.0000000000000000e+00  0.0000000000000000e+00  0.0000000000000000e+00 
 0.0000000000000000e+00  0.0000000000000000e+00  0.0000000000000000e+00  0.0000000000000000e+00 
 0.0000000000000000e+00  0.0000000000000000e+00  0.0000000000000000e+00  0.0000000000000000e+00 
 0.0000000000000000e+00  0.0000000000000000e+00  0.0000000000000000e+00  0.0000000000000000e+00 
 0.0000000000000000e+00  0.0000000000000000e+00  0.0000000000000000e+00  0.0000000000000000e+00 
 0.0000000000000000e+00  0.0000000000000000e+00  0.0000000000000000e+00  0.0000000000000000e+00 
 0.0000000000000000e+00  0.0000000000000000e+00  0.0000000000000000e+00  0.0000000000000000e+00 
 0.0000000000000000e+00  0.0000000000000000e+00  0.0000000000000000e+00  0.0000000000000000e+00 
 0.0000000000000000e+00  0.0000000000000000e+00  0.0000000000000000e+00  0.0000000000000000e+00 
 0.0000000000000000e+00  0.0000000000000000e+00  0.0000000000000000e+00  0.0000000000000000e+00 
 0.0000000000000000e+00  0.0000000000000000e+00  0.0000000000000000e+00  0.0000000000000000e+00 
 0.0000000000000000e+00  0.0000000000000000e+00  0.0000000000000000e+00  0.0000000000000000e+00 
 0.0000000000000000e+00  0.0000000000000000e+00  0.0000000000000000e+00  0.0000000000000000e+00 
 0.0000000000000000e+00  -4.0749292338657823e-02  -4.1282499691927411e-02  -4.1822684322219299e-02 
 -4.2369937539430760e-02  -4.2924351848763136e-02  -4.3486020966383557e-02  -4.4055039835292145e-02 
 -4.4631504641397909e-02  -4.5215512829805724e-02  -4.5807163121317759e-02  -4.6406555529151308e-02 
 -4.7013791375876912e-02  -4.7628973310578852e-02  -4.8252205326241533e-02  -4.8883592777364350e-02 
 -4.9523242397808732e-02  -5.0171262318878911e-02  -5.0827762087642295e-02  -5.1492852685489025e-02 
 -5.2166646546937596e-02  -5.2849257578686790e-02  -5.3540801178918879e-02  -5.4241394256857187e-02 
 -5.4951155252581284e-02  -5.5670204157102950e-02  -5.6398662532706645e-02  -5.7136653533558381e-02 
 -5.7884301926586001e-02  -5.8641734112635117e-02  -5.9409078147902923e-02  -6.0186463765656582e-02 
 -6.0974022398236433e-02  -6.1771887199350194e-02  -6.2580193066662043e-02  -6.3399076664678589e-02 
 -6.4228676447938338e-02  -6.5069132684506856e-02  -6.5920587479782244e-02  -6.6783184800615639e-02 
 -6.7657070499750713e-02  -6.8542392340585179e-02  -6.9439300022261591e-02  -7.0347945205089038e-02 
 -7.1268481536301331e-02  -7.2201064676156376e-02  -7.3145852324381908e-02  -7.4103004246970333e-02 
 -7.5072682303329891e-02  -7.6055050473795432e-02  -7.7050274887503281e-02  -7.8058523850637662e-02 
 -7.9079967875050519e-02  -8.0114779707262634e-02  -8.1163134357848873e-02  -8.2225209131214935e-02 
 -8.3301183655769773e-02  -8.4391239914499594e-02  -8.5495562275948567e-02  -8.6614337525611568e-02 
 -8.7747754897747068e-02  -8.8896006107612197e-02  -9.0059285384128496e-02  -9.1237789502983821e-02 
 -9.2431717820175993e-02  -9.3641272306004900e-02  -9.4866657579519176e-02  -9.6108080943422797e-02 
 -9.7365752419450363e-02  -9.8639884784215481e-02  -9.9930693605539869e-02  -1.0123839727927010e-01 
 -1.0256321706658786e-01  -1.0390537713182232e-01  -1.0526510458077122e-01  -1.0664262949953636e-01 
 -1.0803818499388340e-01  -1.0945200722913148e-01  -1.1088433547058207e-01  -1.1233541212449236e-01 
 -1.1380548277960413e-01  -1.1529479624923263e-01  -1.1680360461392840e-01  -1.1833216326471437e-01 
 -1.1988073094691178e-01  -1.2144956980456184e-01  -1.2303894542545060e-01  -1.2464912688674787e-01 
 -1.2628038680126824e-01  -1.2793300136436433e-01  -1.2960725040145993e-01  -1.3130341741623591e-01 
 -1.3302178963947434e-01  -1.3476265807857599e-01  -1.3652631756775552e-01  -1.3831306681893080e-01 
 -1.4012320847331255e-01  -1.4195704915370680e-01  -1.4381489951754137e-01  -1.4569707431062714e-01 
 -1.4760389242166583e-01  -1.4953567693751621e-01  -1.5149275519923019e-01  -1.5347545885887193e-01 
 -1.5548412393713112e-01  -1.5751909088174459e-01  -1.5958070462673793e-01  -1.6166931465250312e-01 
 -1.6378527504672052e-01  -1.6592894456614618e-01  -1.6810068669927208e-01  -1.7030086972987885e-01 
 -1.7252986680149207e-01  -1.7478805598276034e-01  -1.7707582033376942e-01  -1.7939354797330814e-01 
 -1.8174163214710207e-01  -1.8412047129703354e-01  -1.8653046913136270e-01  -1.8897203469597007e-01 
 -1.9144558244663454e-01  -1.9395153232236886e-01  -1.9649030981982971e-01  -1.9906234606882256e-01 
 -2.0166807790891864e-01  -2.0430794796720914e-01  -2.0698240473721172e-01  -2.0969190265895377e-01 
 -2.1243690220025588e-01  -2.1521786993923264e-01  -2.1803527864804018e-01  -2.2088960737788585e-01 
 -2.2378134154533544e-01  -2.2671097301993040e-01  -2.2967900021314874e-01  -2.3268592816873168e-01 
 -2.3573226865440589e-01  -2.3881854025502303e-01  -2.4194526846715264e-01  -2.4511298579514632e-01 
 -2.4832223184871491e-01  -2.5157355344203663e-01  -2.5486750469443692e-01  -2.5820464713266211e-01 
 -2.6158554979478793e-01  -2.6501078933578959e-01  -2.6848095013480794e-01  -2.7199662440414707e-01 
 -2.7555841230004008e-01  -2.7916692203521148e-01  -2.8282276999328237e-01  -2.8652658084504640e-01 
 -2.9027898766665849e-01  -2.9408063205977453e-01  -2.9793216427367680e-01  -3.0183424332943032e-01 
 -3.0578753714610080e-01  -3.0979272266908392e-01  -3.1385048600057791e-01  -3.1796152253224247e-01 
 -3.2212653708008615e-01  -3.2634624402161960e-01  -3.3062136743531351e-01  -3.3495264124240687e-01 
 -3.3934080935109645e-01  -3.4378662580315378e-01  -3.4829085492299960e-01  -3.5285427146927856e-01 
 -3.5747766078896503e-01  -3.6216181897403549e-01  -3.6690755302073297e-01  -3.7171568099146290e-01 
 -3.7658703217933581e-01  -3.8152244727537959e-01  -3.8652277853845407e-01  -3.9158888996785868e-01 
 -3.9672165747866350e-01  -4.0192196907976169e-01  -4.0719072505462856e-01  -4.1252883814480018e-01 
 -4.1793723373602976e-01  -4.2341685004712071e-01  -4.2896863832137599e-01  -4.3459356302063318e-01 
 -4.4029260202182269e-01  -4.4606674681596997e-01  -4.5191700270956431e-01  -4.5784438902818086e-01 
 -4.6384993932224561e-01  -4.6993470157478545e-01  -4.7609973841102288e-01  -4.8234612730960641e-01 
 -4.8867496081527656e-01  -4.9508734675272975e-01  -5.0158440844140073e-01  -5.0816728491085861e-01 
 -5.1483713111649076e-01  -5.2159511815506865e-01  -5.2844243347980446e-01  -5.3538028111440339e-01 
 -5.4240988186560646e-01  -5.4953247353365742e-01  -5.5674931112004955e-01  -5.6406166703187421e-01 
 -5.7147083128201481e-01  -5.7897811168434588e-01  -5.8658483404304829e-01  -5.9429234233504125e-01 
 -6.0210199888447669e-01  -6.1001518452811077e-01  -6.1803329877030566e-01  -6.2615775992629497e-01 
 -6.3439000525222822e-01  -6.4273149106040928e-01  -6.5118369281801614e-01  -6.5974810522744975e-01 
 -6.6842624228634673e-01  -6.7721963732512003e-01  -6.8612984301977376e-01  -6.9515843137756184e-01 
 -7.0430699369291094e-01  -7.1357714047085941e-01  -7.2297050131509233e-01  -7.3248872477747817e-01 
 -7.4213347816583874e-01  -7.5190644730647116e-01  -7.6180933625781000e-01  -7.7184386697136509e-01 
 -7.8201177889592677e-01  -7.9231482852081581e-01  -8.0275478885378249e-01  -8.1333344882897296e-01 
 -8.2405261264018692e-01  -8.3491409899448732e-01  -8.4591974028107919e-01  -8.5707138165017016e-01 
 -8.6837087999644313e-01  -8.7982010284159540e-01  -8.9142092711033527e-01  -9.0317523779411624e-01 
 -9.1508492649680606e-01  -9.2715188985652819e-01  -9.3937802783780688e-01  -9.5176524188824052e-01 
 -9.6431543295398903e-01  -9.7703049934839381e-01  -9.8991233446826976e-01  -1.0029628243525290e+00 
 -1.0161838450780196e+00  -1.0295772599877611e+00  -1.0431449167470250e+00  -1.0568886442230581e+00 
 -1.0708102491846683e+00  -1.0849115128182429e+00  -1.0991941870573252e+00  -1.1136599907232019e+00 
 -1.1283106054746073e+00  -1.1431476715649997e+00  -1.1581727834064184e+00  -1.1733874849393846e+00 
 -1.1887932648086603e+00  -1.2043915513450647e+00  -1.2201837073537787e+00  -1.2361710247096449e+00 
 -1.2523547187599664e+00  -1.2687359225350459e+00  -1.2853156807662303e+00  -1.3020949437104814e+00 
 -1.3190745607793704e+00  -1.3362552739690043e+00  -1.3536377110854396e+00  -1.3712223787578093e+00 
 -1.3890096552285145e+00  -1.4069997829063101e+00  -1.4251928606640989e+00  -1.4435888358584148e+00 
 -1.4621874960421963e+00  -1.4809884603362262e+00  -1.4999911704177769e+00  -1.5191948810773956e+00 
 -1.5385986502864515e+00  -1.5582013287092757e+00  -1.5780015485842258e+00  -1.5979977118882616e+00 
 -1.6181879776896426e+00  -1.6385702485831908e+00  -1.6591421560929871e+00  -1.6799010449179668e+00 
 -1.7008439558877964e+00  -1.7219676074894721e+00  -1.7432683758201055e+00  -1.7647422728189004e+00 
 -1.7863849226317308e+00  -1.8081915359660223e+00  -1.8301568823022822e+00  -1.8522752598422296e+00 
 -1.8745404630932077e+00  -1.8969457480144969e+00  -1.9194837946845396e+00  -1.9421466674889585e+00 
 -1.9649257728784835e+00  -1.9878118148033381e+00  -2.0107947479966395e+00  -2.0338637293532695e+00 
 -2.0570070677323460e+00  -2.0802121725991420e+00  -2.1034655020153141e+00  -2.1267525105817042e+00 
 -2.1500575980339973e+00  -2.1733640592840660e+00  -2.1966540367857190e+00  -2.2199084761778001e+00 
 -2.2431070862154767e+00  -2.2662283040363418e+00  -2.2892492668160025e+00  -2.3121457908419192e+00 
 -2.3348923589690065e+00  -2.3574621173098587e+00  -2.3798268818527890e+00  -2.4019571554881534e+00 
 -2.4238221556569295e+00  -2.4453898525159818e+00  -2.4666270171462243e+00  -2.4874992789203789e+00 
 -2.5079711907082789e+00  -2.5280063001460520e+00  -2.5475672247521501e+00  -2.5666157282646118e+00 
 -2.5851127952307031e+00  -2.6030187006377834e+00  -2.6202930712703734e+00  -2.6368949355531925e+00 
 -2.6527827589317470e+00  -2.6679144623864253e+00  -2.6822474225015838e+00  -2.6957384526348149e+00 
 -2.7083437661564291e+00  -2.7200189244370141e+00  -2.7307187742103736e+00  -2.7403973810595303e+00 
 -2.7490079679637409e+00  -2.7565028699694332e+00  -2.7628335179416839e+00  -2.7679504658195864e+00 
 -2.7718034766219981e+00  -2.7743416824033322e+00  -2.7755138322204966e+00  -2.7752686397470585e+00 
 -2.7735552383141080e+00  -2.7703237458027101e+00  -2.7655259350011918e+00  -2.7591159969501828e+00 
 -2.7510513757680486e+00  -2.7412936439985356e+00  -2.7298093783540796e+00  -2.7165709877180908e+00 
 -2.7015574394335267e+00  -2.6847548273384221e+00  -2.6661567268012134e+00  -2.6457642891257618e+00 
 -2.6235860408421807e+00  -2.5996373728575795e+00  -2.5739397299109403e+00  -2.5465195412247290e+00 
 -2.5174069667934549e+00  -2.4866345676192498e+00  -2.4542360387660582e+00  -2.4202451670330758e+00 
 -2.3846951856313514e+00  -2.3476186918379716e+00  -2.3090482662182952e+00  -2.2690178810482431e+00 
 -2.2275651105839924e+00  -2.1847340592501459e+00  -2.1405788115508595e+00  -2.0951670892109244e+00 
 -2.0485836899924221e+00  -2.0009331949601084e+00  -1.9523413843350108e+00  -1.9029548135591459e+00 
 -1.8529380846392687e+00  -1.8024685108247394e+00  -1.7517281134946232e+00  0.0000000000000000e+00 
 0.0000000000000000e+00  0.0000000000000000e+00  0.0000000000000000e+00  0.0000000000000000e+00 
 0.0000000000000000e+00  0.0000000000000000e+00  0.0000000000000000e+00  0.0000000000000000e+00 
 0.0000000000000000e+00  0.0000000000000000e+00  0.0000000000000000e+00  0.0000000000000000e+00 
 0.0000000000000000e+00  0.0000000000000000e+00  0.0000000000000000e+00  0.0000000000000000e+00 
 0.0000000000000000e+00  0.0000000000000000e+00  0.0000000000000000e+00  0.0000000000000000e+00 
 0.0000000000000000e+00  0.0000000000000000e+00  0.0000000000000000e+00  0.0000000000000000e+00 
 0.0000000000000000e+00  0.0000000000000000e+00  0.0000000000000000e+00  0.0000000000000000e+00 
 0.0000000000000000e+00  0.0000000000000000e+00  0.0000000000000000e+00  0.0000000000000000e+00 
 0.0000000000000000e+00  0.0000000000000000e+00  0.0000000000000000e+00  0.0000000000000000e+00 
 0.0000000000000000e+00  0.0000000000000000e+00  0.0000000000000000e+00  0.0000000000000000e+00 
 0.0000000000000000e+00  0.0000000000000000e+00  0.0000000000000000e+00  0.0000000000000000e+00 
 0.0000000000000000e+00  0.0000000000000000e+00  0.0000000000000000e+00  0.0000000000000000e+00 
 0.0000000000000000e+00  0.0000000000000000e+00  0.0000000000000000e+00  0.0000000000000000e+00 
 0.0000000000000000e+00  0.0000000000000000e+00  0.0000000000000000e+00  0.0000000000000000e+00 
 0.0000000000000000e+00  0.0000000000000000e+00  0.0000000000000000e+00  0.0000000000000000e+00 
 0.0000000000000000e+00  0.0000000000000000e+00  0.0000000000000000e+00  0.0000000000000000e+00 
 0.0000000000000000e+00  0.0000000000000000e+00  0.0000000000000000e+00  0.0000000000000000e+00 
 0.0000000000000000e+00  0.0000000000000000e+00  0.0000000000000000e+00  0.0000000000000000e+00 
 0.0000000000000000e+00  0.0000000000000000e+00  0.0000000000000000e+00  0.0000000000000000e+00 
 0.0000000000000000e+00  0.0000000000000000e+00  0.0000000000000000e+00  0.0000000000000000e+00 
 0.0000000000000000e+00  0.0000000000000000e+00  0.0000000000000000e+00  0.0000000000000000e+00 
 0.0000000000000000e+00  0.0000000000000000e+00  0.0000000000000000e+00  0.0000000000000000e+00 
 0.0000000000000000e+00  0.0000000000000000e+00  0.0000000000000000e+00  0.0000000000000000e+00 
 0.0000000000000000e+00  0.0000000000000000e+00  0.0000000000000000e+00  0.0000000000000000e+00 
 0.0000000000000000e+00  0.0000000000000000e+00  0.0000000000000000e+00  0.0000000000000000e+00 
 0.0000000000000000e+00  0.0000000000000000e+00  0.0000000000000000e+00  0.0000000000000000e+00 
 0.0000000000000000e+00  0.0000000000000000e+00  0.0000000000000000e+00  0.0000000000000000e+00 
 0.0000000000000000e+00  0.0000000000000000e+00  0.0000000000000000e+00  0.0000000000000000e+00 
 0.0000000000000000e+00  0.0000000000000000e+00  0.0000000000000000e+00  0.0000000000000000e+00 
 0.0000000000000000e+00  0.0000000000000000e+00  0.0000000000000000e+00  0.0000000000000000e+00 
 0.0000000000000000e+00  0.0000000000000000e+00  0.0000000000000000e+00  0.0000000000000000e+00 
 0.0000000000000000e+00  0.0000000000000000e+00  0.0000000000000000e+00  0.0000000000000000e+00 
 0.0000000000000000e+00  0.0000000000000000e+00  0.0000000000000000e+00  0.0000000000000000e+00 
 0.0000000000000000e+00  0.0000000000000000e+00  0.0000000000000000e+00  0.0000000000000000e+00 
 0.0000000000000000e+00  0.0000000000000000e+00  0.0000000000000000e+00  0.0000000000000000e+00 
 0.0000000000000000e+00  0.0000000000000000e+00  0.0000000000000000e+00  0.0000000000000000e+00 
 0.0000000000000000e+00  0.0000000000000000e+00  0.0000000000000000e+00  0.0000000000000000e+00 
 0.0000000000000000e+00  0.0000000000000000e+00  0.0000000000000000e+00  0.0000000000000000e+00 
 0.0000000000000000e+00  0.0000000000000000e+00  0.0000000000000000e+00  0.0000000000000000e+00 
 0.0000000000000000e+00  0.0000000000000000e+00  0.0000000000000000e+00  0.0000000000000000e+00 
 0.0000000000000000e+00  0.0000000000000000e+00  0.0000000000000000e+00  0.0000000000000000e+00 
 0.0000000000000000e+00  0.0000000000000000e+00  0.0000000000000000e+00  0.0000000000000000e+00 
 0.0000000000000000e+00  0.0000000000000000e+00  0.0000000000000000e+00  0.0000000000000000e+00 
 0.0000000000000000e+00  0.0000000000000000e+00  0.0000000000000000e+00  0.0000000000000000e+00 
 0.0000000000000000e+00  0.0000000000000000e+00  0.0000000000000000e+00  0.0000000000000000e+00 
 0.0000000000000000e+00  0.0000000000000000e+00  0.0000000000000000e+00  0.0000000000000000e+00 
 0.0000000000000000e+00  0.0000000000000000e+00  0.0000000000000000e+00  0.0000000000000000e+00 
 0.0000000000000000e+00  0.0000000000000000e+00  0.0000000000000000e+00  0.0000000000000000e+00 
 0.0000000000000000e+00  0.0000000000000000e+00  0.0000000000000000e+00  0.0000000000000000e+00 
 0.0000000000000000e+00  0.0000000000000000e+00  0.0000000000000000e+00  0.0000000000000000e+00 
 0.0000000000000000e+00  0.0000000000000000e+00  0.0000000000000000e+00  0.0000000000000000e+00 
 0.0000000000000000e+00  0.0000000000000000e+00  0.0000000000000000e+00  0.0000000000000000e+00 
 0.0000000000000000e+00  0.0000000000000000e+00  0.0000000000000000e+00  0.0000000000000000e+00 
 0.0000000000000000e+00  0.0000000000000000e+00  0.0000000000000000e+00  0.0000000000000000e+00 
 0.0000000000000000e+00  0.0000000000000000e+00  0.0000000000000000e+00  0.0000000000000000e+00 
 0.0000000000000000e+00  0.0000000000000000e+00  0.0000000000000000e+00  0.0000000000000000e+00 
 0.0000000000000000e+00  0.0000000000000000e+00  0.0000000000000000e+00  0.0000000000000000e+00 
 0.0000000000000000e+00  0.0000000000000000e+00  0.0000000000000000e+00  0.0000000000000000e+00 
 0.0000000000000000e+00  0.0000000000000000e+00  0.0000000000000000e+00  0.0000000000000000e+00 
 0.0000000000000000e+00  0.0000000000000000e+00  0.0000000000000000e+00  0.0000000000000000e+00 
 0.0000000000000000e+00  0.0000000000000000e+00  0.0000000000000000e+00  0.0000000000000000e+00 
 0.0000000000000000e+00  0.0000000000000000e+00  0.0000000000000000e+00  0.0000000000000000e+00 
 0.0000000000000000e+00  0.0000000000000000e+00  0.0000000000000000e+00  0.0000000000000000e+00 
 0.0000000000000000e+00  0.0000000000000000e+00  0.0000000000000000e+00  0.0000000000000000e+00 
 0.0000000000000000e+00  0.0000000000000000e+00  0.0000000000000000e+00  0.0000000000000000e+00 
 0.0000000000000000e+00  0.0000000000000000e+00  0.0000000000000000e+00  0.0000000000000000e+00 
 0.0000000000000000e+00  0.0000000000000000e+00  0.0000000000000000e+00  0.0000000000000000e+00 
 0.0000000000000000e+00  0.0000000000000000e+00  0.0000000000000000e+00  0.0000000000000000e+00 
 0.0000000000000000e+00  0.0000000000000000e+00  0.0000000000000000e+00  0.0000000000000000e+00 
 0.0000000000000000e+00  0.0000000000000000e+00  0.0000000000000000e+00  0.0000000000000000e+00 
 0.0000000000000000e+00  0.0000000000000000e+00  0.0000000000000000e+00  0.0000000000000000e+00 
 0.0000000000000000e+00  0.0000000000000000e+00  0.0000000000000000e+00  0.0000000000000000e+00 
 0.0000000000000000e+00  0.0000000000000000e+00  0.0000000000000000e+00  0.0000000000000000e+00 
 0.0000000000000000e+00  0.0000000000000000e+00  0.0000000000000000e+00  0.0000000000000000e+00 
 0.0000000000000000e+00  0.0000000000000000e+00  0.0000000000000000e+00  0.0000000000000000e+00 
 0.0000000000000000e+00  0.0000000000000000e+00  0.0000000000000000e+00  0.0000000000000000e+00 
 0.0000000000000000e+00  0.0000000000000000e+00  0.0000000000000000e+00  0.0000000000000000e+00 
 0.0000000000000000e+00  0.0000000000000000e+00  0.0000000000000000e+00  0.0000000000000000e+00 
 0.0000000000000000e+00  0.0000000000000000e+00  0.0000000000000000e+00  0.0000000000000000e+00 
 0.0000000000000000e+00  0.0000000000000000e+00  0.0000000000000000e+00  0.0000000000000000e+00 
 0.0000000000000000e+00  0.0000000000000000e+00  0.0000000000000000e+00  0.0000000000000000e+00 
 0.0000000000000000e+00  0.0000000000000000e+00  0.0000000000000000e+00  0.0000000000000000e+00 
 0.0000000000000000e+00  0.0000000000000000e+00  0.0000000000000000e+00  0.0000000000000000e+00 
 0.0000000000000000e+00  0.0000000000000000e+00  0.0000000000000000e+00  0.0000000000000000e+00 
 0.0000000000000000e+00  0.0000000000000000e+00  0.0000000000000000e+00  0.0000000000000000e+00 
  </PP_BETA>
  <PP_BETA>
  2  1      Beta    L
  1155  
 -5.4305787849900827e-08  -5.5736253809691779e-08  -5.7204399599634706e-08  -5.8711217742194828e-08 
 -6.0257726903820373e-08  -6.1844972583600155e-08  -6.3474027820060634e-08  -6.5145993916580845e-08 
 -6.6862001185915404e-08  -6.8623209714328979e-08  -7.0430810145858851e-08  -7.2286024487235636e-08 
 -7.4190106934006150e-08  -7.6144344718417678e-08  -7.8150058979635830e-08  -8.0208605656885019e-08 
 -8.2321376406114950e-08  -8.4489799540812997e-08  -8.6715340997598528e-08  -8.8999505327252179e-08 
 -9.1343836711848925e-08  -9.3749920008684606e-08  -9.6219381821699266e-08  -9.8753891601123745e-08 
 -1.0135516277209174e-07  -1.0402495389297950e-07  -1.0676506984425979e-07  -1.0957736304866843e-07 
 -1.1246373472351338e-07  -1.1542613616596999e-07  -1.1846657007223204e-07  -1.2158709189141051e-07 
 -1.2478981121509586e-07  -1.2807689320352206e-07  -1.3145056004929747e-07  -1.3491309247969125e-07 
 -1.3846683129849292e-07  -1.4211417896848329e-07  -1.4585760123559241e-07  -1.4969962879583682e-07 
 -1.5364285900616641e-07  -1.5768995764037748e-07  -1.6184366069127618e-07  -1.6610677622031486e-07 
 -1.7048218625594778e-07  -1.7497284874199291e-07  -1.7958179953731420e-07  -1.8431215446817731e-07 
 -1.8916711143466774e-07  -1.9414995257259317e-07  -1.9926404647233081e-07  -2.0451285045612469e-07 
 -2.0989991291536618e-07  -2.1542887570944148e-07  -2.2110347662776828e-07  -2.2692755191668261e-07 
 -2.3290503887288867e-07  -2.3903997850522040e-07  -2.4533651826651793e-07  -2.5179891485746362e-07 
 -2.5843153710427366e-07  -2.6523886891219110e-07  -2.7222551229677723e-07  -2.7939619049504795e-07 
 -2.8675575115856367e-07  -2.9430916963062481e-07  -3.0206155230979474e-07  -3.1001814010201918e-07 
 -3.1818431196367741e-07  -3.2656558853796394e-07  -3.3516763588705165e-07  -3.4399626932256622e-07 
 -3.5305745733695802e-07  -3.6235732563843103e-07  -3.7190216129215521e-07  -3.8169841697056117e-07 
 -3.9175271531559309e-07  -4.0207185341586671e-07  -4.1266280740176071e-07  -4.2353273716154582e-07 
 -4.3468899118174360e-07  -4.4613911151498057e-07  -4.5789083887870648e-07  -4.6995211788821214e-07 
 -4.8233110242749232e-07  -4.9503616116158330e-07  -5.0807588319409657e-07  -5.2145908387378290e-07 
 -5.3519481075404344e-07  -5.4929234970942023e-07  -5.6376123121319902e-07  -5.7861123678037723e-07 
 -5.9385240558033666e-07  -6.0949504122370655e-07  -6.2554971872799657e-07  -6.4202729166671049e-07 
 -6.5893889950677910e-07  -6.7629597513926026e-07  -6.9411025260840913e-07  -7.1239377504434400e-07 
 -7.3115890280465724e-07  -7.5041832183048766e-07  -7.7018505222270184e-07  -7.9047245704397989e-07 
 -8.1129425135275256e-07  -8.3266451147510364e-07  -8.5459768452090674e-07  -8.7710859815061823e-07 
 -9.0021247059933902e-07  -9.2392492096493118e-07  -9.4826197976711266e-07  -9.7324009978470396e-07 
 -9.9887616717833636e-07  -1.0251875129061374e-06  -1.0521919244401238e-06  -1.0799076577911986e-06 
 -1.1083534498509281e-06  -1.1375485310583797e-06  -1.1675126384006438e-06  -1.1982660287557792e-06 
 -1.2298294925872434e-06  -1.2622243679990346e-06  -1.2954725551610675e-06  -1.3295965311145146e-06 
 -1.3646193649671572e-06  -1.4005647334889712e-06  -1.4374569371185268e-06  -1.4753209163910215e-06 
 -1.5141822687990211e-06  -1.5540672660973501e-06  -1.5950028720638000e-06  -1.6370167607276635e-06 
 -1.6801373350784435e-06  -1.7243937462673540e-06  -1.7698159133146092e-06  -1.8164345433358250e-06 
 -1.8642811523012042e-06  -1.9133880863415232e-06  -1.9637885436153658e-06  -2.0155165967523415e-06 
 -2.0686072158874707e-06  -2.1230962923023553e-06  -2.1790206626890295e-06  -2.2364181340529910e-06 
 -2.2953275092721623e-06  -2.3557886133291350e-06  -2.4178423202343649e-06  -2.4815305806585752e-06 
 -2.5468964502929978e-06  -2.6139841189566861e-06  -2.6828389404704969e-06  -2.7535074633180262e-06 
 -2.8260374621141481e-06  -2.9004779699024844e-06  -2.9768793113036256e-06  -3.0552931365364817e-06 
 -3.1357724563358038e-06  -3.2183716777894911e-06  -3.3031466411198364e-06  -3.3901546574336545e-06 
 -3.4794545474667989e-06  -3.5711066813492105e-06  -3.6651730194174375e-06  -3.7617171541021946e-06 
 -3.8608043529192883e-06  -3.9625016025929318e-06  -4.0668776543413581e-06  -4.1740030703552563e-06 
 -4.2839502715005157e-06  -4.3967935862775263e-06  -4.5126093010700373e-06  -4.6314757117177327e-06 
 -4.7534731764471788e-06  -4.8786841701970736e-06  -5.0071933403744683e-06  -5.1390875640796463e-06 
 -5.2744560068383821e-06  -5.4133901828812470e-06  -5.5559840170107410e-06  -5.7023339080980595e-06 
 -5.8525387942523974e-06  -6.0067002197069655e-06  -6.1649224034667339e-06  -6.3273123097644735e-06 
 -6.4939797203727361e-06  -6.6650373088204852e-06  -6.8406007165647565e-06  -7.0207886311687227e-06 
 -7.2057228665390095e-06  -7.3955284452766396e-06  -7.5903336831970363e-06  -7.7902702760765167e-06 
 -7.9954733886836220e-06  -8.2060817461557759e-06  -8.4222377277827531e-06  -8.6440874632605896e-06 
 -8.8717809314808317e-06  -9.1054720619221060e-06  -9.3453188387122980e-06  -9.5914834074319682e-06 
 -9.8441321847309557e-06  -1.0103435970832504e-05  -1.0369570065000705e-05  -1.0642714384049650e-05 
 -1.0923053583974086e-05  -1.1210777184784002e-05  -1.1506079698627405e-05  -1.1809160761288188e-05 
 -1.2120225267147478e-05  -1.2439483507700212e-05  -1.2767151313720312e-05  -1.3103450201170624e-05 
 -1.3448607520956274e-05  -1.3802856612622696e-05  -1.4166436962102126e-05  -1.4539594363615455e-05 
 -1.4922581085838569e-05  -1.5315656042445789e-05  -1.5719084967145512e-05  -1.6133140593326565e-05 
 -1.6558102838436459e-05  -1.6994258993216586e-05  -1.7441903915921762e-05  -1.7901340231656034e-05 
 -1.8372878536958808e-05  -1.8856837609780374e-05  -1.9353544624988167e-05  -1.9863335375549631e-05 
 -2.0386554499541451e-05  -2.0923555713138218e-05  -2.1474702049738501e-05  -2.2040366105389503e-05 
 -2.2620930290676569e-05  -2.3216787089247602e-05  -2.3828339323147569e-05  -2.4456000425141711e-05 
 -2.5100194718212539e-05  -2.5761357702418534e-05  -2.6439936349309502e-05  -2.7136389404096776e-05 
 -2.7851187695782973e-05  -2.8584814455461087e-05  -2.9337765642997357e-05  -3.0110550282320082e-05 
 -3.0903690805539689e-05  -3.1717723406133283e-05  -3.2553198401432962e-05  -3.3410680604661659e-05 
 -3.4290749706769706e-05  -3.5194000668328357e-05  -3.6121044121747239e-05  -3.7072506784085569e-05 
 -3.8049031880738264e-05  -3.9051279580281516e-05  -4.0079927440773343e-05  -4.1135670867809369e-05 
 -4.2219223584645396e-05  -4.3331318114702253e-05  -4.4472706276781339e-05  -4.5644159693324006e-05 
 -4.6846470312059268e-05  -4.8080450941392443e-05  -4.9346935799896115e-05  -5.0646781080275642e-05 
 -5.1980865528189790e-05  -5.3350091036318406e-05  -5.4755383254078260e-05  -5.6197692213399513e-05 
 -5.7677992970986086e-05  -5.9197286267493111e-05  -6.0756599204068842e-05  -6.2356985936716543e-05 
 -6.3999528388947283e-05  -6.5685336983204123e-05  -6.7415551391553528e-05  -6.9191341306150316e-05 
 -7.1013907229997486e-05  -7.2884481288536316e-05  -7.4804328062613110e-05  -7.6774745443389125e-05 
 -7.8797065509767964e-05  -8.0872655428936908e-05  -8.3002918380628533e-05  -8.5189294505728805e-05 
 -8.7433261879872457e-05  -8.9736337512684436e-05  -9.2100078373341876e-05  -9.4526082443150555e-05 
 -9.7015989795848329e-05  -9.9571483706364106e-05  -1.0219429178878333e-04  -1.0488618716428812e-04 
 -1.0764898965986339e-04  -1.1048456703857767e-04  -1.1339483626227079e-04  -1.1638176478750338e-04 
 -1.1944737189564091e-04  -1.2259373005797712e-04  -1.2582296633681370e-04  -1.2913726382344668e-04 
 -1.3253886311403266e-04  -1.3603006382432927e-04  -1.3961322614433676e-04  -1.4329077243389117e-04 
 -1.4706518886028650e-04  -1.5093902707903392e-04  -1.5491490595889615e-04  -1.5899551335235847e-04 
 -1.6318360791273975e-04  -1.6748202095916476e-04  -1.7189365839066634e-04  -1.7642150265070270e-04 
 -1.8106861474342879e-04  -1.8583813630307334e-04  -1.9073329171782972e-04  -1.9575739030969067e-04 
 -2.0091382857170503e-04  -2.0620609246416543e-04  -2.1163775977128119e-04  -2.1721250251992955e-04 
 -2.2293408946211875e-04  -2.2880638862284589e-04  -2.3483336991506645e-04  -2.4101910782354689e-04 
 -2.4736778415941255e-04  -2.5388369088725685e-04  -2.6057123302671898e-04  -2.6743493163049398e-04 
 -2.7447942684078933e-04  -2.8170948102628840e-04  -2.8912998200175574e-04  -2.9674594633244210e-04 
 -3.0456252272553910e-04  -3.1258499551096590e-04  -3.2081878821385053e-04  -3.2926946722110966e-04 
 -3.3794274554461908e-04  -3.4684448668350726e-04  -3.5598070858818882e-04  -3.6535758772882087e-04 
 -3.7498146327092627e-04  -3.8485884136101061e-04  -3.9499639952506868e-04  -4.0540099118296040e-04 
 -4.1607965028169728e-04  -4.2703959605078039e-04  -4.3828823788280617e-04  -4.4983318034262746e-04 
 -4.6168222830847872e-04  -4.7384339224851410e-04  -4.8632489363634960e-04  -4.9913517050925585e-04 
 -5.1228288317276710e-04  -5.2577692005556108e-04  -5.3962640371856539e-04  -5.5384069702235975e-04 
 -5.6842940945703530e-04  -5.8340240363880327e-04  -5.9876980197773018e-04  -6.1454199352111989e-04 
 -6.3072964097716263e-04  -6.4734368792360565e-04  -6.6439536620631107e-04  -6.8189620353271551e-04 
 -6.9985803126531014e-04  -7.1829299242042322e-04  -7.3721354987771489e-04  -7.5663249480591697e-04 
 -7.7656295531053549e-04  -7.9701840530935284e-04  -8.1801267364173399e-04  -8.3955995341788623e-04 
 -8.6167481161441249e-04  -8.8437219892263121e-04  -9.0766745985631863e-04  -9.3157634312573435e-04 
 -9.5611501228490422e-04  -9.8130005665939186e-04  -1.0071485025619411e-03  -1.0336778248035590e-03 
 -1.0609059585078334e-03  -1.0888513112364852e-03  -1.1175327754343255e-03  -1.1469697412020525e-03 
 -1.1771821094055301e-03  -1.2081903051303924e-03  -1.2400152914910821e-03  -1.2726785838036716e-03 
 -1.3062022641320188e-03  -1.3406089962171284e-03  -1.3759220407998027e-03  -1.4121652713469126e-03 
 -1.4493631901919654e-03  -1.4875409451008835e-03  -1.5267243462741358e-03  -1.5669398837967910e-03 
 -1.6082147455482509e-03  -1.6505768355837944e-03  -1.6940547930003173e-03  -1.7386780112991127e-03 
 -1.7844766582586805e-03  -1.8314816963310675e-03  -1.8797249035755409e-03  -1.9292388951436814e-03 
 -1.9800571453304984e-03  -2.0322140102064265e-03  -2.0857447508455446e-03  -2.1406855571656702e-03 
 -2.1970735723965233e-03  -2.2549469181924364e-03  -2.3143447204066136e-03  -2.3753071355443996e-03 
 -2.4378753779133824e-03  -2.5020917474887364e-03  -2.5679996585126212e-03  -2.6356436688469943e-03 
 -2.7050695100996540e-03  -2.7763241185439027e-03  -2.8494556668527435e-03  -2.9245135966690142e-03 
 -3.0015486520335753e-03  -3.0806129136940418e-03  -3.1617598343173085e-03  -3.2450442746297043e-03 
 -3.3305225405091407e-03  -3.4182524210543672e-03  -3.5082932276570586e-03  -3.6007058341031850e-03 
 -3.6955527177306492e-03  -3.7928980016712173e-03  -3.8928074982050608e-03  -3.9953487532574080e-03 
 -4.1005910920672555e-03  -5.1611123587853754e-03  -5.2970588234277308e-03  -5.4365861278458331e-03 
 -5.5797885879681078e-03  -5.7267630036965927e-03  -5.8776087243131046e-03  -6.0324277156067691e-03 
 -6.1913246287680999e-03  -6.3544068710961465e-03  -6.5217846785662484e-03  -6.6935711903073894e-03 
 -6.8698825250392333e-03  -7.0508378595204218e-03  -7.2365595090607701e-03  -7.4271730101518919e-03 
 -7.6228072052715607e-03  -7.8235943299190293e-03  -8.0296701019399470e-03  -8.2411738132007768e-03 
 -8.4582484236746750e-03  -8.6810406580017131e-03  -8.9097011045888453e-03  -9.1443843173157398e-03 
 -9.3852489199153111e-03  -9.6324577130987108e-03  -9.8861777844969495e-03  -1.0146580621492870e-02 
 -1.0413842227019337e-02  -1.0688143238401239e-02  -1.0969669049321163e-02  -1.1258609934990407e-02 
 -1.1555161180609341e-02  -1.1859523213203330e-02  -1.2171901736922277e-02  -1.2492507871894553e-02 
 -1.2821558296728439e-02  -1.3159275394756011e-02  -1.3505887404117756e-02  -1.3861628571787871e-02 
 -1.4226739311643427e-02  -1.4601466366682667e-02  -1.4986062975501251e-02  -1.5380789043136776e-02 
 -1.5785911316395972e-02  -1.6201703563781311e-02  -1.6628446760136681e-02  -1.7066429276134956e-02 
 -1.7515947072733712e-02  -1.7977303900727940e-02  -1.8450811505532214e-02  -1.8936789837328619e-02 
 -1.9435567266718898e-02  -1.9947480806024268e-02  -2.0472876336378783e-02  -2.1012108840766441e-02 
 -2.1565542643155987e-02  -2.2133551653890658e-02  -2.2716519621494735e-02  -2.3314840391062141e-02 
 -2.3928918169397261e-02  -2.4559167797081352e-02  -2.5206015027642675e-02  -2.5869896814013325e-02 
 -2.6551261602459145e-02  -2.7250569634174725e-02  -2.7968293254739117e-02  -2.8704917231633764e-02 
 -2.9460939080027483e-02  -3.0236869397040459e-02  -3.1033232204701264e-02  -3.1850565301818824e-02 
 -3.2689420624994830e-02  -3.3550364619007712e-02  -3.4433978616804875e-02  -3.5340859229345031e-02 
 -3.6271618745538456e-02  -3.7226885542537592e-02  -3.8207304506638326e-02  -3.9213537465054481e-02 
 -4.0246263628837889e-02  -4.1306180047219122e-02  -4.2394002073651814e-02  -4.3510463843848893e-02 
 -4.4656318766104673e-02  -4.5832340024204520e-02  -4.7039321093226831e-02  -4.8278076268552766e-02 
 -4.9549441208400762e-02  -5.0854273490211988e-02  -5.2193453181218652e-02  -5.3567883423532366e-02 
 -5.4978491034096674e-02  -5.6426227119854060e-02  -5.7912067708483277e-02  -5.9437014395069279e-02 
 -6.1002095005074072e-02  -6.2608364273981795e-02  -6.4256904543997878e-02  -6.5948826478187034e-02 
 -6.7685269792440522e-02  -6.9467404005667699e-02  -7.1296429208611803e-02  -7.3173576851695107e-02 
 -7.5100110552300939e-02  -7.7077326921906913e-02  -7.9106556413482895e-02  -8.1189164189574572e-02 
 -8.3326551011491931e-02  -8.5520154150027325e-02  -8.7771448318124959e-02  -9.0081946625929055e-02 
 -9.2453201558631987e-02  -9.4886805977546854e-02  -9.7384394144826192e-02  -9.9947642772242440e-02 
 -1.0257827209444473e-01  -1.0527804696709982e-01  -1.0804877799031845e-01  -1.1089232265775949e-01 
 -1.1381058653179460e-01  -1.1680552444510631e-01  -1.1987914172907384e-01  -1.2303349546929516e-01 
 -1.2627069578856331e-01  -1.2959290715760702e-01  -1.3300234973387526e-01  -1.3650130072862404e-01 
 -1.4009209580253373e-01  -1.4377713049005525e-01  -1.4755886165264642e-01  -1.5143980896102244e-01 
 -1.5542255640650651e-01  -1.5950975384150723e-01  -1.6370411854911432e-01  -1.6800843684173561e-01 
 -1.7242556568864292e-01  -1.7695843437222389e-01  -1.8161004617266957e-01  -1.8638348008073827e-01 
 -1.9128189253816144e-01  -1.9630851920515624e-01  -2.0146667675440796e-01  -2.0675976469078119e-01 
 -2.1219126719589429e-01  -2.1776475499657033e-01  -2.2348388725603302e-01  -2.2935241348656932e-01 
 -2.3537417548223377e-01  -2.4155310926997034e-01  -2.4789324707738083e-01  -2.5439871931513491e-01 
 -2.6107375657183579e-01  -2.6792269161891241e-01  -2.7494996142287326e-01  -2.8216010916200385e-01 
 -2.8955778624430717e-01  -2.9714775432320401e-01  -3.0493488730718893e-01  -3.1292417335931894e-01 
 -3.2112071688204957e-01  -3.2952974048257283e-01  -3.3815658691340283e-01  -3.4700672098255836e-01 
 -3.5608573142723010e-01  -3.6539933274437209e-01  -3.7495336697115816e-01  -3.8475380540772725e-01 
 -3.9480675027411632e-01  -4.0511843629268640e-01  -4.1569523218676668e-01  -4.2654364208562545e-01 
 -4.3767030682520958e-01  -4.4908200513342394e-01  -4.6078565468802807e-01  -4.7278831303447683e-01 
 -4.8509717835028654e-01  -4.9771959004173166e-01  -5.1066302915785333e-01  -5.2393511860595054e-01 
 -5.3754362315186499e-01  -5.5149644918752061e-01  -5.6580164424728141e-01  -5.8046739625381338e-01 
 -5.9550203247324507e-01  -6.1091401815850166e-01  -6.2671195485882025e-01  -6.4290457837254433e-01 
 -6.5950075631945670e-01  -6.7650948530801924e-01  -6.9393988767216674e-01  -7.1180120775141609e-01 
 -7.3010280768746372e-01  -7.4885416270972760e-01  -7.6806485588176276e-01  -7.8774457227999761e-01 
 -8.0790309257591131e-01  -8.2855028599253489e-01  -8.4969610260609352e-01  -8.7135056496371011e-01 
 -8.9352375898838787e-01  -9.1622582414299292e-01  -9.3946694282570842e-01  -9.6325732897048189e-01 
 -9.8760721582726696e-01  -1.0125268428985357e+00  -1.0380264420105578e+00  -1.0641162225003009e+00 
 -1.0908063555017022e+00  -1.1181069573182643e+00  -1.1460280718727440e+00  -1.1745796522290566e+00 
 -1.2037715411862884e+00  -1.2336134509502246e+00  -1.2641149418939173e+00  -1.2952854004254557e+00 
 -1.3271340159885989e+00  -1.3596697572300158e+00  -1.3929013473756642e+00  -1.4268372388684445e+00 
 -1.4614855873294310e+00  -1.4968542249160637e+00  -1.5329506331622451e+00  -1.5697819153976416e+00 
 -1.6073547688563772e+00  -1.6456754565987641e+00  -1.6847497793836252e+00  -1.7245830476429340e+00 
 -1.7651800537249331e+00  -1.8065450445864077e+00  -1.8486816951290048e+00  -1.8915930823884450e+00 
 -1.9352816607986829e+00  -1.9797492387654030e+00  -2.0249969567941997e+00  -2.0710252674280438e+00 
 -2.1178339172558474e+00  -2.1654219312583876e+00  -2.2137875997592604e+00  -2.2629284682461748e+00 
 -2.3128413303210476e+00  -2.3635222240256772e+00  -2.4149664317720805e+00  -2.4671684840824510e+00 
 -2.5201221673123557e+00  -2.5738205354908774e+00  -2.6282559263631367e+00  -2.6834199816619257e+00 
 -2.7393036715663137e+00  -2.7958973232245281e+00  -2.8531906531260622e+00  -2.9111728030025845e+00 
 -2.9698323788190275e+00  -3.0291574922842837e+00  -3.0891358041656374e+00  -3.1497545685321402e+00 
 -3.2110006768805088e+00  -3.2728607009131481e+00  -3.3353209325432873e+00  -3.3983674194984790e+00 
 -3.4619859946831779e+00  -3.5261622972469135e+00  -3.5908817830904192e+00  -3.6561297223320097e+00 
 -3.7218911810565913e+00  -3.7881509844854553e+00  -3.8548936585441913e+00  -3.9221033466763218e+00 
 -3.9897636986615970e+00  -4.0578577281595640e+00  -4.1263676357231631e+00  -4.1952745941251912e+00 
 -4.2645584930256755e+00  -4.3341976402938744e+00  -4.4041684176988705e+00  -4.4744448892110817e+00 
 -4.5449983608274440e+00  -4.6157968916579755e+00  -4.6868047570028359e+00  -4.7579818653152737e+00 
 -4.8292831322948269e+00  -4.9006578168880894e+00  -4.9720488256909228e+00  -5.0433919941368774e+00 
 -5.1146153549086444e+00  -5.1856384061982643e+00  -5.2563713947364601e+00  -5.3267146742060101e+00 
 -5.3965579019007119e+00  -5.4657797290232173e+00  -5.5342471759314362e+00  -5.6018153337131471e+00 
 -5.6683271776512436e+00  -5.7336135607482710e+00  -5.7974934165477165e+00  -5.8597742004949422e+00 
 -5.9202525978029064e+00  -5.9787155232890790e+00  -6.0349414857809487e+00  -6.0887020381088819e+00 
 -6.1397640580977901e+00  -6.1878918964541336e+00  -6.2328501039475013e+00  -6.2744064383917593e+00 
 -6.3123351678323436e+00  -6.3464206288860536e+00  -6.3764609814958764e+00  -6.4022720860457385e+00 
 -6.4236914136848888e+00  -6.4405818817799467e+00  -6.4528354933043390e+00  -6.4603766428943343e+00 
 -6.4631649422688486e+00  -6.4611974076161491e+00  -6.4545098497521183e+00  -6.4431773080125527e+00 
 -6.4273133783227294e+00  -6.4070683027500364e+00  -6.3826257109263391e+00  -6.3541979420307735e+00 
 -6.3220199165270703e+00  -6.2863415863882821e+00  -6.2474190524801374e+00  -6.2055045164105787e+00 
 -6.1608353105040345e+00  -6.1136223381971169e+00  -6.0640383433393446e+00  -6.0122065108431846e+00 
 -5.9581899785975079e+00  -5.9019829031305626e+00  -5.8435037633537918e+00  -5.7825916018087939e+00 
 -5.7190058823038807e+00  -5.6524305781584259e+00  -5.5824829965899383e+00  -5.5087276762340878e+00 
 -5.4306954768478217e+00  -5.3479077034299349e+00  -5.2599047815962550e+00  -5.1662786368827138e+00 
 -5.0667075402408743e+00  -4.9609917901745746e+00  -4.8490882329464506e+00  -4.7311413102353708e+00 
 -4.6075081020803950e+00  -4.4787747427402209e+00  -4.3457616612649241e+00  -4.2095153735946695e+00 
 -4.0712850516144679e+00  -3.9324828308039441e+00  -3.7946277918143392e+00  -3.6592747370193019e+00 
 -3.5279302419862928e+00  -3.4019599224562014e+00  -3.2824923238721118e+00  -3.1703262004168713e+00 
 -3.0658490504961269e+00  -2.9689754662715511e+00  -2.8791139610919476e+00  -2.7951702968414538e+00 
 -2.7155938066921368e+00  -2.6384706957114874e+00  -2.5616647903529879e+00  -2.4830017772402919e+00 
 -2.4004878464866515e+00  -2.3125482025929194e+00  -2.2182656557890406e+00  -2.1175951157451762e+00 
 -2.0115270153599427e+00  -1.9021722292481928e+00  -1.7927435423645806e+00  -1.6874145673807863e+00 
 -1.5910462779822478e+00  -1.5087836961880023e+00  -1.4455400102847347e+00  -1.4054013872334339e+00 
 -1.3910015377682661e+00  -1.4029290064460462e+00  -1.4392402992945974e+00  -1.4951562701512171e+00 
 -1.5630154983307980e+00  -1.6325443112534166e+00  -1.6914791304730068e+00  1.1320393562804354e-01 
 6.8766676361036186e-02  7.3505659604235024e-02  1.2537411267006141e-01  1.4621598865476676e-01 
 1.5352026096938948e-01  1.5728321856687191e-01  1.5623679792016787e-01  1.5025635996048042e-01 
 1.3912573514750065e-01  1.2265904778929963e-01  1.0067601228271453e-01  7.3071516428031169e-02 
 3.9076991254954972e-02  4.3433747773586129e-03  -4.3029682071295001e-04  4.2629375111759886e-05 
 -4.2232788923152046e-06  4.1839877977225815e-07  -4.1450678327094572e-08  4.1064402405827797e-09 
 -4.0652407762959266e-10  4.0197716960359328e-11  -3.9874615436643213e-12  4.8986549233530591e-13 
 5.5329170459462322e-14  2.5965240625775662e-13  -1.6579228547757140e-13  8.7043094650181076e-14 
 3.0510127328081694e-13  -2.8856075068544619e-14  7.7635767102045427e-14  -8.3698327779284378e-14 
 -1.2429749778058158e-13  1.8451262385569449e-13  -2.4359017174644271e-13  1.1644743494900766e-13 
 1.1781095450131027e-13  -1.2351582097700278e-13  -1.5920593427635432e-14  7.7993028461256729e-14 
 -1.2206163960766397e-13  1.1799551315588204e-13  -9.7632279782226619e-14  4.4734538879399632e-14 
 -4.0032211805206886e-14  -1.7999137360753191e-14  -3.8289053431721874e-15  1.0159867460927702e-14 
 6.3117334413471006e-15  3.5243262607791683e-14  -1.1377881821979855e-14  -1.4012681913927858e-14 
 8.2061901742319028e-15  9.3425292381068024e-11  1.1082547407863166e-10  1.2494424351507460e-10 
 1.3440559023614676e-10  1.3984673235790946e-10  1.4172094208798003e-10  1.4071018942688669e-10 
 1.3733728126214141e-10  1.3215089938192983e-10  1.2562139970852175e-10  1.1811033377591325e-10 
 0.0000000000000000e+00  0.0000000000000000e+00  0.0000000000000000e+00  0.0000000000000000e+00 
 0.0000000000000000e+00  0.0000000000000000e+00  0.0000000000000000e+00  0.0000000000000000e+00 
 0.0000000000000000e+00  0.0000000000000000e+00  0.0000000000000000e+00  0.0000000000000000e+00 
 0.0000000000000000e+00  0.0000000000000000e+00  0.0000000000000000e+00  0.0000000000000000e+00 
 0.0000000000000000e+00  0.0000000000000000e+00  0.0000000000000000e+00  0.0000000000000000e+00 
 0.0000000000000000e+00  0.0000000000000000e+00  0.0000000000000000e+00  0.0000000000000000e+00 
 0.0000000000000000e+00  0.0000000000000000e+00  0.0000000000000000e+00  0.0000000000000000e+00 
 0.0000000000000000e+00  0.0000000000000000e+00  0.0000000000000000e+00  0.0000000000000000e+00 
 0.0000000000000000e+00  0.0000000000000000e+00  0.0000000000000000e+00  0.0000000000000000e+00 
 0.0000000000000000e+00  0.0000000000000000e+00  0.0000000000000000e+00  0.0000000000000000e+00 
 0.0000000000000000e+00  0.0000000000000000e+00  0.0000000000000000e+00  0.0000000000000000e+00 
 0.0000000000000000e+00  0.0000000000000000e+00  0.0000000000000000e+00  0.0000000000000000e+00 
 0.0000000000000000e+00  0.0000000000000000e+00  0.0000000000000000e+00  0.0000000000000000e+00 
 0.0000000000000000e+00  0.0000000000000000e+00  0.0000000000000000e+00  0.0000000000000000e+00 
 0.0000000000000000e+00  0.0000000000000000e+00  0.0000000000000000e+00  0.0000000000000000e+00 
 0.0000000000000000e+00  0.0000000000000000e+00  0.0000000000000000e+00  0.0000000000000000e+00 
 0.0000000000000000e+00  0.0000000000000000e+00  0.0000000000000000e+00  0.0000000000000000e+00 
 0.0000000000000000e+00  0.0000000000000000e+00  0.0000000000000000e+00  0.0000000000000000e+00 
 0.0000000000000000e+00  0.0000000000000000e+00  0.0000000000000000e+00  0.0000000000000000e+00 
 0.0000000000000000e+00  0.0000000000000000e+00  0.0000000000000000e+00  0.0000000000000000e+00 
 0.0000000000000000e+00  0.0000000000000000e+00  0.0000000000000000e+00  0.0000000000000000e+00 
 0.0000000000000000e+00  0.0000000000000000e+00  0.0000000000000000e+00  0.0000000000000000e+00 
 0.0000000000000000e+00  0.0000000000000000e+00  0.0000000000000000e+00  0.0000000000000000e+00 
 0.0000000000000000e+00  0.0000000000000000e+00  0.0000000000000000e+00  -0.0000000000000000e+00 
 -0.0000000000000000e+00  -0.0000000000000000e+00  -0.0000000000000000e+00  -0.0000000000000000e+00 
 -0.0000000000000000e+00  -0.0000000000000000e+00  -0.0000000000000000e+00  -0.0000000000000000e+00 
 -0.0000000000000000e+00  -0.0000000000000000e+00  -0.0000000000000000e+00  -0.0000000000000000e+00 
 -0.0000000000000000e+00  -0.0000000000000000e+00  -0.0000000000000000e+00  -0.0000000000000000e+00 
 -0.0000000000000000e+00  -0.0000000000000000e+00  -0.0000000000000000e+00  -0.0000000000000000e+00 
 -0.0000000000000000e+00  -0.0000000000000000e+00  -0.0000000000000000e+00  -0.0000000000000000e+00 
 -0.0000000000000000e+00  -0.0000000000000000e+00  -0.0000000000000000e+00  -0.0000000000000000e+00 
 -0.0000000000000000e+00  -0.0000000000000000e+00  -0.0000000000000000e+00  -0.0000000000000000e+00 
 -0.0000000000000000e+00  -0.0000000000000000e+00  -0.0000000000000000e+00  -0.0000000000000000e+00 
 -0.0000000000000000e+00  -0.0000000000000000e+00  -0.0000000000000000e+00  -0.0000000000000000e+00 
 -0.0000000000000000e+00  -0.0000000000000000e+00  -0.0000000000000000e+00  -0.0000000000000000e+00 
 -0.0000000000000000e+00  -0.0000000000000000e+00  -0.0000000000000000e+00  -0.0000000000000000e+00 
 -0.0000000000000000e+00  -0.0000000000000000e+00  -0.0000000000000000e+00  -0.0000000000000000e+00 
 -0.0000000000000000e+00  -0.0000000000000000e+00  -0.0000000000000000e+00  -0.0000000000000000e+00 
 -0.0000000000000000e+00  -0.0000000000000000e+00  -0.0000000000000000e+00  -0.0000000000000000e+00 
 -0.0000000000000000e+00  -0.0000000000000000e+00  -0.0000000000000000e+00  -0.0000000000000000e+00 
 -0.0000000000000000e+00  -0.0000000000000000e+00  -0.0000000000000000e+00  -0.0000000000000000e+00 
 -0.0000000000000000e+00  -0.0000000000000000e+00  -0.0000000000000000e+00  -0.0000000000000000e+00 
 -0.0000000000000000e+00  -0.0000000000000000e+00  -0.0000000000000000e+00  -0.0000000000000000e+00 
 -0.0000000000000000e+00  -0.0000000000000000e+00  -0.0000000000000000e+00  -0.0000000000000000e+00 
 -0.0000000000000000e+00  -0.0000000000000000e+00  -0.0000000000000000e+00  -0.0000000000000000e+00 
 -0.0000000000000000e+00  -0.0000000000000000e+00  -0.0000000000000000e+00  -0.0000000000000000e+00 
 -0.0000000000000000e+00  -0.0000000000000000e+00  -0.0000000000000000e+00  -0.0000000000000000e+00 
 -0.0000000000000000e+00  -0.0000000000000000e+00  -0.0000000000000000e+00  -0.0000000000000000e+00 
 -0.0000000000000000e+00  -0.0000000000000000e+00  -0.0000000000000000e+00  -0.0000000000000000e+00 
 -0.0000000000000000e+00  -0.0000000000000000e+00  -0.0000000000000000e+00  -0.0000000000000000e+00 
 -0.0000000000000000e+00  -0.0000000000000000e+00  -0.0000000000000000e+00  -0.0000000000000000e+00 
 -0.0000000000000000e+00  -0.0000000000000000e+00  -0.0000000000000000e+00  -0.0000000000000000e+00 
 -0.0000000000000000e+00  -0.0000000000000000e+00  -0.0000000000000000e+00  -0.0000000000000000e+00 
 -0.0000000000000000e+00  -0.0000000000000000e+00  -0.0000000000000000e+00  -0.0000000000000000e+00 
 -0.0000000000000000e+00  -0.0000000000000000e+00  -0.0000000000000000e+00  -0.0000000000000000e+00 
 -0.0000000000000000e+00  -0.0000000000000000e+00  -0.0000000000000000e+00  -0.0000000000000000e+00 
 -0.0000000000000000e+00  -0.0000000000000000e+00  -0.0000000000000000e+00  -0.0000000000000000e+00 
 -0.0000000000000000e+00  -0.0000000000000000e+00  -0.0000000000000000e+00  -0.0000000000000000e+00 
 -0.0000000000000000e+00  -0.0000000000000000e+00  -0.0000000000000000e+00  -0.0000000000000000e+00 
 -0.0000000000000000e+00  -0.0000000000000000e+00  -0.0000000000000000e+00  -0.0000000000000000e+00 
 -0.0000000000000000e+00  -0.0000000000000000e+00  -0.0000000000000000e+00  -0.0000000000000000e+00 
 -0.0000000000000000e+00  -0.0000000000000000e+00  -0.0000000000000000e+00  -0.0000000000000000e+00 
 -0.0000000000000000e+00  -0.0000000000000000e+00  -0.0000000000000000e+00  -0.0000000000000000e+00 
 -0.0000000000000000e+00  -0.0000000000000000e+00  -0.0000000000000000e+00  -0.0000000000000000e+00 
 -0.0000000000000000e+00  -0.0000000000000000e+00  -0.0000000000000000e+00  -0.0000000000000000e+00 
 -0.0000000000000000e+00  -0.0000000000000000e+00  -0.0000000000000000e+00  -0.0000000000000000e+00 
 -0.0000000000000000e+00  -0.0000000000000000e+00  -0.0000000000000000e+00  -0.0000000000000000e+00 
 -0.0000000000000000e+00  -0.0000000000000000e+00  -0.0000000000000000e+00  -0.0000000000000000e+00 
 -0.0000000000000000e+00  -0.0000000000000000e+00  -0.0000000000000000e+00  -0.0000000000000000e+00 
  </PP_BETA>
  <PP_BETA>
  3  2      Beta    L
  1155  
 -2.2863981192267981e-12  -2.3773292790640259e-12  -2.4718768151618352e-12  -2.5701845525568674e-12 
 -2.6724020362772741e-12  -2.7786847588295677e-12  -2.8891943967327386e-12  -3.0040990564594307e-12 
 -3.1235735301583183e-12  -3.2477995615467334e-12  -3.3769661223778933e-12  -3.5112696999034433e-12 
 -3.6509145957684595e-12  -3.7961132367937016e-12  -3.9470864981178215e-12  -4.1040640391910525e-12 
 -4.2672846531315877e-12  -4.4369966299759949e-12  -4.6134581343762992e-12  -4.7969375983182580e-12 
 -4.9877141294582263e-12  -5.1860779356998014e-12  -5.3923307666560554e-12  -5.6067863726689672e-12 
 -5.8297709820842780e-12  -6.0616237975077880e-12  -6.3026975117980148e-12  -6.5533588445801490e-12 
 -6.8139891000974385e-12  -7.0849847472485201e-12  -7.3667580226932660e-12  -7.6597375579443036e-12 
 -7.9643690313983634e-12  -8.2811158462992058e-12  -8.6104598356634369e-12  -8.9529019952416600e-12 
 -9.3089632456297825e-12  -9.6791852246898329e-12  -1.0064131111485846e-11  -1.0464386482988044e-11 
 -1.0880560204848551e-11  -1.1313285357603689e-11  -1.1763220199711816e-11  -1.2231049168891711e-11 
 -1.2717483923284542e-11  -1.3223264424023598e-11  -1.3749160060858018e-11  -1.4295970822543472e-11 
 -1.4864528513779754e-11  -1.5455698020546422e-11  -1.6070378625761685e-11  -1.6709505377265624e-11 
 -1.7374050510208775e-11  -1.8065024926009844e-11  -1.8783479730132210e-11  -1.9530507831018796e-11 
 -2.0307245602617156e-11  -2.1114874613024083e-11  -2.1954623421879330e-11  -2.2827769449242658e-11 
 -2.3735640918796843e-11  -2.4679618878332869e-11  -2.5661139300591266e-11  -2.6681695267654370e-11 
 -2.7742839242213243e-11  -2.8846185429164241e-11  -2.9993412231126913e-11  -3.1186264801619852e-11 
 -3.2426557699776827e-11  -3.3716177650643071e-11  -3.5057086415249415e-11  -3.6451323774831048e-11 
 -3.7901010633729958e-11  -3.9408352245701608e-11  -4.0975641568533379e-11  -4.2605262752077880e-11 
 -4.4299694765007142e-11  -4.6061515165804893e-11  -4.7893404023732829e-11  -4.9798147995735518e-11 
 -5.1778644565487150e-11  -5.3837906451025649e-11  -5.5979066187682066e-11  -5.8205380893274709e-11 
 -6.0520237222817644e-11  -6.2927156520281130e-11  -6.5429800175238912e-11  -6.8031975192554056e-11 
 -7.0737639983572207e-11  -7.3550910387635346e-11  -7.6476065933072501e-11  -7.9517556347195735e-11 
 -8.2680008325199451e-11  -8.5968232568264527e-11  -8.9387231101570889e-11  -9.2942204883350503e-11 
 -9.6638561716558213e-11  -1.0048192447519220e-10  -1.0447813965778082e-10  -1.0863328628104582e-10 
 -1.1295368512727138e-10  -1.1744590835944537e-10  -1.2211678951880203e-10  -1.2697343391996956e-10 
 -1.3202322945954016e-10  -1.3727385785450322e-10  -1.4273330632763576e-10  -1.4840987975762839e-10 
 -1.5431221331242678e-10  -1.6044928558501195e-10  -1.6683043225159303e-10  -1.7346536027299729e-10 
 -1.8036416266085669e-10  -1.8753733383105307e-10  -1.9499578556777984e-10  -2.0275086362250181e-10 
 -2.1081436497306780e-10  -2.1919855576922410e-10  -2.2791618999183625e-10  -2.3698052885419291e-10 
 -2.4640536097491666e-10  -2.5620502335316064e-10  -2.6639442317799781e-10  -2.7698906050518845e-10 
 -2.8800505183581332e-10  -2.9945915463264100e-10  -3.1136879281152798e-10  -3.2375208324662844e-10 
 -3.3662786332972693e-10  -3.5001571962562980e-10  -3.6393601766719174e-10  -3.7840993293531264e-10 
 -3.9345948307102855e-10  -4.0910756136869418e-10  -4.2537797160121170e-10  -4.4229546423028339e-10 
 -4.5988577405676362e-10  -4.7817565936839104e-10  -4.9719294264445525e-10  -5.1696655287930803e-10 
 -5.3752656958910943e-10  -5.5890426856875275e-10  -5.8113216946857243e-10  -6.0424408526320512e-10 
 -6.2827517368786246e-10  -6.5326199072026126e-10  -6.7924254618956098e-10  -7.0625636159690941e-10 
 -7.3434453023555176e-10  -7.6354977970195107e-10  -7.9391653689302915e-10  -8.2549099558838815e-10 
 -8.5832118672031740e-10  -8.9245705143850485e-10  -9.2795051708056790e-10  -9.6485557616399775e-10 
 -1.0032283685196602e-09  -1.0431272666918222e-09  -1.0846129647345837e-09  -1.1277485705398181e-09 
 -1.1725997018370674e-09  -1.2192345860114171e-09  -1.2677241638912085e-09  -1.3181421976634799e-09 
 -1.3705653830812700e-09  -1.4250734661335062e-09  -1.4817493643549420e-09  -1.5406792929607026e-09 
 -1.6019528959972787e-09  -1.6656633827095372e-09  -1.7319076693311137e-09  -1.8007865265139852e-09 
 -1.8724047326214036e-09  -1.9468712331174276e-09  -2.0242993062955222e-09  -2.1048067355983385e-09 
 -2.1885159887907731e-09  -2.2755544042589460e-09  -2.3660543847184253e-09  -2.4601535986264136e-09 
 -2.5579951896042986e-09  -2.6597279941891319e-09  -2.7655067682452846e-09  -2.8754924223807164e-09 
 -2.9898522667259972e-09  -3.1087602654484214e-09  -3.2323973013884012e-09  -3.3609514512207586e-09 
 -3.4946182715593852e-09  -3.6336010964407008e-09  -3.7781113466382510e-09  -3.9283688512791428e-09 
 -4.0846021822514549e-09  -4.2470490019115174e-09  -4.4159564246197751e-09  -4.5915813926554307e-09 
 -4.7741910670816427e-09  -4.9640632341558659e-09  -5.1614867279036710e-09  -5.3667618694987700e-09 
 -5.5802009241178302e-09  -5.8021285759648901e-09  -6.0328824221881586e-09  -6.2728134864405364e-09 
 -6.5222867528650972e-09  -6.7816817213178930e-09  -7.0513929846727139e-09  -7.3318308290861963e-09 
 -7.6234218581361182e-09  -7.9266096417827639e-09  -8.2418553911402543e-09  -8.5696386600848055e-09 
 -8.9104580747667351e-09  -9.2648320921364737e-09  -9.6332997886383142e-09  -1.0016421680271721e-08 
 -1.0414780575267912e-08  -1.0828982460678788e-08  -1.1259657424226943e-08  -1.1707460612819327e-08 
 -1.2173073229182687e-08  -1.2657203568136889e-08  -1.3160588094082925e-08  -1.3683992561344468e-08 
 -1.4228213179067517e-08  -1.4794077822450595e-08  -1.5382447292147750e-08  -1.5994216623760641e-08 
 -1.6630316449411729e-08  -1.7291714413470416e-08  -1.7979416644585232e-08  -1.8694469286262222e-08 
 -1.9437960088317821e-08  -2.0211020061627329e-08  -2.1014825198686878e-08  -2.1850598262605736e-08 
 -2.2719610647251841e-08  -2.3623184311379153e-08  -2.4562693789680976e-08  -2.5539568283827387e-08 
 -2.6555293836669178e-08  -2.7611415592915514e-08  -2.8709540149724944e-08  -2.9851338000786453e-08 
 -3.1038546077608122e-08  -3.2272970391880485e-08  -3.3556488782934810e-08  -3.4891053774475964e-08 
 -3.6278695544936796e-08  -3.7721525015972675e-08  -3.9221737063796038e-08  -4.0781613858235898e-08 
 -4.2403528334603957e-08  -4.4089947803648455e-08  -4.5843437705088906e-08  -4.7666665510442517e-08 
 -4.9562404781081745e-08  -5.1533539387694794e-08  -5.3583067897571620e-08  -5.5714108136389582e-08 
 -5.7929901931440616e-08  -6.0233820043515409e-08  -6.2629367294951119e-08  -6.5120187901643180e-08 
 -6.7710071017135551e-08  -7.0402956497225437e-08  -7.3202940893853042e-08  -7.6114283687397144e-08 
 -7.9141413766861103e-08  -8.2288936167806381e-08  -8.5561639078291993e-08  -8.8964501123473627e-08 
 -9.2502698939954335e-08  -9.6181615051406734e-08  -1.0000684605745492e-07  -1.0398421114827619e-07 
 -1.0811976095787843e-07  -1.1241978676952766e-07  -1.1689083008733201e-07  -1.2153969258855069e-07 
 -1.2637344647177037e-07  -1.3139944521669924e-07  -1.3662533477195154e-07  -1.4205906518785074e-07 
 -1.4770890271195250e-07  -1.5358344236569734e-07  -1.5969162102133168e-07  -1.6604273099900048e-07 
 -1.7264643420470540e-07  -1.7951277683064509e-07  -1.8665220464031071e-07  -1.9407557886160154e-07 
 -2.0179419271215094e-07  -2.0981978858201294e-07  -2.1816457589986347e-07  -2.2684124970990934e-07 
 -2.3586300998778251e-07  -2.4524358172482151e-07  -2.5499723581130650e-07  -2.6513881075044237e-07 
 -2.7568373523613832e-07  -2.8664805162895697e-07  -2.9804844036596297e-07  -3.0990224534163849e-07 
 -3.2222750029849434e-07  -3.3504295626755943e-07  -3.4836811010051996e-07  -3.6222323413694829e-07 
 -3.7662940705178243e-07  -3.9160854593002880e-07  -4.0718343961751556e-07  -4.2337778339847498e-07 
 -4.4021621505276358e-07  -4.5772435234760338e-07  -4.7592883202094993e-07  -4.9485735031583063e-07 
 -5.1453870512738805e-07  -5.3500283982680558e-07  -5.5628088882884227e-07  -5.7840522497238465e-07 
 -6.0140950878614901e-07  -6.2532873971460033e-07  -6.5019930938205481e-07  -6.7605905697613347e-07 
 -7.0294732683488673e-07  -7.3090502832533518e-07  -7.5997469810459686e-07  -7.9020056485847001e-07 
 -8.2162861661607463e-07  -8.5430667074307190e-07  -8.8828444672016164e-07  -9.2361364181763209e-07 
 -9.6034800978133805e-07  -9.9854344264994689e-07  -1.0382580558281304e-06  -1.0795522765453184e-06 
 -1.1224889358348124e-06  -1.1671333641734197e-06  -1.2135534909273511e-06  -1.2618199477559352e-06 
 -1.3120061761307521e-06  -1.3641885391340455e-06  -1.4184464377068173e-06  -1.4748624315238205e-06 
 -1.5335223646796853e-06  -1.5945154963777786e-06  -1.6579346368210704e-06  -1.7238762885121357e-06 
 -1.7924407931777935e-06  -1.8637324845423653e-06  -1.9378598471825380e-06  -2.0149356817060826e-06 
 -2.0950772765063527e-06  -2.1784065863544932e-06  -2.2650504181018003e-06  -2.3551406237754932e-06 
 -2.4488143013624198e-06  -2.5462140035871577e-06  -2.6474879550028610e-06  -2.7527902777262917e-06 
 -2.8622812261613411e-06  -2.9761274310694125e-06  -3.0945021533590563e-06  -3.2175855479822974e-06 
 -3.3455649383404783e-06  -3.4786351016185422e-06  -3.6169985654834314e-06  -3.7608659165996187e-06 
 -3.9104561214328462e-06  -4.0659968598321788e-06  -4.2277248718997026e-06  -4.3958863186779053e-06 
 -4.5707371572056148e-06  -4.7525435305156923e-06  -4.9415821731702992e-06  -5.1381408329537073e-06 
 -5.3425187093668374e-06  -5.5550269095942777e-06  -5.7759889226404616e-06  -6.0057411123602728e-06 
 -6.2446332301378402e-06  -6.4930289479978628e-06  -6.7513064129646469e-06  -7.0198588235172302e-06 
 -7.2990950290225080e-06  -7.5894401530637621e-06  -7.8913362416185371e-06  -8.2052429370782134e-06 
 -8.5316381791413328e-06  -8.8710189336536988e-06  -9.2239019505119429e-06  -9.5908245517911910e-06 
 -9.9723454513044982e-06  -1.0369045606850270e-05  -1.0781529106453396e-05  -1.1210424089959071e-05 
 -1.1656383707392411e-05  -1.2120087115553590e-05  -1.2602240514377173e-05  -1.3103578224645961e-05 
 -1.3624863808712997e-05  -1.4166891235952129e-05  -1.4730486094726883e-05  -1.5316506852738081e-05 
 -1.5925846167687094e-05  -1.6559432250267895e-05  -1.7218230281583180e-05  -1.7903243887163114e-05 
 -1.8615516669853487e-05  -1.9356133803931153e-05  -2.0126223692899141e-05  -2.0926959693513426e-05 
 -2.1759561908694345e-05  -2.2625299052085041e-05  -2.3525490387127880e-05  -2.4461507743647777e-05 
 -2.5434777615050314e-05  -2.6446783339368686e-05  -2.7499067367523695e-05  -2.8593233622296580e-05 
 -2.9730949951656527e-05  -3.0913950680230705e-05  -3.2144039262858450e-05  -3.3423091044330293e-05 
 -3.4753056129578671e-05  -3.6135962368758935e-05  -3.7573918461839475e-05  -3.9069117187507604e-05 
 -4.0623838761389588e-05  -4.2240454328790500e-05  -4.3921429597365258e-05  -4.5669328615355995e-05 
 -4.7486817701256978e-05  -6.0805154923617539e-05  -6.3224735137105192e-05  -6.5740632390244111e-05 
 -6.8356683232830861e-05  -7.1076877196048745e-05  -7.3905362903348544e-05  -7.6846454426145126e-05 
 -7.9904637894185620e-05  -8.3084578370844306e-05  -8.6391127004015818e-05  -8.9829328463709800e-05 
 -9.3404428677904225e-05  -9.7121882878682415e-05  -1.0098736397116636e-04  -1.0500677123827385e-04 
 -1.0918623939484995e-04  -1.1353214800527967e-04  -1.1805113127926465e-04  -1.2275008826104054e-04 
 -1.2763619342794262e-04  -1.3271690771486685e-04  -1.3799998998186117e-04  -1.4349350894277366e-04 
 -1.4920585557363374e-04  -1.5514575602018600e-04  -1.6132228502481360e-04  -1.6774487989390093e-04 
 -1.7442335502755856e-04  -1.8136791703452789e-04  -1.8858918045602460e-04  -1.9609818412325163e-04 
 -2.0390640817433199e-04  -2.1202579175747693e-04  -2.2046875144830002e-04  -2.2924820041034371e-04 
 -2.3837756832908709e-04  -2.4787082215094728e-04  -2.5774248766009475e-04  -2.6800767192725663e-04 
 -2.7868208666610174e-04  -2.8978207253426238e-04  -3.0132462441761403e-04  -3.1332741773799927e-04 
 -3.2580883582627686e-04  -3.3878799840431995e-04  -3.5228479122138368e-04  -3.6631989689217640e-04 
 -3.8091482698592293e-04  -3.9609195541778894e-04  -4.1187455319615122e-04  -4.2828682458147244e-04 
 -4.4535394471483593e-04  -4.6310209877665803e-04  -4.8155852273862039e-04  -5.0075154577451035e-04 
 -5.2071063439843295e-04  -5.4146643840172269e-04  -5.6305083866289613e-04  -5.8549699690811760e-04 
 -6.0883940750294167e-04  -6.3311395135946878e-04  -6.5835795204664436e-04  -6.8461023419514623e-04 
 -7.1191118429215670e-04  -7.4030281396539820e-04  -7.6982882585999981e-04  -8.0053468221619650e-04 
 -8.3246767626043842e-04  -8.6567700652733783e-04  -9.0021385423480580e-04  -9.3613146384005804e-04 
 -9.7348522690957496e-04  -1.0123327694418203e-03  -1.0527340427874676e-03  -1.0947514183181071e-03 
 -1.1384497860009142e-03  -1.1838966570434616e-03  -1.2311622707800818e-03  -1.2803197059783739e-03 
 -1.3314449967523621e-03  -1.3846172532767714e-03  -1.4399187875050990e-03  -1.4974352441037492e-03 
 -1.5572557368222311e-03  -1.6194729905309891e-03  -1.6841834891653869e-03  -1.7514876298297787e-03 
 -1.8214898833205520e-03  -1.8942989613427498e-03  -1.9700279907059661e-03  -2.0487946947952453e-03 
 -2.1307215826309100e-03  -2.2159361458363633e-03  -2.3045710638583770e-03  -2.3967644177877332e-03 
 -2.4926599131527036e-03  -2.5924071120667484e-03  -2.6961616751365533e-03  -2.8040856135443616e-03 
 -2.9163475517464906e-03  -3.0331230012440266e-03  -3.1545946459008278e-03  -3.2809526393094601e-03 
 -3.4123949147230703e-03  -3.5491275080957660e-03  -3.6913648947999437e-03  -3.8393303406097129e-03 
 -3.9932562675686553e-03  -4.1533846353865641e-03  -4.3199673390382316e-03  -4.4932666232644384e-03 
 -4.6735555147104733e-03  -4.8611182724673284e-03  -5.0562508578098075e-03  -5.2592614239717035e-03 
 -5.4704708268224081e-03  -5.6902131573536843e-03  -5.9188362969244184e-03  -6.1567024962534160e-03 
 -6.4041889791847263e-03  -6.6616885723095364e-03  -6.9296103615588325e-03  -7.2083803769419077e-03 
 -7.4984423066486615e-03  -7.8002582417879439e-03  -8.1143094530897655e-03  -8.4410972009515452e-03 
 -8.7811435802741776e-03  -9.1349924015831727e-03  -9.5032101100057022e-03  -9.8863867437291465e-03 
 -1.0285136933639831e-02  -1.0700100945909620e-02  -1.1131945769369054e-02  -1.1581366249579754e-02 
 -1.2049086271600220e-02  -1.2535859993514304e-02  -1.3042473132874568e-02  -1.3569744308300297e-02 
 -1.4118526438552751e-02  -1.4689708201504040e-02  -1.5284215555503709e-02  -1.5903013325745369e-02 
 -1.6547106858329275e-02  -1.7217543744815576e-02  -1.7915415620167265e-02  -1.8641860037078919e-02 
 -1.9398062419796434e-02  -2.0185258100634922e-02  -2.1004734442515369e-02  -2.1857833050937685e-02 
 -2.2745952078931941e-02  -2.3670548628624197e-02  -2.4633141253172813e-02  -2.5635312562935404e-02 
 -2.6678711939835880e-02  -2.7765058364007632e-02  -2.8896143356891224e-02  -3.0073834045070632e-02 
 -3.1300076349225436e-02  -3.2576898302671922e-02  -3.3906413504054413e-02  -3.5290824708829632e-02 
 -3.6732427564258006e-02  -3.8233614492686280e-02  -3.9796878727954864e-02  -4.1424818509821222e-02 
 -4.3120141441268578e-02  -4.4885669013708163e-02  -4.6724341304889401e-02  -4.8639221854517432e-02 
 -5.0633502722372527e-02  -5.2710509733760305e-02  -5.4873707916993204e-02  -5.7126707137436915e-02 
 -5.9473267932669237e-02  -6.1917307552823854e-02  -6.4462906210301762e-02  -6.7114313542485204e-02 
 -6.9875955290948838e-02  -7.2752440200222895e-02  -7.5748567138763087e-02  -7.8869332444308229e-02 
 -8.2119937495310991e-02  -8.5505796509418835e-02  -8.9032544569431021e-02  -9.2706045876284338e-02 
 -9.6532402227938865e-02  -1.0051796172185200e-01  -1.0466932767808514e-01  -1.0899336777852170e-01 
 -1.1349722341687975e-01  -1.1818831925252031e-01  -1.2307437295987349e-01  -1.2816340516349595e-01 
 -1.3346374954722967e-01  -1.3898406312409778e-01  -1.4473333665143312e-01  -1.5072090517385778e-01 
 -1.5695645867425076e-01  -1.6345005281060529e-01  -1.7021211971401892e-01  -1.7725347882031303e-01 
 -1.8458534770508939e-01  -1.9221935288871975e-01  -2.0016754057501254e-01  -2.0844238728332032e-01 
 -2.1705681033129179e-01  -2.2602417812111988e-01  -2.3535832017859856e-01  -2.4507353689089503e-01 
 -2.5518460888447797e-01  -2.6570680598085955e-01  -2.7665589566398707e-01  -2.8804815098856801e-01 
 -2.9990035785494534e-01  -3.1222982157193141e-01  -3.2505437262488213e-01  -3.3839237156269109e-01 
 -3.5226271291344963e-01  -3.6668482803504360e-01  -3.8167868680371797e-01  -3.9726479804068987e-01 
 -4.1346420857419774e-01  -4.3029850083242488e-01  -4.4778978886089871e-01  -4.6596071265711880e-01 
 -4.8483443071451915e-01  -5.0443461066855655e-01  -5.2478541793844335e-01  -5.4591150226051588e-01 
 -5.6783798201179836e-01  -5.9059042622666025e-01  -6.1419483421434484e-01  -6.3867761269144796e-01 
 -6.6406555035086845e-01  -6.9038578979735643e-01  -7.1766579678947795e-01  -7.4593332673914914e-01 
 -7.7521638843189311e-01  -8.0554320494432607e-01  -8.3694217175000296e-01  -8.6944181201963366e-01 
 -9.0307072913816477e-01  -9.3785755647734792e-01  -9.7383090447966270e-01  -1.0110193051257843e+00 
 -1.0494511538748377e+00  -1.0891546491818072e+00  -1.1301577297112513e+00  -1.1724880093789365e+00 
 -1.2161727103636839e+00  -1.2612385942389244e+00  -1.3077118913777113e+00  -1.3556182287846248e+00 
 -1.4049825565029275e+00  -1.4558290727349572e+00  -1.5081811477968603e+00  -1.5620612470054980e+00 
 -1.6174908525647018e+00  -1.6744903844797692e+00  -1.7330791204832434e+00  -1.7932751149010215e+00 
 -1.8550951163264684e+00  -1.9185544839019197e+00  -1.9836671019323522e+00  -2.0504452924767169e+00 
 -2.1188997254804032e+00  -2.1890393259295600e+00  -2.2608711774276875e+00  -2.3344004215208907e+00 
 -2.4096301520342105e+00  -2.4865613036330800e+00  -2.5651925337964792e+00  -2.6455200973882351e+00 
 -2.7275377130472545e+00  -2.8112364206931999e+00  -2.8966044295696700e+00  -2.9836269564292199e+00 
 -3.0722860537123760e+00  -3.1625604278915436e+00  -3.2544252485484733e+00  -3.3478519492332790e+00 
 -3.4428080217177279e+00  -3.5392568059040221e+00  -3.6371572783793402e+00  -3.7364638645918062e+00 
 -3.8371261540500656e+00  -3.9390888323808184e+00  -4.0422914322250989e+00  -4.1466682085379318e+00 
 -4.2521480293239344e+00  -4.3586543096457655e+00  -4.4661049981802057e+00  -4.5744126259464410e+00 
 -4.6834844266388087e+00  -4.7932225372676562e+00  -4.9035242870186675e+00  -5.0142825804105495e+00 
 -5.1253863785666987e+00  -5.2367212788999726e+00  -5.3481701898768579e+00  -5.4596140924338901e+00 
 -5.5709328340917894e+00  -5.6820061826971422e+00  -5.7927144645060746e+00  -5.9029396450493961e+00 
 -6.0125661121403926e+00  -6.1214813935019512e+00  -6.2295766962357915e+00  -6.3367471973013467e+00 
 -6.4428920081777745e+00  -6.5479137304060027e+00  -6.6517175203074510e+00  -6.7542095800768349e+00 
 -6.8552950023065620e+00  -6.9548749052199712e+00  -7.0528428163608821e+00  -7.1490802887477871e+00 
 -7.2434517666641121e+00  -7.3357987629333001e+00  -7.4259334579316993e+00  -7.5136318908204744e+00 
 -7.5986269769438497e+00  -7.6806016550867087e+00  -7.7591825383934392e+00  -7.8339345112464054e+00 
 -7.9043567751377797e+00  -7.9698808947672646e+00  -8.0298714238744004e+00  -8.0836296908501950e+00 
 -8.1304012912211494e+00  -8.1693877559409227e+00  -8.1997627406931777e+00  -8.2206928969670816e+00 
 -8.2313633505899482e+00  -8.2310074140660827e+00  -8.2189398137999046e+00  -8.1945923223775381e+00 
 -8.1575502752968028e+00  -8.1075880373769831e+00  -8.0447011052938358e+00  -7.9691322192245506e+00 
 -7.8813886575768271e+00  -7.7822478445347478e+00  -7.6727485584059325e+00  -7.5541654294599576e+00 
 -7.4279650916663460e+00  -7.2957433196518426e+00  -7.1591437444762498e+00  -7.0197602650662434e+00 
 -6.8790270115527692e+00  -6.7381015735859533e+00  -6.5977490628089823e+00  -6.4582362676645451e+00 
 -6.3192464871505445e+00  -6.1798263704604501e+00  -6.0383760094305057e+00  -5.8926923878511905e+00 
 -5.7400738964658791e+00  -5.5774898353489606e+00  -5.4018136362700497e+00  -5.2101120890786694e+00 
 -4.9999754919472945e+00  -4.7698659431619816e+00  -4.5194537492837901e+00  -4.2499061305703965e+00 
 -3.9640891426160341e+00  -3.6666440536459755e+00  -3.3639041726678682e+00  -3.0636277887782413e+00 
 -2.7745374278144022e+00  -2.5056744129691246e+00  -2.2655994984593701e+00  -2.0614933457753302e+00 
 -1.8982326537603271e+00  -1.7775363668971711e+00  -1.6972889161206537e+00  -1.6511510938051963e+00 
 -1.6285610624799951e+00  -1.6152051072543736e+00  -1.5940004256420528e+00  5.3008173909558376e-01 
 5.7523329067111506e-01  6.8046147533635182e-01  8.4440006465695594e-01  9.7692319702762720e-01 
 1.0944699547490073e+00  1.2032430741096265e+00  1.2950591610794271e+00  1.3621423350401538e+00 
 1.3966028909159516e+00  1.3916575611316524e+00  1.3427647633162236e+00  1.2486963686262664e+00 
 1.1123582793824351e+00  9.4119190953463694e-01  7.4701464369411841e-01  5.4521619628484119e-01 
 3.5330204670919285e-01  1.8897027193106619e-01  6.7127223957886270e-02  3.9706098788349214e-03 
 -3.9336711480064543e-04  3.8970760542277689e-05  -3.8608213221294686e-06  3.8249077544315015e-07 
 -3.7893305059768519e-08  3.7539397604902134e-09  -3.7197230337032385e-10  3.6548748264283676e-11 
 -2.7379746270837505e-12  -1.1082929116542285e-14  4.2990724153605510e-14  -8.6686855790521905e-14 
 -9.5168278679691171e-14  8.2115660406435205e-15  1.3168633366858821e-13  -4.8528196000998287e-14 
 1.4755561579125800e-13  -1.6497495639940370e-14  4.3851954537489607e-14  1.4222700756495596e-13 
 -2.3272112232211675e-13  2.2322751019802686e-13  -2.0967821645702508e-13  5.0121479810800380e-14 
 -8.4339564047858916e-14  2.6310331010078368e-14  -2.0935573736758541e-14  4.0518537218139256e-14 
 1.2118411877476764e-14  -2.9649721853448322e-14  9.0782584979911828e-14  -5.3107174728737263e-14 
 1.0293131705202281e-13  2.4094821438140445e-10  2.9325376498363027e-10  3.3891724026116079e-10 
 3.7413908695295773e-10  3.9943855509347636e-10  4.1557910566215717e-10  4.2379915983818042e-10 
 4.2489835375172243e-10  4.2018310316401418e-10  4.1067091009344521e-10  3.9708426584099113e-10 
 3.8067703288099834e-10  3.6222806198224010e-10  3.4244319115162686e-10  3.2184667057964726e-10 
 3.0065549411066236e-10  2.7943317576142463e-10  0.0000000000000000e+00  0.0000000000000000e+00 
 0.0000000000000000e+00  0.0000000000000000e+00  0.0000000000000000e+00  0.0000000000000000e+00 
 0.0000000000000000e+00  0.0000000000000000e+00  0.0000000000000000e+00  0.0000000000000000e+00 
 0.0000000000000000e+00  0.0000000000000000e+00  0.0000000000000000e+00  0.0000000000000000e+00 
 0.0000000000000000e+00  0.0000000000000000e+00  0.0000000000000000e+00  0.0000000000000000e+00 
 0.0000000000000000e+00  0.0000000000000000e+00  0.0000000000000000e+00  0.0000000000000000e+00 
 0.0000000000000000e+00  0.0000000000000000e+00  0.0000000000000000e+00  0.0000000000000000e+00 
 0.0000000000000000e+00  0.0000000000000000e+00  0.0000000000000000e+00  0.0000000000000000e+00 
 0.0000000000000000e+00  0.0000000000000000e+00  0.0000000000000000e+00  0.0000000000000000e+00 
 0.0000000000000000e+00  0.0000000000000000e+00  0.0000000000000000e+00  0.0000000000000000e+00 
 0.0000000000000000e+00  0.0000000000000000e+00  0.0000000000000000e+00  0.0000000000000000e+00 
 0.0000000000000000e+00  0.0000000000000000e+00  0.0000000000000000e+00  0.0000000000000000e+00 
 0.0000000000000000e+00  0.0000000000000000e+00  0.0000000000000000e+00  0.0000000000000000e+00 
 0.0000000000000000e+00  0.0000000000000000e+00  0.0000000000000000e+00  0.0000000000000000e+00 
 0.0000000000000000e+00  0.0000000000000000e+00  0.0000000000000000e+00  0.0000000000000000e+00 
 0.0000000000000000e+00  0.0000000000000000e+00  0.0000000000000000e+00  0.0000000000000000e+00 
 0.0000000000000000e+00  0.0000000000000000e+00  0.0000000000000000e+00  0.0000000000000000e+00 
 0.0000000000000000e+00  0.0000000000000000e+00  0.0000000000000000e+00  0.0000000000000000e+00 
 0.0000000000000000e+00  0.0000000000000000e+00  0.0000000000000000e+00  0.0000000000000000e+00 
 0.0000000000000000e+00  0.0000000000000000e+00  0.0000000000000000e+00  0.0000000000000000e+00 
 0.0000000000000000e+00  0.0000000000000000e+00  0.0000000000000000e+00  0.0000000000000000e+00 
 0.0000000000000000e+00  0.0000000000000000e+00  0.0000000000000000e+00  0.0000000000000000e+00 
 0.0000000000000000e+00  0.0000000000000000e+00  0.0000000000000000e+00  0.0000000000000000e+00 
 0.0000000000000000e+00  0.0000000000000000e+00  0.0000000000000000e+00  0.0000000000000000e+00 
 0.0000000000000000e+00  0.0000000000000000e+00  0.0000000000000000e+00  0.0000000000000000e+00 
 0.0000000000000000e+00  0.0000000000000000e+00  0.0000000000000000e+00  0.0000000000000000e+00 
 0.0000000000000000e+00  0.0000000000000000e+00  0.0000000000000000e+00  0.0000000000000000e+00 
 0.0000000000000000e+00  0.0000000000000000e+00  0.0000000000000000e+00  0.0000000000000000e+00 
 0.0000000000000000e+00  0.0000000000000000e+00  0.0000000000000000e+00  0.0000000000000000e+00 
 0.0000000000000000e+00  0.0000000000000000e+00  0.0000000000000000e+00  0.0000000000000000e+00 
 0.0000000000000000e+00  0.0000000000000000e+00  0.0000000000000000e+00  0.0000000000000000e+00 
 0.0000000000000000e+00  0.0000000000000000e+00  0.0000000000000000e+00  0.0000000000000000e+00 
 0.0000000000000000e+00  0.0000000000000000e+00  0.0000000000000000e+00  0.0000000000000000e+00 
 0.0000000000000000e+00  0.0000000000000000e+00  0.0000000000000000e+00  0.0000000000000000e+00 
 0.0000000000000000e+00  0.0000000000000000e+00  0.0000000000000000e+00  0.0000000000000000e+00 
 0.0000000000000000e+00  0.0000000000000000e+00  0.0000000000000000e+00  0.0000000000000000e+00 
 0.0000000000000000e+00  0.0000000000000000e+00  0.0000000000000000e+00  0.0000000000000000e+00 
 0.0000000000000000e+00  0.0000000000000000e+00  0.0000000000000000e+00  0.0000000000000000e+00 
 0.0000000000000000e+00  0.0000000000000000e+00  0.0000000000000000e+00  0.0000000000000000e+00 
 0.0000000000000000e+00  0.0000000000000000e+00  0.0000000000000000e+00  0.0000000000000000e+00 
 0.0000000000000000e+00  0.0000000000000000e+00  0.0000000000000000e+00  0.0000000000000000e+00 
 0.0000000000000000e+00  0.0000000000000000e+00  0.0000000000000000e+00  0.0000000000000000e+00 
 0.0000000000000000e+00  0.0000000000000000e+00  0.0000000000000000e+00  0.0000000000000000e+00 
 0.0000000000000000e+00  0.0000000000000000e+00  0.0000000000000000e+00  0.0000000000000000e+00 
 0.0000000000000000e+00  0.0000000000000000e+00  0.0000000000000000e+00  0.0000000000000000e+00 
 0.0000000000000000e+00  0.0000000000000000e+00  0.0000000000000000e+00  0.0000000000000000e+00 
 0.0000000000000000e+00  0.0000000000000000e+00  0.0000000000000000e+00  0.0000000000000000e+00 
 0.0000000000000000e+00  0.0000000000000000e+00  0.0000000000000000e+00  0.0000000000000000e+00 
 0.0000000000000000e+00  0.0000000000000000e+00  0.0000000000000000e+00  0.0000000000000000e+00 
 0.0000000000000000e+00  0.0000000000000000e+00  0.0000000000000000e+00  0.0000000000000000e+00 
 0.0000000000000000e+00  0.0000000000000000e+00  0.0000000000000000e+00  0.0000000000000000e+00 
 0.0000000000000000e+00  0.0000000000000000e+00  0.0000000000000000e+00  0.0000000000000000e+00 
 0.0000000000000000e+00  0.0000000000000000e+00  0.0000000000000000e+00  0.0000000000000000e+00 
 0.0000000000000000e+00  0.0000000000000000e+00  0.0000000000000000e+00  0.0000000000000000e+00 
 0.0000000000000000e+00  0.0000000000000000e+00  0.0000000000000000e+00  0.0000000000000000e+00 
 0.0000000000000000e+00  0.0000000000000000e+00  0.0000000000000000e+00  0.0000000000000000e+00 
 0.0000000000000000e+00  0.0000000000000000e+00  0.0000000000000000e+00  0.0000000000000000e+00 
 0.0000000000000000e+00  0.0000000000000000e+00  0.0000000000000000e+00  0.0000000000000000e+00 
 0.0000000000000000e+00  0.0000000000000000e+00  0.0000000000000000e+00  0.0000000000000000e+00 
 0.0000000000000000e+00  0.0000000000000000e+00  0.0000000000000000e+00  0.0000000000000000e+00 
 0.0000000000000000e+00  0.0000000000000000e+00  0.0000000000000000e+00  0.0000000000000000e+00 
 0.0000000000000000e+00  0.0000000000000000e+00  0.0000000000000000e+00  0.0000000000000000e+00 
 0.0000000000000000e+00  0.0000000000000000e+00  0.0000000000000000e+00  0.0000000000000000e+00 
 0.0000000000000000e+00  0.0000000000000000e+00  0.0000000000000000e+00  0.0000000000000000e+00 
 0.0000000000000000e+00  0.0000000000000000e+00  0.0000000000000000e+00  0.0000000000000000e+00 
 0.0000000000000000e+00  0.0000000000000000e+00  0.0000000000000000e+00  0.0000000000000000e+00 
 0.0000000000000000e+00  0.0000000000000000e+00  0.0000000000000000e+00  0.0000000000000000e+00 
 0.0000000000000000e+00  0.0000000000000000e+00  0.0000000000000000e+00  0.0000000000000000e+00 
  </PP_BETA>
  <PP_DIJ>
 3   Number of nonzero Dij
 1 1 -4.2750704117511179e-01 
 2 2 -2.6604779116451760e-01 
 3 3 -2.2996918837092023e-01 
  </PP_DIJ>
</PP_NONLOCAL>
<PP_PSWFC>
S    0   2.00          Wavefunction
 5.5236641114511148e-05  5.5959405237040082e-05  5.6691626632250439e-05  5.7433429047301129e-05 
 5.8184937848566132e-05  5.8946280042821887e-05  5.9717584298711565e-05  6.0498980968490624e-05 
 6.1290602110056330e-05  6.2092581509266237e-05  6.2905054702547906e-05  6.3728158999805222e-05 
 6.4562033507623877e-05  6.5406819152780888e-05  6.6262658706061413e-05  6.7129696806387412e-05 
 6.8008079985261961e-05  6.8897956691533476e-05  6.9799477316483851e-05  7.0712794219244960e-05 
 7.1638061752547731e-05  7.2575436288808130e-05  7.3525076246554438e-05  7.4487142117200488e-05 
 7.5461796492168852e-05  7.6449204090369346e-05  7.7449531786037010e-05  7.8462948636934057e-05 
 7.9489625912921059e-05  8.0529737124902120e-05  8.1583458054148520e-05  8.2650966782006098e-05 
 8.3732443719991621e-05  8.4828071640282555e-05  8.5938035706606227e-05  8.7062523505532626e-05 
 8.8201725078177273e-05  8.9355832952318597e-05  9.0525042174935248e-05  9.1709550345169975e-05 
 9.2909557647724087e-05  9.4125266886689192e-05  9.5356883519821472e-05  9.6604615693264816e-05 
 9.7868674276727720e-05  9.9149272899120980e-05  1.0044662798466128e-04  1.0176095878944759e-04 
 1.0309248743851595e-04  1.0444143896337896e-04  1.0580804134005693e-04  1.0719252552760606e-04 
 1.0859512550715137e-04  1.1001607832142976e-04  1.1145562411485109e-04  1.1291400617408301e-04 
 1.1439147096916706e-04  1.1588826819517253e-04  1.1740465081439576e-04  1.1894087509911115e-04 
 1.2049720067488201e-04  1.2207389056443775e-04  1.2367121123212543e-04  1.2528943262894273e-04 
 1.2692882823816062e-04  1.2858967512154225e-04  1.3027225396616739e-04  1.3197684913186930e-04 
 1.3370374869929174e-04  1.3545324451857583e-04  1.3722563225868314e-04  1.3902121145736450e-04 
 1.4084028557178243e-04  1.4268316202979667e-04  1.4455015228191954e-04  1.4644157185395230e-04 
 1.4835774040030970e-04  1.5029898175804199e-04  1.5226562400156470e-04  1.5425799949810360e-04 
 1.5627644496386581e-04  1.5832130152094534e-04  1.6039291475497398e-04  1.6249163477352564e-04 
 1.6461781626528585e-04  1.6677181855999457e-04  1.6895400568917404e-04  1.7116474644765094e-04 
 1.7340441445588348e-04  1.7567338822310440e-04  1.7797205121128961e-04  1.8030079189996468e-04 
 1.8266000385185811e-04  1.8505008577941515e-04  1.8747144161218072e-04  1.8992448056506447e-04 
 1.9240961720749940e-04  1.9492727153350460e-04  1.9747786903266581e-04  2.0006184076204372e-04 
 2.0267962341902410e-04  2.0533165941512028e-04  2.0801839695074200e-04  2.1074029009094251e-04 
 2.1349779884215632e-04  2.1629138922994175e-04  2.1912153337774000e-04  2.2198870958666571e-04 
 2.2489340241634018e-04  2.2783610276678407e-04  2.3081730796138030e-04  2.3383752183092247e-04 
 2.3689725479876422e-04  2.3999702396708153e-04  2.4313735320426473e-04  2.4631877323345283e-04 
 2.4954182172222768e-04  2.5280704337348077e-04  2.5611499001746964e-04  2.5946622070507810e-04 
 2.6286130180229743e-04  2.6630080708594411e-04  2.6978531784062852e-04  2.7331542295699418e-04 
 2.7689171903124191e-04  2.8051481046595519e-04  2.8418530957224615e-04  2.8790383667323834e-04 
 2.9167102020890152e-04  2.9548749684226089e-04  2.9935391156699380e-04  3.0327091781643544e-04 
 3.0723917757401133e-04  3.1125936148511315e-04  3.1533214897044062e-04  3.1945822834082412e-04 
 3.2363829691355180e-04  3.2787306113021765e-04  3.3216323667611193e-04  3.3650954860117368e-04 
 3.4091273144252598e-04  3.4537352934861491e-04  3.4989269620497153e-04  3.5447099576162237e-04 
 3.5910920176216246e-04  3.6380809807452265e-04  3.6856847882344281e-04  3.7339114852468305e-04 
 3.7827692222098738e-04  3.8322662561982924e-04  3.8824109523295661e-04  3.9332117851776640e-04 
 3.9846773402052552e-04  4.0368163152146818e-04  4.0896375218179079e-04  4.1431498869257057e-04 
 4.1973624542563140e-04  4.2522843858638741e-04  4.3079249636868237e-04  4.3642935911165649e-04 
 4.4213997945866812e-04  4.4792532251829040e-04  4.5378636602741955e-04  4.5972410051651292e-04 
 4.6573952947699318e-04  4.7183366953083903e-04  4.7800755060239849e-04  4.8426221609244803e-04 
 4.9059872305453082e-04  4.9701814237360076e-04  5.0352155894700440e-04  5.1011007186783377e-04 
 5.1678479461067376e-04  5.2354685521978329e-04  5.3039739649973717e-04  5.3733757620856430e-04 
 5.4436856725341085e-04  5.5149155788876544e-04  5.5870775191727733e-04  5.6601836889320120e-04 
 5.7342464432850646e-04  5.8092782990168239e-04  5.8852919366927437e-04  5.9623002028018812e-04 
 6.0403161119280187e-04  6.1193528489491362e-04  6.1994237712657016e-04  6.2805424110581182e-04 
 6.3627224775736823e-04  6.4459778594435073e-04  6.5303226270297201e-04  6.6157710348034192e-04 
 6.7023375237536818e-04  6.7900367238281725e-04  6.8788834564056326e-04  6.9688927368007254e-04 
 7.0600797768016798e-04  7.1524599872411219e-04  7.2460489806005536e-04  7.3408625736489221e-04 
 7.4369167901156680e-04  7.5342278633988113e-04  7.6328122393084412e-04  7.7326865788460977e-04 
 7.8338677610205443e-04  7.9363728857003563e-04  8.0402192765038558e-04  8.1454244837268818e-04 
 8.2520062873088138e-04  8.3599826998374479e-04  8.4693719695931764e-04  8.5801925836330201e-04 
 8.6924632709149924e-04  8.8062030054633427e-04  8.9214310095752530e-04  9.0381667570694319e-04 
 9.1564299765773001e-04  9.2762406548771523e-04  9.3976190402720249e-04  9.5205856460116951e-04 
 9.6451612537595171e-04  9.7713669171045755e-04  9.8992239651198217e-04  1.0028754005966785e-03 
 1.0159978930547361e-03  1.0292920916203537e-03  1.0427602430465373e-03  1.0564046234848147e-03 
 1.0702275388699083e-03  1.0842313253094506e-03  1.0984183494787941e-03  1.1127910090209863e-03 
 1.1273517329519847e-03  1.1421029820711625e-03  1.1570472493772021e-03  1.1721870604894141e-03 
 1.1875249740745826e-03  1.2030635822793843e-03  1.2188055111684772e-03  1.2347534211683115e-03 
 1.2509100075167572e-03  1.2672780007186074e-03  1.2838601670070431e-03  1.3006593088111436e-03 
 1.3176782652295064e-03  1.3349199125100659e-03  1.3523871645361933e-03  1.3700829733191548e-03 
 1.3880103294970178e-03  1.4061722628400794e-03  1.4245718427629117e-03  1.4432121788431063e-03 
 1.4620964213468116e-03  1.4812277617611393e-03  1.5006094333335437e-03  1.5202447116182509e-03 
 1.5401369150298526e-03  1.5602894054041261e-03  1.5807055885662094e-03  1.6013889149061977e-03 
 1.6223428799622792e-03  1.6435710250115006e-03  1.6650769376682635e-03  1.6868642524906464e-03 
 1.7089366515946679e-03  1.7312978652765877e-03  1.7539516726433437e-03  1.7769019022512457e-03 
 1.8001524327530250e-03  1.8237071935533458e-03  1.8475701654729029e-03  1.8717453814212056e-03 
 1.8962369270781618e-03  1.9210489415845842e-03  1.9461856182417343e-03  1.9716512052200185e-03 
 1.9974500062769555e-03  2.0235863814845427e-03  2.0500647479661373e-03  2.0768895806429796e-03 
 2.1040654129904955e-03  2.1315968378044781e-03  2.1594885079773076e-03  2.1877451372843259e-03 
 2.2163715011805033e-03  2.2453724376075264e-03  2.2747528478114466e-03  2.3045176971710360e-03 
 2.3346720160369715e-03  2.3652209005820156e-03  2.3961695136623076e-03  2.4275230856899300e-03 
 2.4592869155169034e-03  2.4914663713307334e-03  2.5240668915616892e-03  2.5570939858019482e-03 
 2.5905532357367697e-03  2.6244502960878599e-03  2.6587908955690732e-03  2.6935808378546243e-03 
 2.7288260025599685e-03  2.7645323462355291e-03  2.8007059033734066e-03  2.8373527874272879e-03 
 2.8744791918456814e-03  2.9120913911186842e-03  2.9501957418384497e-03  2.9887986837735248e-03 
 3.0279067409572529e-03  3.0675265227904157e-03  3.1076647251583171e-03  3.1483281315624560e-03 
 3.1895236142670566e-03  3.2312581354605571e-03  3.2735387484323247e-03  3.3163725987647628e-03 
 3.3597669255410194e-03  3.4037290625685041e-03  3.4482664396184100e-03  3.4933865836814658e-03 
 3.5390971202401192e-03  3.5854057745573621e-03  3.6323203729824423e-03  3.6798488442736448e-03 
 3.7279992209383905e-03  3.7767796405908730e-03  3.8261983473274791e-03  3.8762636931201750e-03 
 3.9269841392281755e-03  3.9783682576280382e-03  4.0304247324625207e-03  4.0831623615083740e-03 
 4.1365900576633566e-03  4.1907168504526932e-03  4.2455518875552873e-03  4.3011044363498625e-03 
 4.3573838854813864e-03  4.4143997464479619e-03  4.4721616552085052e-03  4.5306793738114602e-03 
 4.5899627920448424e-03  4.6500219291078643e-03  4.7108669353044530e-03  4.7725080937589225e-03 
 4.8349558221541184e-03  4.8982206744922997e-03  4.9623133428790839e-03  5.0272446593307213e-03 
 5.0930255976050533e-03  5.1596672750564253e-03  5.2271809545148696e-03  5.2955780461899056e-03 
 5.3648701095992514e-03  5.4350688555227849e-03  5.5061861479820838e-03  5.5782340062458854e-03 
 5.6512246068617733e-03  5.7251702857145101e-03  5.8000835401112736e-03  5.8759770308942022e-03 
 5.9528635845806123e-03  6.0307561955312084e-03  6.1096680281467102e-03  6.1896124190932130e-03 
 6.2706028795567028e-03  6.3526530975270530e-03  6.4357769401119881e-03  6.5199884558812902e-03 
 6.6053018772417012e-03  6.6917316228429571e-03  6.7792923000152949e-03  6.8679987072388848e-03 
 6.9578658366455963e-03  7.0489088765535333e-03  7.1411432140347179e-03  7.2345844375164871e-03 
 7.3292483394168401e-03  7.4251509188143884e-03  7.5223083841532215e-03  7.6207371559832184e-03 
 7.7204538697362166e-03  7.8214753785385959e-03  7.9238187560606525e-03  8.0275012994032637e-03 
 8.1325405320224770e-03  8.2389542066922498e-03  8.3467603085061390e-03  8.4559770579181910e-03 
 8.5666229138237644e-03  8.6787165766806229e-03  8.7922769916709761e-03  8.9073233519049218e-03 
 9.0238751016658170e-03  9.1419519396982660e-03  9.2615738225390720e-03  9.3827609678918938e-03 
 9.5055338580461116e-03  9.6299132433404714e-03  9.7559201456721457e-03  9.8835758620517290e-03 
 1.0012901968204865e-02  1.0143920322221028e-02  1.0276653068250171e-02  1.0411122640247811e-02 
 1.0547351765769125e-02  1.0685363469812897e-02  1.0825181078715745e-02  1.0966828224097462e-02 
 1.1110328846858034e-02  1.1255707201227070e-02  1.1402987858866329e-02  1.1552195713026028e-02 
 1.1703355982755636e-02  1.1856494217169901e-02  1.2011636299770784e-02  1.2168808452826103e-02 
 1.2328037241805584e-02  1.2489349579875091e-02  1.2652772732449805e-02  1.2818334321807113e-02 
 1.2986062331760062e-02  1.3155985112392026e-02  1.3328131384853583e-02  1.3502530246222272e-02 
 1.3679211174426128e-02  1.3858204033231866e-02  1.4039539077298437e-02  1.4223246957297037e-02 
 1.4409358725098144e-02  1.4597905839026861e-02  1.4788920169187049e-02  1.4982434002855483e-02 
 1.5178480049946782e-02  1.5377091448550123e-02  1.5578301770538646e-02  1.5782145027252573e-02 
 1.5988655675256893e-02  1.6197868622174774e-02  1.6409819232597565e-02  1.6624543334072504e-02 
 1.6842077223169018e-02  1.7062457671624801e-02  1.7285721932572738e-02  1.7511907746849548e-02 
 1.7741053349387501e-02  1.7973197475690136e-02  1.8208379368393032e-02  1.8446638783911090e-02 
 1.8688015999173104e-02  1.8932551818444891e-02  1.9180287580242365e-02  1.9431265164335489e-02 
 1.9685526998844391e-02  1.9943116067428976e-02  2.0204075916573153e-02  2.0468450662964970e-02 
 2.0736285000974082e-02  2.1007624210227529e-02  2.1282514163285519e-02  2.1561001333418255e-02 
 2.1843132802485305e-02  2.2128956268918896e-02  2.2418520055812421e-02  2.2711873119115711e-02 
 2.3009065055938277e-02  2.3310146112962359e-02  2.3615167194966823e-02  2.3924179873463632e-02 
 2.4237236395448451e-02  2.4554389692266740e-02  2.4875693388597072e-02  2.5201201811553078e-02 
 2.5530969999905916e-02  2.5865053713428357e-02  2.6203509442362886e-02  2.6546394417014754e-02 
 2.6893766617472194e-02  2.7245684783455248e-02  2.7602208424295057e-02  2.7963397829045420e-02 
 2.8329314076728281e-02  2.8700019046715257e-02  2.9075575429246523e-02  2.9456046736089671e-02 
 2.9841497311339824e-02  3.0231992342363265e-02  3.0627597870886356e-02  3.1028380804232036e-02 
 3.1434408926705591e-02  3.1845750911131947e-02  3.2262476330546623e-02  3.2684655670042105e-02 
 3.3112360338772497e-02  3.3545662682117831e-02  3.3984635994010776e-02  3.4429354529427851e-02 
 3.4879893517047546e-02  3.5336329172077352e-02  3.5798738709252501e-02  3.6267200356008590e-02 
 3.6741793365830312e-02  3.7222598031779429e-02  3.7709695700203757e-02  3.8203168784630252e-02 
 3.8703100779844471e-02  3.9209576276159397e-02  3.9722680973875962e-02  4.0242501697938263e-02 
 4.0769126412786204e-02  4.1302644237408141e-02  4.1843145460597031e-02  4.2390721556412249e-02 
 4.2945465199850610e-02  4.3507470282729339e-02  4.4076831929784323e-02  4.4653646514986531e-02 
 4.5238011678079899e-02  4.5830026341344109e-02  4.6429790726585131e-02  4.7037406372357676e-02 
 4.7652976151422007e-02  4.8276604288439370e-02  4.8908396377909440e-02  4.9548459402353189e-02 
 5.0196901750745065e-02  5.0853833237198463e-02  5.1519365119907734e-02  5.2193610120351258e-02 
 5.2876682442759462e-02  5.3568697793851650e-02  5.4269773402845833e-02  5.4980028041746107e-02 
 5.5699582045911647e-02  5.6428557334911748e-02  5.7167077433671776e-02  5.7915267493913958e-02 
 5.8673254315898551e-02  5.9441166370469638e-02  6.0219133821410573e-02  6.1007288548114380e-02 
 6.1805764168573793e-02  6.2614696062696693e-02  6.3434221395951756e-02  6.4264479143350497e-02 
 6.5105610113770584e-02  6.5957756974626539e-02  6.6821064276894160e-02  6.7695678480493682e-02 
 6.8581747980038563e-02  6.9479423130956036e-02  7.0388856275985970e-02  7.1310201772064249e-02 
 7.2243616017597975e-02  7.3189257480139228e-02  7.4147286724464079e-02  7.5117866441065079e-02 
 7.6101161475063642e-02  7.7097338855550646e-02  7.8106567825362877e-02  7.9129019871303344e-02 
 8.0164868754813559e-02  8.1214290543106735e-02  8.2277463640769863e-02  8.3354568821843708e-02 
 8.4445789262390797e-02  8.5551310573558706e-02  8.6671320835150500e-02  8.7806010629710135e-02 
 8.8955573077134323e-02  9.0120203869820087e-02  9.1300101308359471e-02  9.2495466337791141e-02 
 9.3706502584420759e-02  9.4933416393221434e-02  9.6176416865825273e-02  9.7435715899117772e-02 
 9.8711528224448328e-02  1.0000407144746783e-01  1.0131356608860674e-01  1.0264023562420647e-01 
 1.0398430652831703e-01  1.0534600831517420e-01  1.0672557358237074e-01  1.0812323805473449e-01 
 1.0953924062892774e-01  1.1097382341878283e-01  1.1242723180138754e-01  1.1389971446393597e-01 
 1.1539152345135879e-01  1.1690291421474876e-01  1.1843414566059546e-01  1.1998548020084625e-01 
 1.2155718380380617e-01  1.2314952604589423e-01  1.2476278016426927e-01  1.2639722311034221e-01 
 1.2805313560418741e-01  1.2973080218986935e-01  1.3143051129169794e-01  1.3315255527142589e-01 
 1.3489723048640195e-01  1.3666483734869259e-01  1.3845568038518224e-01  1.4027006829866534e-01 
 1.4210831402993798e-01  1.4397073482089809e-01  1.4585765227866190e-01  1.4776939244070128e-01 
 1.4970628584100515e-01  1.5166866757726857e-01  1.5365687737910522e-01  1.5567125967728299e-01 
 1.5771216367397353e-01  1.5977994341400795e-01  1.6187495785712305e-01  1.6399757095118242e-01 
 1.6614815170634817e-01  1.6832707427017735e-01  1.7053471800360911e-01  1.7277146755780409e-01 
 1.7503771295179082e-01  1.7733384965086257e-01  1.7966027864566919e-01  1.8201740653192691e-01 
 1.8440564559067033e-01  1.8682541386895463e-01  1.8927713526090587e-01  1.9176123958900343e-01 
 1.9427816268546816e-01  1.9682834647361078e-01  1.9941223904898289e-01  2.0203029476015216e-01 
 2.0468297428890822e-01  2.0737074472968214e-01  2.1009407966794319e-01  2.1285345925731119e-01 
 2.1564937029509998e-01  2.1848230629597953e-01  2.2135276756341449e-01  2.2426126125850621e-01 
 2.2720830146584034e-01  2.3019440925589085e-01  2.3322011274351168e-01  2.3628594714199821e-01 
 2.3939245481216159e-01  2.4254018530581492e-01  2.4572969540302492e-01  2.4896154914243396e-01 
 2.5223631784390460e-01  2.5555458012268689e-01  2.5891692189425436e-01  2.6232393636889129e-01 
 2.6577622403506079e-01  2.6927439263051300e-01  2.7281905710003479e-01  2.7641083953867113e-01 
 2.8005036911918457e-01  2.8373828200244178e-01  2.8747522122936203e-01  2.9126183659296806e-01 
 2.9509878448902921e-01  2.9898672774370405e-01  3.0292633541652170e-01  3.0691828257697107e-01 
 3.1096325005290060e-01  3.1506192414886308e-01  3.1921499633248263e-01  3.2342316288685696e-01 
 3.2768712452695964e-01  3.3200758597796048e-01  3.3638525551333426e-01  3.4082084445060984e-01 
 3.4531506660256833e-01  3.4986863768170895e-01  3.5448227465577642e-01  3.5915669505216652e-01 
 3.6389261620905256e-01  3.6869075447109190e-01  3.7355182432764922e-01  3.7847653749152038e-01 
 3.8346560191623363e-01  3.8851972075009877e-01  3.9363959122529263e-01  3.9882590348039965e-01 
 4.0407933931496903e-01  4.0940057087480897e-01  4.1479025926691504e-01  4.2024905310309502e-01 
 4.2577758697155033e-01  4.3137647983584904e-01  4.3704633336091286e-01  4.4278773016580558e-01 
 4.4860123200326812e-01  4.5448737786606219e-01  4.6044668202029398e-01  4.6647963196590386e-01 
 4.7258668632451561e-01  4.7876827265473426e-01  4.8502478519480419e-01  4.9135658253225745e-01 
 4.9776398519976273e-01  5.0424727319585094e-01  5.1080668342846780e-01  5.1744240707841893e-01 
 5.2415458687868466e-01  5.3094331430426800e-01  5.3780862666569751e-01  5.4475050409751513e-01 
 5.5176886643101752e-01  5.5886356993819819e-01  5.6603440393123705e-01  5.7328108719901694e-01 
 5.8060326425903852e-01  5.8800050139972726e-01  5.9547228248461359e-01  6.0301800448613685e-01 
 6.1063697271307227e-01  6.1832839569176989e-01  6.2609137965773076e-01  6.3392492261055355e-01 
 6.4182790788218769e-01  6.4979909716583828e-01  6.5783712295098318e-01  6.6594048030901964e-01 
 6.7410751797423807e-01  6.8233642866642397e-01  6.9062523860463476e-01  6.9897179616687921e-01 
 7.0737375965781457e-01  7.1582858415641437e-01  7.2433350742812819e-01  7.3288553490149411e-01 
 7.4148142372772941e-01  7.5011766596352447e-01  7.5879047094212837e-01  7.6749574692576261e-01 
 7.7622908216314890e-01  7.8498572550911061e-01  7.9376056679823215e-01  8.0254811720064356e-01 
 8.1134248982414980e-01  8.2013738086191190e-01  8.2892605161725275e-01  8.3770131176520801e-01 
 8.4645550423225546e-01  8.5518049208918567e-01  8.6386764785509507e-01  8.7250784560072436e-01 
 8.8109145621471985e-01  8.8960834615466378e-01  8.9804787994444857e-01  9.0639892659930377e-01 
 9.1464987005921927e-01  9.2278862359093683e-01  9.3080264797970769e-01  9.3867897317750171e-01 
 9.4640422290878490e-01  9.5396464156454763e-01  9.6134612254798169e-01  9.6853423708098552e-01 
 9.7551426235120930e-01  9.8227120778784305e-01  9.8878983821523514e-01  9.9505469266158286e-01 
 1.0010500977100936e+00  1.0067601744854435e+00  1.0121688386798426e+00  1.0172597934471002e+00 
 1.0220165155307284e+00  1.0264222356366102e+00  1.0304599147963678e+00  1.0341122192677477e+00 
 1.0373614973448084e+00  1.0401897622526157e+00  1.0425786860157293e+00  1.0445096097432396e+00 
 1.0459635760837729e+00  1.0469213895861635e+00  1.0473637102718858e+00  1.0472711848102101e+00 
 1.0466246182317394e+00  1.0454051870953625e+00  1.0435946924532797e+00  1.0411758479057294e+00 
 1.0381325946294524e+00  1.0344504316975609e+00  1.0301167465487093e+00  1.0251211274407896e+00 
 1.0194556375220853e+00  1.0131150291843107e+00  1.0060968780381934e+00  9.9840161853802334e-01 
 9.9003246824233226e-01  9.8099523504059682e-01  9.7129801128714766e-01  9.6095077027348308e-01 
 9.4996489312960597e-01  9.3835266702613207e-01  9.2612680708153161e-01  9.1330006303134914e-01 
 8.9988497570994364e-01  8.8589384597659349e-01  8.7133896838426217e-01  8.5623316265971416e-01 
 8.4059060776754457e-01  8.2442794688684728e-01  8.0776558926447573e-01  7.9062909026827355e-01 
 7.7305044905374420e-01  7.5506913017362576e-01  7.3673259786226875e-01  7.1809615606005484e-01 
 6.9922191873179984e-01  6.8017679653763785e-01  6.6102947679042368e-01  6.4184648878098427e-01 
 6.2268757589380352e-01  6.0360072455079028e-01  5.8461730914909116e-01  5.6575315267783544e-01 
 5.4702940403654943e-01  5.2846968623247270e-01  5.1009671622520147e-01  4.9193225944749791e-01 
 4.7399708662919121e-01  4.5631093323717525e-01  4.3889246189486064e-01  4.2175922818751937e-01 
 4.0492765029115940e-01  3.8841298287711817e-01  3.7222929573763880e-01  3.5638945756657586e-01 
 3.4090512524349315e-01  3.2578673893438664e-01  3.1104352321264284e-01  2.9668349429883445e-01 
 2.8271347340027020e-01  2.6913910600815388e-01  2.5596488688827884e-01  2.4319419038623505e-01 
 2.3082930556549169e-01  2.1887147561096212e-01  2.0732094086542466e-01  1.9617698482392845e-01 
 1.8543798239344284e-01  1.7510144973147329e-01  1.6516409500702664e-01  1.5562186947841364e-01 
 1.4647001835129997e-01  1.3770313096288961e-01  1.2931518992967447e-01  1.2129961899143724e-01 
 1.1364932937790403e-01  1.0635676461166052e-01  9.9413943737351670e-02  9.2812503029441287e-02 
 8.6543736276739530e-02  8.0598633770629854e-02  7.4967920135840679e-02  6.9642091139161227e-02 
 6.4611449595268308e-02  5.9866140462814757e-02  5.5396185191199682e-02  5.1191515342569549e-02 
 4.7242005477618164e-02  4.3537505260071351e-02  4.0067870705431767e-02  3.6822994475983237e-02 
 3.3792835106976525e-02  3.0967445038571070e-02  2.8336997324288588e-02  2.5891810888881928e-02 
 2.3622374215877876e-02  2.1519367356722541e-02  1.9573682168475288e-02  1.7776440704424239e-02 
 1.6119011700978327e-02  1.4593025123935689e-02  1.3190384757068501e-02  1.1903278835341114e-02 
 1.0724188743548474e-02  9.6458958183817198e-03  8.6614863076509979e-03  7.7643545544536811e-03 
 6.9482044863716447e-03  6.2070495002695819e-03  5.5352108419514153e-03  4.9273145868513101e-03 
 4.3782873331558387e-03  3.8833507223606034e-03  3.4380149043595860e-03  3.0380710648604437e-03 
 2.6795831323325066e-03  2.3588787799485368e-03  2.0725398352008065e-03  1.8173922061800311e-03 
 1.5904954290245274e-03  1.3891319358957190e-03  1.2107961371302135e-03  1.0531834050689301e-03 
 9.1417904057572962e-04  7.9184729653142087e-04  6.8442052571743869e-04  5.9028851357369324e-04 
 5.0798804940700411e-04  4.3619278281280309e-04  3.7370340541871896e-04  3.1943819162201872e-04 
 2.7242392582400919e-04  2.3178723780614073e-04  1.9674636238023463e-04  1.6660333430714921e-04 
 1.4073662473573781e-04  1.1859422108177480e-04  9.9687148353144164e-05  8.3583426435605200e-05 
 6.9902454780142482e-05  5.8309813270652991e-05  4.8512465787564686e-05  4.0254351103153405e-05 
 3.3312344228817585e-05  2.7492570161665043e-05  2.2627051123579652e-05  1.8570667825589479e-05 
 1.5198414995171663e-05  1.2402931350772704e-05  1.0092284364944136e-05  8.1879905003816790e-06 
 6.6232521045948768e-06  5.3413927834113666e-06  4.2944738166990614e-06  3.4420750086518194e-06 
 2.7502242584335412e-06  2.1904610753683882e-06  1.7390202285057372e-06  1.3761226974800105e-06 
 1.0853620662417100e-06  8.5317546146108870e-07  6.6838907304339444e-07  5.2182919685015898e-07 
 4.0599060266371846e-07  3.1475484847925489e-07  2.4315193159666152e-07  1.8715938523224694e-07 
 1.4353359513632906e-07  1.0966872364195067e-07  8.3479189191104887e-08  6.3302158912952119e-08 
 4.7816972073346431e-08  3.5978825448184635e-08  2.6964420514884909e-08  2.0127599673011575e-08 
 1.4963287517914026e-08  1.1078306596752947e-08  8.1678583036355418e-09  5.9966520251394223e-09 
 4.3838261006547223e-09  3.1909582881029977e-09  2.3125715010097618e-09  1.6686504439955985e-09 
 1.1987706452669550e-09  8.5751427132826684e-10  6.1090820860682240e-10  4.3367073941308501e-10 
 3.0709528236590821e-10  0.0000000000000000e+00  0.0000000000000000e+00  0.0000000000000000e+00 
 0.0000000000000000e+00  0.0000000000000000e+00  0.0000000000000000e+00  0.0000000000000000e+00 
 0.0000000000000000e+00  0.0000000000000000e+00  0.0000000000000000e+00  0.0000000000000000e+00 
 0.0000000000000000e+00  0.0000000000000000e+00  0.0000000000000000e+00  0.0000000000000000e+00 
 0.0000000000000000e+00  0.0000000000000000e+00  0.0000000000000000e+00  0.0000000000000000e+00 
 0.0000000000000000e+00  0.0000000000000000e+00  0.0000000000000000e+00  0.0000000000000000e+00 
 0.0000000000000000e+00  0.0000000000000000e+00  0.0000000000000000e+00  0.0000000000000000e+00 
 0.0000000000000000e+00  0.0000000000000000e+00  0.0000000000000000e+00  0.0000000000000000e+00 
 0.0000000000000000e+00  0.0000000000000000e+00  0.0000000000000000e+00  0.0000000000000000e+00 
 0.0000000000000000e+00  0.0000000000000000e+00  0.0000000000000000e+00  0.0000000000000000e+00 
 0.0000000000000000e+00  0.0000000000000000e+00  0.0000000000000000e+00  0.0000000000000000e+00 
 0.0000000000000000e+00  0.0000000000000000e+00  0.0000000000000000e+00  0.0000000000000000e+00 
 0.0000000000000000e+00  0.0000000000000000e+00  0.0000000000000000e+00  0.0000000000000000e+00 
 0.0000000000000000e+00  0.0000000000000000e+00  0.0000000000000000e+00  0.0000000000000000e+00 
 0.0000000000000000e+00  0.0000000000000000e+00  0.0000000000000000e+00  0.0000000000000000e+00 
 0.0000000000000000e+00  0.0000000000000000e+00  0.0000000000000000e+00  0.0000000000000000e+00 
 0.0000000000000000e+00  0.0000000000000000e+00  0.0000000000000000e+00  0.0000000000000000e+00 
 0.0000000000000000e+00  0.0000000000000000e+00  0.0000000000000000e+00  0.0000000000000000e+00 
 0.0000000000000000e+00  0.0000000000000000e+00  0.0000000000000000e+00  0.0000000000000000e+00 
 0.0000000000000000e+00  0.0000000000000000e+00  0.0000000000000000e+00  0.0000000000000000e+00 
 0.0000000000000000e+00  0.0000000000000000e+00  0.0000000000000000e+00  0.0000000000000000e+00 
 0.0000000000000000e+00  0.0000000000000000e+00  0.0000000000000000e+00  0.0000000000000000e+00 
 0.0000000000000000e+00  0.0000000000000000e+00  0.0000000000000000e+00  0.0000000000000000e+00 
 0.0000000000000000e+00  0.0000000000000000e+00  0.0000000000000000e+00  0.0000000000000000e+00 
 0.0000000000000000e+00  0.0000000000000000e+00  0.0000000000000000e+00  0.0000000000000000e+00 
 0.0000000000000000e+00  0.0000000000000000e+00  0.0000000000000000e+00  0.0000000000000000e+00 
 0.0000000000000000e+00  0.0000000000000000e+00  0.0000000000000000e+00  0.0000000000000000e+00 
 0.0000000000000000e+00  0.0000000000000000e+00  0.0000000000000000e+00  0.0000000000000000e+00 
 0.0000000000000000e+00  0.0000000000000000e+00  0.0000000000000000e+00  0.0000000000000000e+00 
 0.0000000000000000e+00  0.0000000000000000e+00  0.0000000000000000e+00  0.0000000000000000e+00 
 0.0000000000000000e+00  0.0000000000000000e+00  0.0000000000000000e+00  0.0000000000000000e+00 
 0.0000000000000000e+00  0.0000000000000000e+00  0.0000000000000000e+00  0.0000000000000000e+00 
 0.0000000000000000e+00  0.0000000000000000e+00  0.0000000000000000e+00  0.0000000000000000e+00 
 0.0000000000000000e+00  0.0000000000000000e+00  0.0000000000000000e+00  0.0000000000000000e+00 
 0.0000000000000000e+00  0.0000000000000000e+00  0.0000000000000000e+00  0.0000000000000000e+00 
 0.0000000000000000e+00  0.0000000000000000e+00  0.0000000000000000e+00  0.0000000000000000e+00 
 0.0000000000000000e+00  0.0000000000000000e+00  0.0000000000000000e+00  0.0000000000000000e+00 
 0.0000000000000000e+00  0.0000000000000000e+00  0.0000000000000000e+00  0.0000000000000000e+00 
 0.0000000000000000e+00  0.0000000000000000e+00  0.0000000000000000e+00  0.0000000000000000e+00 
 0.0000000000000000e+00  0.0000000000000000e+00  0.0000000000000000e+00  0.0000000000000000e+00 
 0.0000000000000000e+00  0.0000000000000000e+00  0.0000000000000000e+00  0.0000000000000000e+00 
 0.0000000000000000e+00  0.0000000000000000e+00  0.0000000000000000e+00  0.0000000000000000e+00 
 0.0000000000000000e+00  0.0000000000000000e+00  0.0000000000000000e+00  0.0000000000000000e+00 
 0.0000000000000000e+00  0.0000000000000000e+00  0.0000000000000000e+00  0.0000000000000000e+00 
 0.0000000000000000e+00  0.0000000000000000e+00  0.0000000000000000e+00  0.0000000000000000e+00 
 0.0000000000000000e+00  0.0000000000000000e+00  0.0000000000000000e+00  0.0000000000000000e+00 
 0.0000000000000000e+00  0.0000000000000000e+00  0.0000000000000000e+00  0.0000000000000000e+00 
 0.0000000000000000e+00  0.0000000000000000e+00  0.0000000000000000e+00  0.0000000000000000e+00 
P    1   6.00          Wavefunction
 4.6386386139968836e-09  4.7608247545077232e-09  4.8862293938388612e-09  5.0149373103012892e-09 
 5.1470355153470991e-09  5.2826133123925181e-09  5.4217623571904214e-09  5.5645767197931231e-09 
 5.7111529481472873e-09  5.8615901333640329e-09  6.0159899767082847e-09  6.1744568583526999e-09 
 6.3370979079426401e-09  6.5040230770198826e-09  6.6753452133540529e-09  6.8511801372319982e-09 
 7.0316467197567230e-09  7.2168669632087641e-09  7.4069660835243800e-09  7.6020725949462846e-09 
 7.8023183969041673e-09  8.0078388631837092e-09  8.2187729334444452e-09  8.4352632071482271e-09 
 8.6574560399619019e-09  8.8855016426992825e-09  9.1195541828694039e-09  9.3597718888996126e-09 
 9.6063171571039937e-09  9.8593566614694443e-09  1.0119061466333664e-08  1.0385607142031115e-08 
 1.0659173883585258e-08  1.0939946632527240e-08  1.1228115201923407e-08  1.1523874404696132e-08 
 1.1827424185324790e-08  1.2138969755015805e-08  1.2458721730433214e-08  1.2786896276083572e-08 
 1.3123715250451361e-08  1.3469406355983738e-08  1.3824203293026062e-08  1.4188345917812243e-08 
 1.4562080404616578e-08  1.4945659412177029e-08  1.5339342254502043e-08  1.5743395076176708e-08 
 1.6158091032286617e-08  1.6583710473081058e-08  1.7020541133500476e-08  1.7468878327696129e-08 
 1.7929025148673790e-08  1.8401292673196072e-08  1.8886000172082120e-08  1.9383475326046826e-08 
 1.9894054447225462e-08  2.0418082706533403e-08  2.0955914367014818e-08  2.1507913023337897e-08 
 2.2074451847598687e-08  2.2655913841599565e-08  2.3252692095773047e-08  2.3865190054925716e-08 
 2.4493821790982398e-08  2.5139012282914326e-08  2.5801197704041177e-08  2.6480825716900699e-08 
 2.7178355775885615e-08  2.7894259437852210e-08  2.8629020680910653e-08  2.9383136231612503e-08 
 3.0157115900756803e-08  3.0951482928041390e-08  3.1766774335792855e-08  3.2603541292013928e-08 
 3.3462349482994023e-08  3.4343779495734455e-08  3.5248427210447453e-08  3.6176904203393551e-08 
 3.7129838160330522e-08  3.8107873300852473e-08  3.9111670813906998e-08  4.0141909304783594e-08 
 4.1199285253876823e-08  4.2284513487533303e-08  4.3398327661301258e-08  4.4541480755909701e-08 
 4.5714745586311618e-08  4.6918915324136322e-08  4.8154804033903262e-08  4.9423247223360717e-08 
 5.0725102408320264e-08  5.2061249692370179e-08  5.3432592361858624e-08  5.4840057496549204e-08 
 5.6284596596362230e-08  5.7767186224624214e-08  5.9288828668261919e-08  6.0850552615385817e-08 
 6.2453413850722463e-08  6.4098495969364415e-08  6.5786911109321646e-08  6.7519800703368802e-08 
 6.9298336250696557e-08  7.1123720108889525e-08  7.2997186306765054e-08  7.4920001378623438e-08 
 7.6893465220472411e-08  7.8918911968806402e-08  8.0997710902532467e-08  8.3131267368654541e-08 
 8.5321023732341170e-08  8.7568460352017954e-08  8.9875096580146332e-08  9.2242491790362162e-08 
 9.4672246431671410e-08  9.7166003110413467e-08  9.9725447700725100e-08  1.0235231048425406e-07 
 1.0504836731989483e-07  1.0781544084433574e-07  1.1065540170422959e-07  1.1357016982082094e-07 
 1.1656171568788462e-07  1.1963206170385371e-07  1.2278328353903588e-07  1.2601751153884489e-07 
 1.2933693216399302e-07  1.3274378946862084e-07  1.3624038661736124e-07  1.3982908744236457e-07 
 1.4351231804133773e-07  1.4729256841767646e-07  1.5117239416380026e-07  1.5515441818882849e-07 
 1.5924133249176422e-07  1.6343589998138549e-07  1.6774095634407491e-07  1.7215941196084877e-07 
 1.7669425387488217e-07  1.8134854781086193e-07  1.8612544024752914e-07  1.9102816054481628e-07 
 1.9606002312701339e-07  2.0122442972344197e-07  2.0652487166814910e-07  2.1196493226017914e-07 
 2.1754828918601550e-07  2.2327871700583201e-07  2.2916008970523556e-07  2.3519638331422209e-07 
 2.4139167859511960e-07  2.4775016380133312e-07  2.5427613750875799e-07  2.6097401152177492e-07 
 2.6784831385579008e-07  2.7490369179834126e-07  2.8214491505083288e-07  2.8957687895302772e-07 
 2.9720460779247717e-07  3.0503325820111986e-07  3.1306812264135524e-07  3.2131463298393833e-07 
 3.2977836418012322e-07  3.3846503803053055e-07  3.4738052705329254e-07  3.5653085845408893e-07 
 3.6592221820075272e-07  3.7556095520521065e-07  3.8545358561557265e-07  3.9560679722128541e-07 
 4.0602745397431592e-07  4.1672260062942997e-07  4.2769946750669746e-07  4.3896547537944754e-07 
 4.5052824049097531e-07  4.6239557970339454e-07  4.7457551578211247e-07  4.8707628281950364e-07 
 4.9990633180144856e-07  5.1307433632049872e-07  5.2658919843952906e-07  5.4046005470984579e-07 
 5.5469628234781780e-07  5.6930750557419973e-07  5.8430360212044417e-07  5.9969470990639029e-07 
 6.1549123389384945e-07  6.3170385312072308e-07  6.4834352792039704e-07  6.6542150733130974e-07 
 6.8294933670168282e-07  7.0093886549457882e-07  7.1940225529853896e-07  7.3835198804923305e-07 
 7.5780087446767110e-07  7.7776206272068476e-07  7.9824904730953334e-07  8.1927567819263933e-07 
 8.4085617014862517e-07  8.6300511238597581e-07  8.8573747840583323e-07  9.0906863612457764e-07 
 9.3301435826304713e-07  9.5759083300941503e-07  9.8281467496293163e-07  1.0087029363659447e-06 
 1.0352731186317601e-06  1.0625431841761673e-06  1.0905315685606061e-06  1.1192571929552022e-06 
 1.1487394769300766e-06  1.1789983515835925e-06  1.2100542730164044e-06  1.2419282361604234e-06 
 1.2746417889720470e-06  1.3082170469992463e-06  1.3426767083323548e-06  1.3780440689486728e-06 
 1.4143430384612582e-06  1.4515981562825453e-06  1.4898346082137256e-06  1.5290782434711009e-06 
 1.5693555921609119e-06  1.6106938832144745e-06  1.6531210627957303e-06  1.6966658131936588e-06 
 1.7413575722123213e-06  1.7872265530716612e-06  1.8343037648324873e-06  1.8826210333594606e-06 
 1.9322110228362611e-06  1.9831072578474599e-06  2.0353441460420637e-06  2.0889570013939843e-06 
 2.1439820680752376e-06  2.2004565449579340e-06  2.2584186107616925e-06  2.3179074498634227e-06 
 2.3789632787869499e-06  2.4416273733903887e-06  2.5059420967696195e-06  2.5719509278967869e-06 
 2.6396984910131015e-06  2.7092305857958778e-06  2.7805942183201608e-06  2.8538376328359044e-06 
 2.9290103443821593e-06  3.0061631722603059e-06  3.0853482743889934e-06  3.1666191825639793e-06 
 3.2500308386467262e-06  3.3356396317061970e-06  3.4235034361389605e-06  3.5136816507933811e-06 
 3.6062352391243587e-06  3.7012267704057044e-06  3.7987204620280728e-06  3.8987822229110042e-06 
 4.0014796980584287e-06  4.1068823142877646e-06  4.2150613271635067e-06  4.3260898691670260e-06 
 4.4400429991351404e-06  4.5569977530009101e-06  4.6770331958709062e-06  4.8002304754741613e-06 
 4.9266728770189714e-06  5.0564458794945729e-06  5.1896372134558007e-06  5.3263369203297451e-06 
 5.4666374132845205e-06  5.6106335397012526e-06  5.7584226452915950e-06  5.9101046399039899e-06 
 6.0657820650632548e-06  6.2255601632891006e-06  6.3895469492404256e-06  6.5578532827334933e-06 
 6.7305929436833683e-06  6.9078827090191940e-06  7.0898424316253396e-06  7.2765951213618113e-06 
 7.4682670282186128e-06  7.6649877276602837e-06  7.8668902082183525e-06  8.0741109613907809e-06 
 8.2867900739093126e-06  8.5050713224369894e-06  8.7291022707598072e-06  8.9590343695383129e-06 
 9.1950230586864546e-06  9.4372278724469398e-06  9.6858125472340644e-06  9.9409451323169782e-06 
 1.0202798103418006e-05  1.0471548479303110e-05  1.0747377941442948e-05  1.1030472956825601e-05 
 1.1321024904003905e-05  1.1619230202462630e-05  1.1925290445392767e-05  1.2239412535962857e-05 
 1.2561808827179322e-05  1.2892697265430310e-05  1.3232301537810149e-05  1.3580851223323843e-05 
 1.3938581948073888e-05  1.4305735544534187e-05  1.4682560215018822e-05  1.5069310699455831e-05 
 1.5466248447579943e-05  1.5873641795659927e-05  1.6291766147880435e-05  1.6720904162500756e-05 
 1.7161345942916285e-05  1.7613389233751698e-05  1.8077339622118541e-05  1.8553510744172985e-05 
 1.9042224497113348e-05  1.9543811256760858e-05  2.0058610100870313e-05  2.0586969038321708e-05 
 2.1129245244347569e-05  2.1685805301955078e-05  2.2257025449705854e-05  2.2843291836020947e-05 
 2.3445000780182905e-05  2.4062559040210653e-05  2.4696384087789347e-05  2.5346904390439499e-05 
 2.6014559701116961e-05  2.6699801355438942e-05  2.7403092576737151e-05  2.8124908789143569e-05 
 2.8865737938920997e-05  2.9626080824254875e-05  3.0406451433729235e-05  3.1207377293715829e-05 
 3.2029399824910181e-05  3.2873074708256212e-05  3.3738972260505979e-05  3.4627677819668482e-05 
 3.5539792140607652e-05  3.6475931801056513e-05  3.7436729618322382e-05  3.8422835076963124e-05 
 3.9434914767725052e-05  4.0473652838037072e-05  4.1539751454366333e-05  4.2633931276747162e-05 
 4.3756931945803731e-05  4.4909512582595055e-05  4.6092452301620099e-05  4.7306550737328989e-05 
 4.8552628584495475e-05  4.9831528152816679e-05  5.1144113936112413e-05  5.2491273196510007e-05 
 5.3873916564008133e-05  5.5292978651824163e-05  5.6749418687940785e-05  5.8244221163277687e-05 
 5.9778396496925694e-05  6.1352981718892165e-05  6.2969041170819073e-05  6.4627667225145214e-05 
 6.6329981023198584e-05  6.8077133232716803e-05  6.9870304825306252e-05  7.1710707874364678e-05 
 7.3599586374005095e-05  7.5538217079533691e-05  7.7527910370047689e-05  7.9570011133737052e-05 
 8.1665899676483633e-05  8.3816992654373412e-05  8.6024744030749055e-05  8.8290646058448259e-05 
 9.0616230287890104e-05  9.3003068601689112e-05  9.5452774276493974e-05  9.7967003072766534e-05 
 1.0054745435323669e-04  1.0319587223078462e-04  1.0591404674652615e-04  1.0870381507889284e-04 
 1.1156706278452360e-04  1.1450572507180121e-04  1.1752178810789381e-04  1.2061729036018029e-04 
 1.2379432397296251e-04  1.2705503618039385e-04  1.3040163075657231e-04  1.3383636950377569e-04 
 1.3736157377984123e-04  1.4097962606571723e-04  1.4469297157424071e-04  1.4850411990122525e-04 
 1.5241564671996896e-04  1.5643019552032098e-04  1.6055047939348167e-04  1.6477928286372879e-04 
 1.6911946376830882e-04  1.7357395518675277e-04  1.7814576742091571e-04  1.8283799002706988e-04 
 1.8765379390141824e-04  1.9259643342042806e-04  1.9766924863742362e-04  2.0287566753691505e-04 
 2.0821920834817426e-04  2.1370348191961328e-04  2.1933219415555983e-04  2.2510914851706445e-04 
 2.3103824858841819e-04  2.3712350071110363e-04  2.4336901668694502e-04  2.4977901655227083e-04 
 2.5635783142495219e-04  2.6310990642622084e-04  2.7003980367922844e-04  2.7715220538635719e-04 
 2.8445191698734106e-04  2.9194387040031613e-04  2.9963312734796772e-04  3.0752488277100386e-04 
 3.1562446833123569e-04  3.2393735600661698e-04  3.3246916178063794e-04  3.4122564942854714e-04 
 3.5021273440293292e-04  3.5943648782125787e-04  3.6890314055801441e-04  3.7861908744423427e-04 
 3.8859089157715473e-04  3.9882528874291874e-04  4.0932919195526559e-04  4.2010969611323232e-04 
 4.3117408278097624e-04  4.4252982509290534e-04  4.5418459278738499e-04  4.6614625737237170e-04 
 4.7842289742641806e-04  4.9102280403857425e-04  5.0395448639080278e-04  5.1722667748662992e-04 
 5.3084834002982883e-04  5.4482867245704732e-04  5.5917711512838860e-04  5.7390335668004863e-04 
 5.8901734054323397e-04  6.0452927163367229e-04  6.2044962321616240e-04  6.3678914394869565e-04 
 6.5355886511083588e-04  6.7077010802111625e-04  6.8843449164837601e-04  7.0656394042206444e-04 
 7.2517069224666594e-04  7.4426730672554791e-04  7.6386667359964815e-04  7.8398202140657098e-04 
 8.0462692636579052e-04  8.2581532149583249e-04  8.4756150596940378e-04  8.6988015471264272e-04 
 8.9278632825479142e-04  9.1629548283475484e-04  9.4042348077117734e-04  9.6518660110283638e-04 
 9.9060155050632328e-04  1.0166854744981402e-03  1.0434559689285734e-03  1.0709310917748050e-03 
 1.0991293752409920e-03  1.1280698381731958e-03  1.1577719987972332e-03  1.1882558877877611e-03 
 1.2195420616770711e-03  1.2516516166123117e-03  1.2846062024700481e-03  1.3184280373373285e-03 
 1.3531399223686059e-03  1.3887652570281216e-03  1.4253280547276044e-03  1.4628529588693498e-03 
 1.5013652593050290e-03  1.5408909092207990e-03  1.5814565424595618e-03  1.6230894912914696e-03 
 1.6658178046440964e-03  1.7096702668038775e-03  1.7546764166007948e-03  1.8008665670885267e-03 
 1.8482718257325848e-03  1.8969241151192732e-03  1.9468561941985893e-03  1.9981016800745435e-03 
 2.0506950703566237e-03  2.1046717660865738e-03  2.1600680952548568e-03  2.2169213369216045e-03 
 2.2752697459571961e-03  2.3351525784179234e-03  2.3966101175726079e-03  2.4596837005963685e-03 
 2.5244157459481630e-03  2.5908497814490236e-03  2.6590304730784663e-03  2.7290036545067130e-03 
 2.8008163573810100e-03  2.8745168423845867e-03  2.9501546310872905e-03  3.0277805386073301e-03 
 3.1074467071040292e-03  3.1892066401219155e-03  3.2731152378068945e-03  3.3592288330158318e-03 
 3.4476052283411657e-03  3.5383037340727726e-03  3.6313852071197836e-03  3.7269120909154642e-03 
 3.8249484563288327e-03  3.9255600436071984e-03  4.0288143053742523e-03  4.1347804507089201e-03 
 4.2435294903307346e-03  4.3551342829178984e-03  4.4696695825848787e-03  4.5872120875468450e-03 
 4.7078404899988397e-03  4.8316355272381125e-03  4.9586800340586119e-03  5.0890589964472065e-03 
 5.2228596066117390e-03  5.3601713193717065e-03  5.5010859099427064e-03  5.6456975331466708e-03 
 5.7941027840802059e-03  5.9464007602741909e-03  6.1026931253781325e-03  6.2630841744036186e-03 
 6.4276809005615445e-03  6.5965930637285394e-03  6.7699332605786564e-03  6.9478169964166834e-03 
 7.1303627587503563e-03  7.3176920926391140e-03  7.5099296778576600e-03  7.7072034079131756e-03 
 7.9096444709555354e-03  8.1173874326204917e-03  8.3305703208461472e-03  8.5493347127039310e-03 
 8.7738258232852098e-03  9.0041925966857853e-03  9.2405877991304525e-03  9.4831681142806806e-03 
 9.7320942407685147e-03  9.9875309920005387e-03  1.0249647398275781e-02  1.0518616811262023e-02 
 1.0794617010875324e-02  1.1077830314607367e-02  1.1368443689346185e-02  1.1666648865735370e-02 
 1.1972642455117354e-02  1.2286626069106323e-02  1.2608806441836444e-02  1.2939395554930847e-02 
 1.3278610765236877e-02  1.3626674935373241e-02  1.3983816567133595e-02  1.4350269937791834e-02 
 1.4726275239353199e-02  1.5112078720795237e-02  1.5507932833341790e-02  1.5914096378812671e-02 
 1.6330834661090924e-02  1.6758419640748298e-02  1.7197130092869193e-02  1.7647251768111272e-02 
 1.8109077557040290e-02  1.8582907657775136e-02  1.9069049746976863e-02  1.9567819154214561e-02 
 2.0079539039738172e-02  2.0604540575686479e-02  2.1143163130756027e-02  2.1695754458354491e-02 
 2.2262670888258070e-02  2.2844277521790947e-02  2.3440948430539888e-02  2.4053066858614875e-02 
 2.4681025428461373e-02  2.5325226350226760e-02  2.5986081634678151e-02  2.6664013309663778e-02 
 2.7359453640106089e-02  2.8072845351506916e-02  2.8804641856941055e-02  2.9555307487506836e-02 
 3.0325317726195775e-02  3.1115159445135501e-02  3.1925331146153153e-02  3.2756343204596590e-02 
 3.3608718116342751e-02  3.4482990747912903e-02  3.5379708589603119e-02  3.6299432011528701e-02 
 3.7242734522468915e-02  3.8210203031386503e-02  3.9202438111482739e-02  4.0220054266635621e-02 
 4.1263680200053693e-02  4.2333959084962187e-02  4.3431548837122164e-02  4.4557122388965337e-02 
 4.5711367965109488e-02  4.6894989358997580e-02  4.8108706210388118e-02  4.9353254283394932e-02 
 5.0629385744758268e-02  5.1937869442001607e-02  5.3279491181102402e-02  5.4655054003280044e-02 
 5.6065378460473630e-02  5.7511302889053581e-02  5.8993683681278851e-02  6.0513395553977938e-02 
 6.2071331813898019e-02  6.3668404619127719e-02  6.5305545235962770e-02  6.6983704290541249e-02 
 6.8703852014533093e-02  7.0466978484124379e-02  7.2274093851488613e-02  7.4126228567888822e-02 
 7.6024433597504659e-02  7.7969780621020335e-02  7.9963362227954748e-02  8.2006292096659605e-02 
 8.4099705160843377e-02  8.6244757761417642e-02  8.8442627782396269e-02  9.0694514769503604e-02 
 9.3001640030077173e-02  9.5365246712774063e-02  9.7786599865507431e-02  1.0026698646996075e-01 
 1.0280771545093594e-01  1.0541011765870663e-01  1.0807554582245110e-01  1.1080537447274336e-01 
 1.1360099983098035e-01  1.1646383966351773e-01  1.1939533309818390e-01  1.2239694040072076e-01 
 1.2547014270859302e-01  1.2861644171948342e-01  1.3183735933167173e-01  1.3513443723336505e-01 
 1.3850923643791763e-01  1.4196333676174636e-01  1.4549833624160810e-01  1.4911585048776299e-01 
 1.5281751196940788e-01  1.5660496922860925e-01  1.6047988601882249e-01  1.6444394036392543e-01 
 1.6849882353353904e-01  1.7264623893025316e-01  1.7688790088421399e-01  1.8122553335036540e-01 
 1.8566086850348637e-01  1.9019564522598584e-01  1.9483160748327377e-01  1.9957050258135467e-01 
 2.0441407930113659e-01  2.0936408590378655e-01  2.1442226800131906e-01  2.1959036628644885e-01 
 2.2487011411560073e-01  2.3026323493883100e-01  2.3577143957029217e-01  2.4139642329275215e-01 
 2.4713986278957276e-01  2.5300341289746536e-01  2.5898870317325606e-01  2.6509733426784127e-01 
 2.7133087410047158e-01  2.7769085382647163e-01  2.8417876359153993e-01  2.9079604806576698e-01 
 2.9754410175060436e-01  3.0442426405210121e-01  3.1143781411386068e-01  3.1858596540334194e-01 
 3.2586986004535695e-01  3.3329056289687192e-01  3.4084905535754240e-01  3.4854622891079101e-01 
 3.5638287839066912e-01  3.6435969497024590e-01  3.7247725886783850e-01  3.8073603176805215e-01 
 3.8913634895531624e-01  3.9767841115842262e-01  4.0636227610547970e-01  4.1518784978967482e-01 
 4.2415487744737912e-01  4.3326293425127638e-01  4.4251141572257119e-01  4.5189952786771764e-01 
 4.6142627704668965e-01  4.7109045958146312e-01  4.8089065111519791e-01  4.9082519573451733e-01 
 5.0089219486935010e-01  5.1108949598699194e-01  5.2141468109935518e-01  5.3186505510484128e-01 
 5.4243763398884992e-01  5.5312913290965560e-01  5.6393595419922182e-01  5.7485417531147742e-01 
 5.8587953675366011e-01  5.9700743003949608e-01  6.0823288570629352e-01  6.1955056144133869e-01 
 6.3095473036648198e-01  6.4243926953326824e-01  6.5399764868453869e-01  6.6562291934203421e-01 
 6.7730770428313758e-01  6.8904418747354623e-01  7.0082410452628774e-01  7.1263873376111642e-01 
 7.2447888794193427e-01  7.3633490677343372e-01  7.4819665024169679e-01  7.6005349288696811e-01 
 7.7189431910026285e-01  7.8370751953887097e-01  7.9548098875920970e-01  8.0720212416880488e-01 
 8.1885782640257709e-01  8.3043450123192897e-01  8.4191806311857109e-01  8.5329394052848850e-01 
 8.6454708312497297e-01  8.7566197096333043e-01  8.8662262581358964e-01  8.9741262474144345e-01 
 9.0801511608157925e-01  9.1841283794158191e-01  9.2858813937859275e-01  9.3852300439475778e-01 
 9.4819907890112209e-01  9.5759770080273077e-01  9.6669993336007931e-01  9.7548660198333381e-01 
 9.8393833461553915e-01  9.9203560585876527e-01  9.9975878499235771e-01  1.0070881880242557e+00 
 1.0140041339041885e+00  1.0204870050104229e+00  1.0265173119987709e+00  1.0320757630728341e+00 
 1.0371433376969723e+00  1.0417013647273143e+00  1.0457316048804854e+00  1.0492163373938526e+00 
 1.0521384506545948e+00  1.0544815364876055e+00  1.0562299876943666e+00  1.0573690983272479e+00 
 1.0578851660674748e+00  1.0577655959522421e+00  1.0569990045698248e+00  1.0555753237145125e+00 
 1.0534859023700149e+00  1.0507236057756573e+00  1.0472829102298049e+00  1.0431599922058159e+00 
 1.0383528103036905e+00  1.0328611785420829e+00  1.0266868295164273e+00  1.0198334660148729e+00 
 1.0123067997984938e+00  1.0041145764177979e+00  9.9526658515377198e-01  9.8577465343514936e-01 
 9.7565262538802611e-01  9.6491632450916975e-01  9.5358350080684817e-01  9.4167376310575546e-01 
 9.2920849754577084e-01  9.1621077359621639e-01  9.0270523913548117e-01  8.8871800628924114e-01 
 8.7427652976032344e-01  8.5940947930652278e-01  8.4414660782295392e-01  8.2851861616596034e-01 
 8.1255701542951864e-01  7.9629398687730590e-01  7.7976223917958376e-01  7.6299486204860978e-01 
 7.4602517486031716e-01  7.2888656844588329e-01  7.1161233798293044e-01  6.9423550484972896e-01 
 6.7678862544659302e-01  6.5930358533242828e-01  6.4181137753845163e-01  6.2434186454332297e-01 
 6.0692352403465710e-01  5.8958317913235236e-01  5.7234571409259927e-01  5.5523377654164729e-01 
 5.3826746692852356e-01  5.2146401510983276e-01  5.0483744282934395e-01  4.8839820945047313e-01 
 4.7215283683822162e-01  4.5610350802663024e-01  4.4025132952891427e-01  4.2460852166249546e-01 
 4.0918979883035672e-01  3.9400901522139076e-01  3.7907914155313166e-01  3.6441224714091675e-01 
 3.5001948753249501e-01  3.3591109781531553e-01  3.2209639156520425e-01  3.0858376526656428e-01 
 2.9538070790215559e-01  2.8249381529098855e-01  2.6992880865136454e-01  2.5769055678701192e-01 
 2.4578310124099129e-01  2.3420968373644135e-01  2.2297277522589656e-01  2.1207410590170359e-01 
 2.0151469557635121e-01  1.9129488391956373e-01  1.8141436013447074e-01  1.7187219176206470e-01 
 1.6266685241514772e-01  1.5379624835349370e-01  1.4525774391476720e-01  1.3704818590535831e-01 
 1.2916392712740951e-01  1.2160084927009621e-01  1.1435438542344459e-01  1.0741954248188214e-01 
 1.0079092369430760e-01  9.4462751590576294e-02  8.8428891474206475e-02  8.2682875622226898e-02 
 7.7217928279455006e-02  7.2026991479586924e-02  6.7102751672632521e-02  6.2437667089964385e-02 
 5.8023995736399180e-02  5.3853823864421620e-02  4.9919094759424312e-02  4.6211637646627703e-02 
 4.2723196519771550e-02  3.9445458688048482e-02  3.6370082840172679e-02  3.3488726431969734e-02 
 3.0793072215485603e-02  2.8274853742381017e-02  2.5925879691443169e-02  2.3738056888635485e-02 
 2.1703411907560848e-02  1.9814111157974070e-02  1.8062479389595154e-02  1.6441016557584540e-02 
 1.4942413014368043e-02  1.3559563009832555e-02  1.2285576498105395e-02  1.1113789264078343e-02 
 1.0037771396480457e-02  9.0513341466088391e-03  8.1485352227865428e-03  7.3236825802428865e-03 
 6.5713367744288879e-03  5.8863119528255884e-03  5.2636755661213726e-03  4.6987468842764803e-03 
 4.1870944065160280e-03  3.7245322567568098e-03  3.3071156574418911e-03  2.9311355752960917e-03 
 2.5931126321933388e-03  2.2897903732124613e-03  2.0181279821222162e-03  1.7752925320502582e-03 
 1.5586508560258752e-03  1.3657611185140021e-03  1.1943641650491276e-03  1.0423747227019289e-03 
 9.0787251943723541e-04  7.8909338551554368e-04  6.8442039501598892e-04  5.9237510037755492e-04 
 5.1160890762562514e-04  4.4089463472720179e-04  3.7911829035094393e-04  3.2527110524407986e-04 
 2.7844184351928609e-04  2.3780941640827316e-04  2.0263581651778774e-04  1.7225938634597444e-04 
 1.4608843080564910e-04  1.2359517977432525e-04  1.0431010326234336e-04  8.7816578672004602e-05 
 7.3745906807606902e-05  6.1772670806767207e-05  5.1610429976683540e-05  4.3007738639312485e-05 
 3.5744478504246401e-05  2.9628491785476903e-05  2.4492501243878098e-05  2.0191302554760163e-05 
 1.6599213851333815e-05  1.3607766961313864e-05  1.1123624715316343e-05  9.0667087418663015e-06 
 7.3685223543194968e-06  5.9706534595901288e-06  4.8234428575116089e-06  3.8848038338872699e-06 
 3.1191795616728766e-06  2.4966254962169545e-06  1.9920046662329437e-06  1.5842845076770305e-06 
 1.2559246498386059e-06  9.9234583003028633e-07  7.8147087504695069e-07  6.1332943523010610e-07 
 4.7971888309412657e-07  3.7391448694162928e-07  2.9042263586667141e-07  2.2477152233122541e-07 
 1.7333427948346924e-07  1.3318012090796677e-07  1.0194954131575867e-07  7.7750112113229909e-08 
 5.9069769274540836e-08  4.4705027884553689e-08  3.3701744003454185e-08  2.5306441381515706e-08 
 1.8926486354973333e-08  1.4097639009592553e-08  1.0457726371753695e-08  7.7253740163609739e-09 
 5.6828984951725659e-09  4.1626067663980013e-09  3.0358726404902976e-09  2.2044663312358855e-09 
 1.5937035688540107e-09  1.1470573032478679e-09  8.2193956083473852e-10  5.8641512475245423e-10 
 4.1665384207285144e-10  2.9496583440309848e-10  2.0829487617804032e-10  -0.0000000000000000e+00 
 -0.0000000000000000e+00  -0.0000000000000000e+00  -0.0000000000000000e+00  -0.0000000000000000e+00 
 -0.0000000000000000e+00  -0.0000000000000000e+00  -0.0000000000000000e+00  -0.0000000000000000e+00 
 -0.0000000000000000e+00  -0.0000000000000000e+00  -0.0000000000000000e+00  -0.0000000000000000e+00 
 -0.0000000000000000e+00  -0.0000000000000000e+00  -0.0000000000000000e+00  -0.0000000000000000e+00 
 -0.0000000000000000e+00  -0.0000000000000000e+00  -0.0000000000000000e+00  -0.0000000000000000e+00 
 -0.0000000000000000e+00  -0.0000000000000000e+00  -0.0000000000000000e+00  -0.0000000000000000e+00 
 -0.0000000000000000e+00  -0.0000000000000000e+00  -0.0000000000000000e+00  -0.0000000000000000e+00 
 -0.0000000000000000e+00  -0.0000000000000000e+00  -0.0000000000000000e+00  -0.0000000000000000e+00 
 -0.0000000000000000e+00  -0.0000000000000000e+00  -0.0000000000000000e+00  -0.0000000000000000e+00 
 -0.0000000000000000e+00  -0.0000000000000000e+00  -0.0000000000000000e+00  -0.0000000000000000e+00 
 -0.0000000000000000e+00  -0.0000000000000000e+00  -0.0000000000000000e+00  -0.0000000000000000e+00 
 -0.0000000000000000e+00  -0.0000000000000000e+00  -0.0000000000000000e+00  -0.0000000000000000e+00 
 -0.0000000000000000e+00  -0.0000000000000000e+00  -0.0000000000000000e+00  -0.0000000000000000e+00 
 -0.0000000000000000e+00  -0.0000000000000000e+00  -0.0000000000000000e+00  -0.0000000000000000e+00 
 -0.0000000000000000e+00  -0.0000000000000000e+00  -0.0000000000000000e+00  -0.0000000000000000e+00 
 -0.0000000000000000e+00  -0.0000000000000000e+00  -0.0000000000000000e+00  -0.0000000000000000e+00 
 -0.0000000000000000e+00  -0.0000000000000000e+00  -0.0000000000000000e+00  -0.0000000000000000e+00 
 -0.0000000000000000e+00  -0.0000000000000000e+00  -0.0000000000000000e+00  -0.0000000000000000e+00 
 -0.0000000000000000e+00  -0.0000000000000000e+00  -0.0000000000000000e+00  -0.0000000000000000e+00 
 -0.0000000000000000e+00  -0.0000000000000000e+00  -0.0000000000000000e+00  -0.0000000000000000e+00 
 -0.0000000000000000e+00  -0.0000000000000000e+00  -0.0000000000000000e+00  -0.0000000000000000e+00 
 -0.0000000000000000e+00  -0.0000000000000000e+00  -0.0000000000000000e+00  -0.0000000000000000e+00 
 -0.0000000000000000e+00  -0.0000000000000000e+00  -0.0000000000000000e+00  -0.0000000000000000e+00 
 -0.0000000000000000e+00  -0.0000000000000000e+00  -0.0000000000000000e+00  -0.0000000000000000e+00 
 -0.0000000000000000e+00  -0.0000000000000000e+00  -0.0000000000000000e+00  -0.0000000000000000e+00 
 -0.0000000000000000e+00  -0.0000000000000000e+00  -0.0000000000000000e+00  -0.0000000000000000e+00 
 -0.0000000000000000e+00  -0.0000000000000000e+00  -0.0000000000000000e+00  -0.0000000000000000e+00 
 -0.0000000000000000e+00  -0.0000000000000000e+00  -0.0000000000000000e+00  -0.0000000000000000e+00 
 -0.0000000000000000e+00  -0.0000000000000000e+00  -0.0000000000000000e+00  -0.0000000000000000e+00 
 -0.0000000000000000e+00  -0.0000000000000000e+00  -0.0000000000000000e+00  -0.0000000000000000e+00 
 -0.0000000000000000e+00  -0.0000000000000000e+00  -0.0000000000000000e+00  -0.0000000000000000e+00 
 -0.0000000000000000e+00  -0.0000000000000000e+00  -0.0000000000000000e+00  -0.0000000000000000e+00 
 -0.0000000000000000e+00  -0.0000000000000000e+00  -0.0000000000000000e+00  -0.0000000000000000e+00 
 -0.0000000000000000e+00  -0.0000000000000000e+00  -0.0000000000000000e+00  -0.0000000000000000e+00 
 -0.0000000000000000e+00  -0.0000000000000000e+00  -0.0000000000000000e+00  -0.0000000000000000e+00 
 -0.0000000000000000e+00  -0.0000000000000000e+00  -0.0000000000000000e+00  -0.0000000000000000e+00 
 -0.0000000000000000e+00  -0.0000000000000000e+00  -0.0000000000000000e+00  -0.0000000000000000e+00 
 -0.0000000000000000e+00  -0.0000000000000000e+00  -0.0000000000000000e+00  -0.0000000000000000e+00 
 -0.0000000000000000e+00  -0.0000000000000000e+00  -0.0000000000000000e+00  -0.0000000000000000e+00 
 -0.0000000000000000e+00  -0.0000000000000000e+00  -0.0000000000000000e+00  -0.0000000000000000e+00 
 -0.0000000000000000e+00  -0.0000000000000000e+00  -0.0000000000000000e+00  -0.0000000000000000e+00 
 -0.0000000000000000e+00  -0.0000000000000000e+00  -0.0000000000000000e+00  -0.0000000000000000e+00 
 -0.0000000000000000e+00  -0.0000000000000000e+00  -0.0000000000000000e+00  -0.0000000000000000e+00 
 -0.0000000000000000e+00  -0.0000000000000000e+00  -0.0000000000000000e+00  -0.0000000000000000e+00 
 -0.0000000000000000e+00  -0.0000000000000000e+00  -0.0000000000000000e+00  -0.0000000000000000e+00 
D    2   0.00          Wavefunction
 1.9992131425005277e-13  2.0787228160207395e-13  2.1613946277065597e-13  2.2473543373218565e-13 
 2.3367327061571084e-13  2.4296656959425344e-13  2.5262946756720912e-13  2.6267666366529785e-13 
 2.7312344161077378e-13  2.8398569296691439e-13  2.9527994131215091e-13  3.0702336737561676e-13 
 3.1923383517234858e-13  3.3192991917789707e-13  3.4513093258368444e-13  3.5885695667609137e-13 
 3.7312887138396617e-13  3.8796838704101966e-13  4.0339807741142947e-13  4.1944141402888542e-13 
 4.3612280190131863e-13  4.5346761663562101e-13  4.7150224303883676e-13  4.9025411525453922e-13 
 5.0975175849545127e-13  5.3002483243579275e-13  5.5110417632936319e-13  5.7302185592198995e-13 
 5.9581121222971021e-13  6.1950691225688139e-13  6.4414500173137957e-13  6.6976295993709776e-13 
 6.9639975672716296e-13  7.2409591180459140e-13  7.5289355636057176e-13  7.8283649716412297e-13 
 8.1397028320063938e-13  8.4634227496067177e-13  8.8000171648436641e-13  9.1499981027113915e-13 
 9.5138979516854925e-13  9.8922702735884457e-13  1.0285690645663876e-12  1.0694757536140490e-12 
 1.1120093214617550e-12  1.1562344698656929e-12  1.2022184738021522e-12  1.2500312838057246e-12 
 1.2997456323775571e-12  1.3514371446255015e-12  1.4051844533044763e-12  1.4610693184320451e-12 
 1.5191767516611606e-12  1.5795951455992756e-12  1.6424164082705287e-12  1.7077361029255679e-12 
 1.7756535934116699e-12  1.8462721953243022e-12  1.9196993331700544e-12  1.9960467037800174e-12 
 2.0754304462221846e-12  2.1579713184713626e-12  2.2437948811053220e-12  2.3330316883066251e-12 
 2.4258174864607078e-12  2.5222934206522839e-12  2.6226062493742174e-12  2.7269085677754786e-12 
 2.8353590397877614e-12  2.9481226394839071e-12  3.0653709020352525e-12  3.1872821846496735e-12 
 3.3140419378872815e-12  3.4458429877664445e-12  3.5828858290893240e-12  3.7253789304331010e-12 
 3.8735390512708406e-12  4.0275915717044174e-12  4.1877708353110920e-12  4.3543205056252081e-12 
 4.5274939367974102e-12  4.7075545589950854e-12  4.8947762791304381e-12  5.0894438975256241e-12 
 5.2918535411489566e-12  5.5023131140810426e-12  5.7211427658962032e-12  5.9486753786716728e-12 
 6.1852570733653350e-12  6.4312477363324031e-12  6.6870215667818552e-12  6.9529676460055495e-12 
 7.2294905292457618e-12  7.5170108611016817e-12  7.8159660154108526e-12  8.1268107605789738e-12 
 8.4500179513703212e-12  8.7860792482108160e-12  9.1355058650982892e-12  9.4988293472573702e-12 
 9.8766023797221947e-12  1.0269399628076710e-11  1.0677818612631731e-11  1.1102480617368379e-11 
 1.1544031635030618e-11  1.2003143349804659e-11  1.2480514159079853e-11  1.2976870235845671e-11 
 1.3492966633340537e-11  1.4029588433633255e-11  1.4587551941883896e-11  1.5167705928101098e-11 
 1.5770932918284711e-11  1.6398150536917567e-11  1.7050312902849125e-11  1.7728412080693676e-11 
 1.8433479589951782e-11  1.9166587974149706e-11  1.9928852432384763e-11  2.0721432515757529e-11 
 2.1545533891272346e-11  2.2402410175888794e-11  2.3293364843514200e-11  2.4219753207838329e-11 
 2.5182984484026187e-11  2.6184523932405454e-11  2.7225895087409156e-11  2.8308682075164770e-11 
 2.9434532023254607e-11  3.0605157566313756e-11  3.1822339451276628e-11  3.3087929246235524e-11 
 3.4403852157031792e-11  3.5772109955863968e-11  3.7194784026368216e-11  3.8674038529803029e-11 
 4.0212123697154419e-11  4.1811379252169742e-11  4.3474237970527429e-11  4.5203229380556182e-11 
 4.7000983611133559e-11  4.8870235392617693e-11  5.0813828216897183e-11  5.2834718662889052e-11 
 5.4935980894062720e-11  5.7120811334833563e-11  5.9392533532938041e-11  6.1754603215188304e-11 
 6.4210613544296258e-11  6.6764300584763648e-11  6.9419548986153755e-11  7.2180397892388972e-11 
 7.5051047086063999e-11  7.8035863377121134e-11  8.1139387245606175e-11  8.4366339748609972e-11 
 8.7721629701901225e-11  9.1210361147178058e-11  9.4837841116293419e-11  9.8609587704268627e-11 
 1.0253133846337406e-10  1.0660905913104549e-10  1.1084895270491528e-10  1.1525746887875984e-10 
 1.1984131385372011e-10  1.2460746053971811e-10  1.2956315916258898e-10  1.3471594829306320e-10 
 1.4007366631437575e-10  1.4564446334594883e-10  1.5143681364128173e-10  1.5745952847891475e-10 
 1.6372176956606811e-10  1.7023306297535243e-10  1.7700331363574626e-10  1.8404282039988872e-10 
 1.9136229171060218e-10  1.9897286189048154e-10  2.0688610807932670e-10  2.1511406784518337e-10 
 2.2366925749578452e-10  2.3256469111824510e-10  2.4181390037597186e-10  2.5143095509290680e-10 
 2.6143048465641542e-10  2.7182770027137420e-10  2.8263841809931536e-10  2.9387908331782460e-10 
 3.0556679513678869e-10  3.1771933280955481e-10  3.3035518267855994e-10  3.4349356629657943e-10 
 3.5715446966636550e-10  3.7135867364316441e-10  3.8612778554634866e-10  4.0148427202825879e-10 
 4.1745149325025397e-10  4.3405373841795476e-10  4.5131626272974088e-10  4.6926532579470264e-10 
 4.8792823157849156e-10  5.0733336993782989e-10  5.2751025980687121e-10  5.4848959410109144e-10 
 5.7030328640703230e-10  5.9298451952890774e-10  6.1656779596593145e-10  6.4108899039714911e-10 
 6.6658540425360895e-10  6.9309582246088694e-10  7.2066057243828673e-10  7.4932158544446305e-10 
 7.7912246036277463e-10  8.1010853002341115e-10  8.4232693016317420e-10  8.7582667112780981e-10 
 9.1065871242597379e-10  9.4687604024823450e-10  9.8453374806902696e-10  1.0236891204541830e-09 
 1.0644017202015123e-09  1.1067334789469937e-09  1.1507487913744071e-09  1.1965146131717146e-09 
 1.2441005628831906e-09  1.2935790278122609e-09  1.3450252741361201e-09  1.3985175613996412e-09 
 1.4541372615627484e-09  1.5119689827823435e-09  1.5721006981170747e-09  1.6346238793507273e-09 
 1.6996336361378194e-09  1.7672288606830423e-09  1.8375123781746784e-09  1.9105911032007502e-09 
 1.9865762023859285e-09  2.0655832634965097e-09  2.1477324712707902e-09  2.2331487902422209e-09 
 2.3219621548335070e-09  2.4143076670107921e-09  2.5103258017985734e-09  2.6101626209680471e-09 
 2.7139699952238330e-09  2.8219058352271434e-09  2.9341343318067731e-09  3.0508262057233590e-09 
 3.1721589673667901e-09  3.2983171867818393e-09  3.4294927744327621e-09  3.5658852731339559e-09 
 3.7077021615907502e-09  3.8551591700120781e-09  4.0084806082750706e-09  4.1678997071408268e-09 
 4.3336589730404151e-09  4.5060105569706874e-09  4.6852166380611879e-09  4.8715498223955016e-09 
 5.0652935576938098e-09  5.2667425644873859e-09  5.4762032844409353e-09  5.6939943465047544e-09 
 5.9204470516057260e-09  6.1559058766146144e-09  6.4007289983560325e-09  6.6552888384583482e-09 
 6.9199726298723073e-09  7.1951830059199948e-09  7.4813386127703961e-09  7.7788747462729677e-09 
 8.0882440141181444e-09  8.4099170243318326e-09  8.7443831011513627e-09  9.0921510293717573e-09 
 9.4537498282944766e-09  9.8297295564561463e-09  1.0220662148361084e-08  1.0627142284490730e-08 
 1.1049788295913043e-08  1.1489243104868136e-08  1.1946175202760723e-08  1.2421279667047238e-08 
 1.2915279218564199e-08  1.3428925320906251e-08  1.3962999323526248e-08  1.4518313650295927e-08 
 1.5095713035335421e-08  1.5696075807991261e-08  1.6320315228917345e-08  1.6969380879291396e-08 
 1.7644260105280199e-08  1.8345979519950199e-08  1.9075606564908740e-08  1.9834251134050847e-08 
 2.0623067261881551e-08  2.1443254878982111e-08  2.2296061637289930e-08  2.3182784807968824e-08 
 2.4104773254756412e-08  2.5063429485790430e-08  2.6060211787034481e-08  2.7096636440548861e-08 
 2.8174280030980337e-08  2.9294781843779059e-08  3.0459846358790947e-08  3.1671245843017880e-08 
 3.2930823046489925e-08  3.4240494005349654e-08  3.5602250956412989e-08  3.7018165367638250e-08 
 3.8490391089115507e-08  4.0021167629365777e-08  4.1612823561935974e-08  4.3267780067470009e-08 
 4.4988554616643827e-08  4.6777764799566288e-08  4.8638132307470383e-08  5.0572487072751260e-08 
 5.2583771573647193e-08  5.4675045310112840e-08  5.6849489457690304e-08  5.9110411706458135e-08 
 6.1461251292417301e-08  6.3905584228967766e-08  6.6447128746431678e-08  6.9089750947896980e-08 
 7.1837470689984205e-08  7.4694467697478951e-08  7.7665087921134327e-08  8.0753850148307576e-08 
 8.3965452876490275e-08  8.7304781460183060e-08  9.0776915541987136e-08  9.4387136779211840e-08 
 9.8140936877753732e-08  1.0204402594546163e-07  1.0610234117769503e-07  1.1032205588828606e-07 
 1.1470958889963735e-07  1.1927161430623985e-07  1.2401507162645745e-07  1.2894717635801978e-07 
 1.3407543095327448e-07  1.3940763623089253e-07  1.4495190324138126e-07  1.5071666560444754e-07 
 1.5671069233698118e-07  1.6294310119115901e-07  1.6942337252295893e-07  1.7616136371217506e-07 
 1.8316732415586097e-07  1.9045191085800481e-07  1.9802620463914290e-07  2.0590172699056395e-07 
 2.1409045759873000e-07  2.2260485256657363e-07  2.3145786335936751e-07  2.4066295650398732e-07 
 2.5023413407151970e-07  2.6018595497436279e-07  2.7053355711020588e-07  2.8129268038655982e-07 
 2.9247969066085089e-07  3.0411160463247747e-07  3.1620611572469014e-07  3.2878162099563737e-07 
 3.4185724911950491e-07  3.5545288948029438e-07  3.6958922242247610e-07  3.8428775070451473e-07 
 3.9957083220309068e-07  4.1546171391774581e-07  4.3198456732764736e-07  4.4916452515424579e-07 
 4.6702771958569507e-07  4.8560132202117475e-07  5.0491358439552570e-07  5.2499388214703178e-07 
 5.4587275889367196e-07  5.6758197288576576e-07  5.9015454530563050e-07  6.1362481048767227e-07 
 6.3802846813527551e-07  6.6340263761384817e-07  6.8978591440256965e-07  7.1721842879065669e-07 
 7.4574190690737027e-07  7.7539973417853211e-07  8.0623702130601537e-07  8.3830067287049363e-07 
 8.7163945866172176e-07  9.0630408784479044e-07  9.4234728607505090e-07  9.7982387567893526e-07 
 1.0187908590225377e-06  1.0593075051946613e-06  1.1014354401360591e-06  1.1452387403518702e-06 
 1.1907840303496406e-06  1.2381405839510139e-06  1.2873804296310749e-06  1.3385784600453702e-06 
 1.3918125459110837e-06  1.4471636544153892e-06  1.5047159723309056e-06  1.5645570340253227e-06 
 1.6267778545596857e-06  1.6914730680775731e-06  1.7587410716953899e-06  1.8286841751124413e-06 
 1.9014087561680000e-06  1.9770254225817265e-06  2.0556491801231234e-06  2.1373996074654832e-06 
 2.2224010379899197e-06  2.3107827488156288e-06  2.4026791573434985e-06  2.4982300256115350e-06 
 2.5975806727725471e-06  2.7008821960166731e-06  2.8082917002742962e-06  2.9199725370481540e-06 
 3.0360945527372843e-06  3.1568343468298605e-06  3.2823755403569354e-06  3.4129090550146688e-06 
 3.5486334033787524e-06  3.6897549906516913e-06  3.8364884284008765e-06  3.9890568607637335e-06 
 4.1476923036150728e-06  4.3126359972113653e-06  4.4841387728471715e-06  4.6624614340801059e-06 
 4.8478751531028482e-06  5.0406618828635749e-06  5.2411147855602312e-06  5.4495386781585705e-06 
 5.6662504956099213e-06  5.8915797724712997e-06  6.1258691436584551e-06  6.3694748650912402e-06 
 6.6227673550209994e-06  6.8861317568608197e-06  7.1599685243719828e-06  7.4446940300941831e-06 
 7.7407411979415209e-06  8.0485601609235139e-06  8.3686189449880427e-06  8.7014041800225994e-06 
 9.0474218390914797e-06  9.4071980070290282e-06  9.7812796795535830e-06  1.0170235594112572e-05 
 1.0574657093717888e-05  1.0995159025079345e-05  1.1432380672396942e-05  1.1886986728225853e-05 
 1.2359668302884088e-05  1.2851143973931367e-05  1.3362160877307495e-05  1.3893495841782117e-05 
 1.4445956568432384e-05  1.5020382856933810e-05  1.5617647880519032e-05  1.6238659511533604e-05 
 1.6884361699593666e-05  1.7555735904429537e-05  1.8253802585582012e-05  1.8979622751203269e-05 
 1.9734299568303738e-05  2.0518980036878073e-05  2.1334856730440815e-05  2.2183169605600110e-05 
 2.3065207883403769e-05  2.3982312005298627e-05  2.4935875666656239e-05  2.5927347930935356e-05 
 2.6958235427671507e-05  2.8030104637611043e-05  2.9144584268436252e-05  3.0303367724666358e-05 
 3.1508215675457363e-05  3.2760958724173331e-05  3.4063500183752031e-05  3.5417818962047751e-05 
 3.6825972561497754e-05  3.8290100197630359e-05  3.9812426041110388e-05  4.1395262588201480e-05 
 4.3041014164719240e-05  4.4752180568744623e-05  4.6531360857577122e-05  4.8381257284622165e-05 
 5.0304679392128823e-05  5.2304548265928581e-05  5.4383900958565380e-05  5.6545895087459015e-05 
 5.8793813615002808e-05  6.1131069817770429e-05  6.3561212452282055e-05  6.6087931125077574e-05 
 6.8715061875144489e-05  7.1446592977063956e-05  7.4286670973565215e-05  7.7239606946518879e-05 
 8.0309883035751812e-05  8.3502159215431625e-05  8.6821280338154723e-05  9.0272283457256777e-05 
 9.3860405438286093e-05  9.7591090870998817e-05  1.0147000029367970e-04  1.0550301874205375e-04 
 1.0969626463552599e-04  1.1405609901398917e-04  1.1858913513894000e-04  1.2330224847320332e-04 
 1.2820258705408387e-04  1.3329758227536979e-04  1.3859496009419525e-04  1.4410275267938750e-04 
 1.4982931051858072e-04  1.5578331500202107e-04  1.6197379150171534e-04  1.6841012296525625e-04 
 1.7510206404443992e-04  1.8205975577952838e-04  1.8929374086085440e-04  1.9681497949025235e-04 
 2.0463486586570659e-04  2.1276524531348181e-04  2.2121843209292494e-04  2.3000722790011779e-04 
 2.3914494109753063e-04  2.4864540669788612e-04  2.5852300713150955e-04  2.6879269382755705e-04 
 2.7947000964066672e-04  2.9057111215579056e-04  3.0211279790518897e-04  3.1411252753286485e-04 
 3.2658845194305747e-04  3.3955943947078899e-04  3.5304510411388648e-04  3.6706583486740597e-04 
 3.8164282620290027e-04  3.9679810973657407e-04  4.1255458713202744e-04  4.2893606428499745e-04 
 4.4596728683924254e-04  4.6367397708461266e-04  4.8208287229015980e-04  5.0122176452719431e-04 
 5.2111954203913819e-04  5.4180623221718931e-04  5.6331304624294596e-04  5.8567242546140870e-04 
 6.0891808955009354e-04  6.3308508655237575e-04  6.5820984484570185e-04  6.8433022711782675e-04 
 7.1148558642694345e-04  7.3971682442423446e-04  7.6906645182028615e-04  7.9957865117964472e-04 
 8.3129934213087807e-04  8.6427624908257518e-04  8.9855897153892205e-04  9.3419905711183396e-04 
 9.7125007732999299e-04  1.0097677063487130e-03  1.0498098026680974e-03  1.0914364939707709e-03 
 1.1347102651942617e-03  1.1796960499570490e-03  1.2264613254614315e-03  1.2750762110004623e-03 
 1.3256135702005897e-03  1.3781491171359515e-03  1.4327615264549860e-03  1.4895325476644125e-03 
 1.5485471237207283e-03  1.6098935140839718e-03  1.6736634223937568e-03  1.7399521289325395e-03 
 1.8088586280464829e-03  1.8804857706995479e-03  1.9549404123419818e-03  2.0323335662800236e-03 
 2.1127805627392531e-03  2.1964012138199463e-03  2.2833199845486651e-03  2.3736661702363818e-03 
 2.4675740803595074e-03  2.5651832291864701e-03  2.6666385333787208e-03  2.7720905168017152e-03 
 2.8816955227864548e-03  2.9956159340921874e-03  3.1140204008217594e-03  3.2370840765537918e-03 
 3.3649888629575316e-03  3.4979236631657983e-03  3.6360846441868817e-03  3.7796755086413414e-03 
 3.9289077761211063e-03  4.0840010744659953e-03  4.2451834412690287e-03  4.4126916359196588e-03 
 4.5867714625051096e-03  4.7676781038933809e-03  4.9556764673274727e-03  5.1510415418655354e-03 
 5.3540587680077538e-03  5.5650244198521158e-03  5.7842460001290555e-03  6.0120426484648820e-03 
 6.2487455632316957e-03  6.4946984373360052e-03  6.7502579083115518e-03  7.0157940230689796e-03 
 7.2916907176684012e-03  7.5783463124694103e-03  7.8761740230200855e-03  8.1856024870353480e-03 
 8.5070763078162106e-03  8.8410566144589958e-03  9.1880216391838493e-03  9.5484673121212123e-03 
 9.9229078738669613e-03  1.0311876506120069e-02  1.0715925980692343e-02  1.1135629327164616e-02 
 1.1571580519455300e-02  1.2024395181526608e-02  1.2494711312457435e-02  1.2983190031044993e-02 
 1.3490516340117931e-02  1.4017399910671606e-02  1.4564575885901090e-02  1.5132805705198586e-02 
 1.5722877948102967e-02  1.6335609198149231e-02  1.6971844926530935e-02  1.7632460395398515e-02 
 1.8318361580578132e-02  1.9030486113418930e-02  1.9769804241390798e-02  2.0537319806992398e-02 
 2.1334071244427981e-02  2.2161132593421021e-02  2.3019614529433605e-02  2.3910665409451203e-02 
 2.4835472332370899e-02  2.5795262212917155e-02  2.6791302867865158e-02  2.7824904113221891e-02 
 2.8897418870849553e-02  3.0010244282877716e-02  3.1164822832055589e-02  3.2362643466044463e-02 
 3.3605242723435340e-02  3.4894205859098075e-02  3.6231167966246564e-02  3.7617815092387687e-02 
 3.9055885346091355e-02  4.0547169991281856e-02  4.2093514525480505e-02  4.3696819738189792e-02 
 4.5359042745322896e-02  4.7082197995282987e-02  4.8868358242039174e-02  5.0719655480196038e-02 
 5.2638281836769746e-02  5.4626490414036402e-02  5.6686596077514119e-02  5.8820976182736309e-02 
 6.1032071234203594e-02  6.3322385469463824e-02  6.5694487360956233e-02  6.8151010027833248e-02 
 7.0694651549652779e-02  7.3328175173374074e-02  7.6054409404757370e-02  7.8876247974840247e-02 
 8.1796649671751001e-02  8.4818638027752427e-02  8.7945300850939906e-02  9.1179789590647584e-02 
 9.4525318525171015e-02  9.7985163759973889e-02  1.0156266202413175e-01  1.0526120925230938e-01 
 1.0908425893907124e-01  1.1303532025191504e-01  1.1711795588886953e-01  1.2133577966598708e-01 
 1.2569245381953745e-01  1.3019168600710740e-01  1.3483722599119669e-01  1.3963286198822367e-01 
 1.4458241666513871e-01  1.4968974276503333e-01  1.5495871834227509e-01  1.6039324158673218e-01 
 1.6599722521559374e-01  1.7177459041013343e-01  1.7772926027345612e-01  1.8386515278386092e-01 
 1.9018617321689038e-01  1.9669620600739068e-01  2.0339910602107369e-01  2.1029868920298800e-01 
 2.1739872256815357e-01  2.2470291349722293e-01  2.3221489829755781e-01  2.3993822998748932e-01 
 2.4787636525880652e-01  2.5603265056977481e-01  2.6441030731820325e-01  2.7301241604140525e-01 
 2.8184189958735745e-01  2.9090150519908459e-01  3.0019378545241171e-01  3.0972107798587589e-01 
 3.1948548396092558e-01  3.2948884519078475e-01  3.3973271987775500e-01  3.5021835690139869e-01 
 3.6094666860448543e-01  3.7191820202982323e-01  3.8313310856964344e-01  3.9459111200028107e-01 
 4.0629147488883127e-01  4.1823296337562288e-01  4.3041381035698173e-01  4.4283167711717902e-01 
 4.5548361348686378e-01  4.6836601663785793e-01  4.8147458866097520e-01  4.9480429311452506e-01 
 5.0834931077615186e-01  5.2210299487930734e-01  5.3605782616747233e-01  5.5020536815336785e-01 
 5.6453622302598017e-01  5.7903998870380891e-01  5.9370521758702233e-01  6.0851937761212993e-01 
 6.2346881625840167e-01  6.3853872819319479e-01  6.5371312727098330e-01  6.6897482361559091e-01 
 6.8430540651406924e-01  6.9968523383116843e-01  7.1509342861285408e-01  7.3050788348371143e-01 
 7.4590527335474943e-01  7.6126107684427902e-01  7.7654960667547612e-01  7.9174404915146834e-01 
 8.0681651262548559e-01  8.2173808468460885e-01  8.3647889755793581e-01  8.5100820105239672e-01 
 8.6529444212336359e-01  8.7930535001553656e-01  8.9300802577753635e-01  9.0636903487729059e-01 
 9.1935450164174892e-01  9.3193020433009433e-01  9.4406166983971140e-01  9.5571426735057285e-01 
 9.6685330064391239e-01  9.7744409938568821e-01  9.8745211033656266e-01  9.9684299021946476e-01 
 1.0055827028125071e+00  1.0136376236946243e+00  1.0209746568951417e+00  1.0275613684136449e+00 
 1.0333661420979194e+00  1.0383583636005258e+00  1.0425086379797723e+00  1.0457890458714310e+00 
 1.0481734419480297e+00  1.0496377975389697e+00  1.0501605867775459e+00  1.0497232124873941e+00 
 1.0483104642982140e+00  1.0459109973370455e+00  1.0425178155041155e+00  1.0381287391204592e+00 
 1.0327468330141858e+00  1.0263807683428960e+00  1.0190450901184802e+00  1.0107603629950426e+00 
 1.0015531708387297e+00  9.9145595124680819e-01  9.8050665466925069e-01  9.6874822900470292e-01 
 9.5622794407137068e-01  9.4299658540085196e-01  9.2910756218599255e-01  9.1461598837362812e-01 
 8.9957780696535783e-01  8.8404903353554609e-01  8.6808519378234705e-01  8.5174101987007755e-01 
 8.3507045027847437e-01  8.1812694766835181e-01  8.0096410999372925e-01  7.8363650435218524e-01 
 7.6620060513215515e-01  7.4871567372851000e-01  7.3124438353854226e-01  7.1385297880723142e-01 
 6.9661076650606890e-01  6.7958878257952937e-01  6.6285755039155281e-01  6.4648395851289542e-01 
 6.3052742006409368e-01  6.1503562349325447e-01  6.0004032582256905e-01  5.8555375031784240e-01 
 5.7156620542659220e-01  5.5804551661270974e-01  5.4493873976558527e-01  5.3217639813694317e-01 
 5.1967916443936224e-01  5.0736652528371473e-01  4.9516656556068539e-01  4.8302566075827247e-01 
 4.7091896164692665e-01  4.5885134322590132e-01  4.4683244241941389e-01  4.3487162031779775e-01 
 4.2297795497264579e-01  4.1116023846223587e-01  3.9942697790359305e-01  3.8778639994030989e-01 
 3.7624645810758778e-01  3.6481484237390066e-01  3.5349899008731667e-01  3.4230609751870911e-01 
 3.3124313119535814e-01  3.2031683825678964e-01  3.0953375513891807e-01  2.9890021399831485e-01 
 2.8842234641971515e-01  2.7810608409908172e-01  2.6795715635292816e-01  2.5798108446306151e-01 
 2.4818317301563017e-01  2.3856849852660164e-01  2.2914189575640079e-01  2.1990794220001939e-01 
 2.1087094129387518e-01  2.0203490490706408e-01  1.9340353568357349e-01  1.8498020977762344e-01 
 1.7676796048099924e-01  1.6876946318332992e-01  1.6098702203890841e-01  1.5342255864137200e-01 
 1.4607760293437136e-01  1.3895328651551425e-01  1.3205033842490113e-01  1.2536908345012132e-01 
 1.1890944292770679e-01  1.1267093797723211e-01  1.0665269506836651e-01  1.0085345379281820e-01 
 9.5271576691697044e-02  8.9905060973531015e-02  8.4751551948181555e-02  7.9808357996363100e-02 
 7.5072466892597042e-02  7.0540563300484180e-02  6.6209047262523260e-02  6.2074053511789434e-02 
 5.8131471439156583e-02  5.4376965557024232e-02  5.0805996308399527e-02  4.7413841078454158e-02 
 4.4195615274156053e-02  4.1146293346134115e-02  3.8260729635484672e-02  3.5533678936707599e-02 
 3.2959816676329939e-02  3.0533758615010564e-02  2.8250079989010225e-02  2.6103334014848701e-02 
 2.4088069688755615e-02  2.2198848820150708e-02  2.0430262245864590e-02  1.8776945179128444e-02 
 1.7233591654518186e-02  1.5794968037028272e-02  1.4455925570263447e-02  1.3211411945362307e-02 
 1.2056481878690279e-02  1.0986306692546287e-02  9.9961828990988762e-03  9.0815397934861080e-03 
 8.2379460674595062e-03  7.4611154601063072e-03  6.7469114670273816e-03  6.0913511338614879e-03 
 5.4906079642131587e-03  4.9410139758455313e-03  4.4390609424266054e-03  3.9814008611567583e-03 
 3.5648456892470879e-03  3.1863663944562974e-03  2.8430913667248842e-03  2.5323042393689539e-03 
 2.2514411693150852e-03  1.9980876264774320e-03  1.7699747426056882e-03  1.5649752698223510e-03 
 1.3810991984832559e-03  1.2164890832290773e-03  1.0694151248866060e-03  9.3827005441692697e-04 
 8.2156386336976379e-04  7.1791842332008884e-04  6.2606203456494556e-04  5.4482394197543954e-04 
 4.7312885336211016e-04  4.0999149305279668e-04  3.5451122063199169e-04  3.0586674198050787e-04 
 2.6331093691426476e-04  2.2616582488015790e-04  1.9381768735292541e-04  1.6571236281551566e-04 
 1.4135072752051979e-04  1.2028437264337705e-04  1.0211148596847297e-04  8.6472943913581230e-05 
 7.3048617510353150e-05  6.1553893930053378e-05  5.1736413283118273e-05  4.3373018734358946e-05 
 3.6266916466182770e-05  3.0245040691042986e-05  2.5155617760142790e-05  2.0865922434795080e-05 
 1.7260218574436993e-05  1.4237875844098994e-05  1.1711653724729123e-05  9.6061446165747723e-06 
 7.8563603120225437e-06  6.4064629756917164e-06  5.2086235190027273e-06  4.2219995285365492e-06 
 3.4118237228287196e-06  2.7485939194280281e-06  2.2073558175837827e-06  1.7670702749124700e-06 
 1.4100571682020876e-06  1.1215083691958230e-06  8.8906282658508698e-07  7.0243721719846220e-07 
 5.5310610503652084e-07  4.3402601980475381e-07  3.3939833126447483e-07  2.6446624725845159e-07 
 2.0534169772471821e-07  1.5885828124205353e-07  1.2244684225735063e-07  9.4030614420654183e-08 
 7.1937207312647141e-08  5.4825029759416080e-08  4.1622032840043229e-08  3.1474919965192071e-08 
 2.3707210743589220e-08  1.7784760739960733e-08  1.3287531860691129e-08  9.8865793404076681e-09 
 7.3253726112591978e-09  5.4047002485192266e-09  3.9705252582078515e-09  2.9042577537753369e-09 
 2.1149990734564909e-09  1.5333860746422578e-09  1.1067280897627592e-09  7.9518313720871849e-10 
 5.6876565462457371e-10  4.0501636676224977e-10  2.8719692402793653e-10  2.0289856317787609e-10 
 1.4297607035298457e-10  0.0000000000000000e+00  0.0000000000000000e+00  0.0000000000000000e+00 
 0.0000000000000000e+00  0.0000000000000000e+00  0.0000000000000000e+00  0.0000000000000000e+00 
 0.0000000000000000e+00  0.0000000000000000e+00  0.0000000000000000e+00  0.0000000000000000e+00 
 0.0000000000000000e+00  0.0000000000000000e+00  0.0000000000000000e+00  0.0000000000000000e+00 
 0.0000000000000000e+00  0.0000000000000000e+00  0.0000000000000000e+00  0.0000000000000000e+00 
 0.0000000000000000e+00  0.0000000000000000e+00  0.0000000000000000e+00  0.0000000000000000e+00 
 0.0000000000000000e+00  0.0000000000000000e+00  0.0000000000000000e+00  0.0000000000000000e+00 
 0.0000000000000000e+00  0.0000000000000000e+00  0.0000000000000000e+00  0.0000000000000000e+00 
 0.0000000000000000e+00  0.0000000000000000e+00  0.0000000000000000e+00  0.0000000000000000e+00 
 0.0000000000000000e+00  0.0000000000000000e+00  0.0000000000000000e+00  0.0000000000000000e+00 
 0.0000000000000000e+00  0.0000000000000000e+00  0.0000000000000000e+00  0.0000000000000000e+00 
 0.0000000000000000e+00  0.0000000000000000e+00  0.0000000000000000e+00  0.0000000000000000e+00 
 0.0000000000000000e+00  0.0000000000000000e+00  0.0000000000000000e+00  0.0000000000000000e+00 
 0.0000000000000000e+00  0.0000000000000000e+00  0.0000000000000000e+00  0.0000000000000000e+00 
 0.0000000000000000e+00  0.0000000000000000e+00  0.0000000000000000e+00  0.0000000000000000e+00 
 0.0000000000000000e+00  0.0000000000000000e+00  0.0000000000000000e+00  0.0000000000000000e+00 
 0.0000000000000000e+00  0.0000000000000000e+00  0.0000000000000000e+00  0.0000000000000000e+00 
 0.0000000000000000e+00  0.0000000000000000e+00  0.0000000000000000e+00  0.0000000000000000e+00 
 0.0000000000000000e+00  0.0000000000000000e+00  0.0000000000000000e+00  0.0000000000000000e+00 
 0.0000000000000000e+00  0.0000000000000000e+00  0.0000000000000000e+00  0.0000000000000000e+00 
 0.0000000000000000e+00  0.0000000000000000e+00  0.0000000000000000e+00  0.0000000000000000e+00 
 0.0000000000000000e+00  0.0000000000000000e+00  0.0000000000000000e+00  0.0000000000000000e+00 
 0.0000000000000000e+00  0.0000000000000000e+00  0.0000000000000000e+00  0.0000000000000000e+00 
 0.0000000000000000e+00  0.0000000000000000e+00  0.0000000000000000e+00  0.0000000000000000e+00 
 0.0000000000000000e+00  0.0000000000000000e+00  0.0000000000000000e+00  0.0000000000000000e+00 
 0.0000000000000000e+00  0.0000000000000000e+00  0.0000000000000000e+00  0.0000000000000000e+00 
 0.0000000000000000e+00  0.0000000000000000e+00  0.0000000000000000e+00  0.0000000000000000e+00 
 0.0000000000000000e+00  0.0000000000000000e+00  0.0000000000000000e+00  0.0000000000000000e+00 
 0.0000000000000000e+00  0.0000000000000000e+00  0.0000000000000000e+00  0.0000000000000000e+00 
 0.0000000000000000e+00  0.0000000000000000e+00  0.0000000000000000e+00  0.0000000000000000e+00 
 0.0000000000000000e+00  0.0000000000000000e+00  0.0000000000000000e+00  0.0000000000000000e+00 
 0.0000000000000000e+00  0.0000000000000000e+00  0.0000000000000000e+00  0.0000000000000000e+00 
 0.0000000000000000e+00  0.0000000000000000e+00  0.0000000000000000e+00  0.0000000000000000e+00 
 0.0000000000000000e+00  0.0000000000000000e+00  0.0000000000000000e+00  0.0000000000000000e+00 
 0.0000000000000000e+00  0.0000000000000000e+00  0.0000000000000000e+00  0.0000000000000000e+00 
 0.0000000000000000e+00  0.0000000000000000e+00  0.0000000000000000e+00  0.0000000000000000e+00 
 0.0000000000000000e+00  0.0000000000000000e+00  0.0000000000000000e+00  0.0000000000000000e+00 
 0.0000000000000000e+00  0.0000000000000000e+00  0.0000000000000000e+00  0.0000000000000000e+00 
 0.0000000000000000e+00  0.0000000000000000e+00  0.0000000000000000e+00  0.0000000000000000e+00 
 0.0000000000000000e+00  0.0000000000000000e+00  0.0000000000000000e+00  0.0000000000000000e+00 
</PP_PSWFC>


<PP_RHOATOM>
 6.1021731723284151e-09  6.2629102049592521e-09  6.4278812036724006e-09  6.5971976951603230e-09 
 6.7709741438348549e-09  6.9493280292095840e-09  7.1323799253204867e-09  7.3202535822386655e-09 
 7.5130760097300911e-09  7.7109775631191762e-09  7.9140920314139011e-09  8.1225567277524161e-09 
 8.3365125822319559e-09  8.5561042371830680e-09  8.7814801449533556e-09  9.0127926682670169e-09 
 9.2501981832279093e-09  9.4938571850358574e-09  9.7439343964875662e-09  1.0000598879335615e-08 
 1.0264024148580719e-08  1.0534388289774595e-08  1.0811874079412660e-08  1.1096669108498039e-08 
 1.1388965909360284e-08  1.1688962085814727e-08  1.1996860446750326e-08  1.2312869143236283e-08 
 1.2637201809240238e-08  1.2970077706053160e-08  1.3311721870518452e-08  1.3662365267165566e-08 
 1.4022244944351055e-08  1.4391604194512413e-08  1.4770692718643280e-08  1.5159766795100930e-08 
 1.5559089452860506e-08  1.5968930649332853e-08  1.6389567452866093e-08  1.6821284230054830e-08 
 1.7264372837982944e-08  1.7719132821530384e-08  1.8185871615877180e-08  1.8664904754341733e-08 
 1.9156556081693566e-08  1.9661157973085145e-08  2.0179051558750404e-08  2.0710586954622231e-08 
 2.1256123499024572e-08  2.1816029995599146e-08  2.2390684962631319e-08  2.2980476888943218e-08 
 2.3585804496527571e-08  2.4207077010099367e-08  2.4844714433747967e-08  2.5499147834876406e-08 
 2.6170819635619994e-08  2.6860183911941081e-08  2.7567706700602482e-08  2.8293866314226650e-08 
 2.9039153664654116e-08  2.9804072594819242e-08  3.0589140219368115e-08  3.1394887274248540e-08 
 3.2221858475508795e-08  3.3070612887547196e-08  3.3941724301062051e-08  3.4835781620957162e-08 
 3.5753389264464846e-08  3.6695167569756443e-08  3.7661753215315624e-08  3.8653799650358675e-08 
 3.9671977536592290e-08  4.0716975201608197e-08  4.1789499104219968e-08  4.2890274312057973e-08 
 4.4020044991744364e-08  4.5179574911979617e-08  4.6369647959881480e-08  4.7591068670924244e-08 
 4.8844662772837649e-08  5.0131277743832226e-08  5.1451783385529465e-08  5.2807072410982987e-08 
 5.4198061048189448e-08  5.5625689659495990e-08  5.7090923377323965e-08  5.8594752756638322e-08 
 6.0138194444603420e-08  6.1722291867878810e-08  6.3348115938018698e-08  6.5016765775452933e-08 
 6.6729369452537718e-08  6.8487084756180124e-08  7.0291099970550130e-08  7.2142634680410550e-08 
 7.4042940595607778e-08  7.5993302397280086e-08  7.7995038606356645e-08  8.0049502474933199e-08 
 8.2158082901128263e-08  8.4322205368037015e-08  8.6543332907418981e-08  8.8822967088770125e-08 
 9.1162649034448133e-08  9.3563960461537708e-08  9.6028524751159299e-08  9.8558008045945665e-08 
 1.0115412037642580e-07  1.0381861681708118e-07  1.0655329867285237e-07  1.0936001469689998e-07 
 1.1224066234044378e-07  1.1519718903552331e-07  1.1823159351154868e-07  1.2134592714653006e-07 
 1.2454229535390158e-07  1.2782285900587495e-07  1.3118983589428665e-07  1.3464550222992537e-07 
 1.3819219418135384e-07  1.4183230945426613e-07  1.4556830891244547e-07  1.4940271824142209e-07 
 1.5333812965595381e-07  1.5737720365248265e-07  1.6152267080775505e-07  1.6577733362482069e-07 
 1.7014406842765500e-07  1.7462582730569213e-07  1.7922564010957677e-07  1.8394661649948846e-07 
 1.8879194804742229e-07  1.9376491039484494e-07  1.9886886546718885e-07  2.0410726374667714e-07 
 2.0948364660502048e-07  2.1500164869755932e-07  2.2066500042047210e-07  2.2647753043271010e-07 
 2.3244316824436380e-07  2.3856594687321189e-07  2.4485000557124605e-07  2.5129959262302093e-07 
 2.5791906821771106e-07  2.6471290739682970e-07  2.7168570307958891e-07  2.7884216916795886e-07 
 2.8618714373351461e-07  2.9372559228823432e-07  3.0146261114145164e-07  3.0940343084524164e-07 
 3.1755341973055956e-07  3.2591808753653083e-07  3.3450308913534302e-07  3.4331422835525791e-07 
 3.5235746190432717e-07  3.6163890339747269e-07  3.7116482748964098e-07  3.8094167411783537e-07 
 3.9097605285489627e-07  4.0127474737796061e-07  4.1184472005463885e-07  4.2269311664999398e-07 
 4.3382727115751887e-07  4.4525471075736586e-07  4.5698316090519259e-07  4.6902055055505586e-07 
 4.8137501751989110e-07  4.9405491397319616e-07  5.0706881209564318e-07  5.2042550987044104e-07 
 5.3413403703135283e-07  5.4820366116740467e-07  5.6264389398840582e-07  5.7746449775552072e-07 
 5.9267549188123549e-07  6.0828715970318787e-07  6.2431005543643695e-07  6.4075501130887166e-07 
 6.5763314488459167e-07  6.7495586658020358e-07  6.9273488737911604e-07  7.1098222674905152e-07 
 7.2971022076813828e-07  7.4893153046505366e-07  7.6865915037888185e-07  7.8890641734446497e-07 
 8.0968701950918155e-07  8.3101500558726634e-07  8.5290479435790810e-07  8.7537118441357261e-07 
 8.9842936416511166e-07  9.2209492211046340e-07  9.4638385737385159e-07  9.7131259052262765e-07 
 9.9689797466907323e-07  1.0231573068646626e-06  1.0501083397944955e-06  1.0777692937798109e-06 
 1.1061588690966800e-06  1.1352962586192445e-06  1.1652011607960188e-06  1.1958937929680424e-06 
 1.2273949050378970e-06  1.2597257934988169e-06  1.2929083158333956e-06  1.3269649052916299e-06 
 1.3619185860582648e-06  1.3977929888197379e-06  1.4346123667412241e-06  1.4724016118646054e-06 
 1.5111862719384385e-06  1.5509925676913103e-06  1.5918474105602801e-06  1.6337784208863620e-06 
 1.6768139465894089e-06  1.7209830823349663e-06  1.7663156892061244e-06  1.8128424148936142e-06 
 1.8605947144178599e-06  1.9096048713969593e-06  1.9599060198750109e-06  2.0115321667255448e-06 
 2.0645182146451741e-06  2.1188999857531177e-06  2.1747142458124367e-06  2.2319987290894762e-06 
 2.2907921638682479e-06  2.3511342986370873e-06  2.4130659289652469e-06  2.4766289250876213e-06 
 2.5418662602163066e-06  2.6088220395980611e-06  2.6775415303374553e-06  2.7480711920057489e-06 
 2.8204587080563256e-06  2.8947530180678476e-06  2.9710043508370349e-06  3.0492642583433761e-06 
 3.1295856506088383e-06  3.2120228314760844e-06  3.2966315353294595e-06  3.3834689647836164e-06 
 3.4725938293652236e-06  3.5640663852139663e-06  3.6579484758297314e-06  3.7543035738935193e-06 
 3.8531968241904250e-06  3.9546950876636877e-06  4.0588669866296814e-06  4.1657829511844165e-06 
 4.2755152668330197e-06  4.3881381233743452e-06  4.5037276650739024e-06  4.6223620421589764e-06 
 4.7441214636709421e-06  4.8690882517103586e-06  4.9973468971117852e-06  5.1289841165858291e-06 
 5.2640889113672483e-06  5.4027526274087700e-06  5.5450690171613947e-06  5.6911343029829916e-06 
 5.8410472422181954e-06  5.9949091939936643e-06  6.1528241877738581e-06  6.3148989937238967e-06 
 6.4812431949270908e-06  6.6519692615060346e-06  6.8271926266975839e-06  7.0070317649331614e-06 
 7.1916082719773091e-06  7.3810469471788030e-06  7.5754758778900938e-06  7.7750265261122301e-06 
 7.9798338174239836e-06  8.1900362322554919e-06  8.4057758995682227e-06  8.6271986930048107e-06 
 8.8544543295739710e-06  9.0876964709372305e-06  9.3270828273663465e-06  9.5727752644417896e-06 
 9.8249399125646640e-06  1.0083747279356321e-05  1.0349372365021862e-05  1.0621994780755892e-05 
 1.0901798870270648e-05  1.1188973834529200e-05  1.1483713859768039e-05  1.1786218248896125e-05 
 1.2096691556359588e-05  1.2415343726563363e-05  1.2742390235943978e-05  1.3078052238789731e-05 
 1.3422556716907330e-05  1.3776136633236638e-05  1.4139031089517687e-05  1.4511485488117148e-05 
 1.4893751698124097e-05  1.5286088225828026e-05  1.5688760389694541e-05  1.6102040499958153e-05 
 1.6526208042953667e-05  1.6961549870311775e-05  1.7408360393147366e-05  1.7866941781372409e-05 
 1.8337604168269085e-05  1.8820665860462138e-05  1.9316453553433444e-05  1.9825302552724831e-05 
 2.0347557000980628e-05  2.0883570110983213e-05  2.1433704404841046e-05  2.1998331959491564e-05 
 2.2577834658686141e-05  2.3172604451628735e-05  2.3783043618444132e-05  2.4409565042656930e-05 
 2.5052592490866604e-05  2.5712560899809194e-05  2.6389916671001689e-05  2.7085117973169268e-05 
 2.7798635052662065e-05  2.8530950552073010e-05  2.9282559837274278e-05  3.0053971333094749e-05 
 3.0845706867868804e-05  3.1658302027090086e-05  3.2492306516413237e-05  3.3348284534250348e-05 
 3.4226815154217320e-05  3.5128492717690805e-05  3.6053927236745137e-05  3.7003744807743324e-05 
 3.7978588035866278e-05  3.8979116470869693e-05  4.0006007054367306e-05  4.1059954578946529e-05 
 4.2141672159431035e-05  4.3251891716612696e-05  4.4391364473784706e-05  4.5560861466415947e-05 
 4.6761174065316395e-05  4.7993114513652127e-05  4.9257516478178672e-05  5.0555235615070626e-05 
 5.1887150150737045e-05  5.3254161478020722e-05  5.4657194768191310e-05  5.6097199599153661e-05 
 5.7575150600302828e-05  5.9092048114469951e-05  6.0648918877414620e-05  6.2246816715332015e-05 
 6.3886823260854797e-05  6.5570048688045007e-05  6.7297632466881306e-05  6.9070744137763237e-05 
 7.0890584106567551e-05  7.2758384460805257e-05  7.4675409807444733e-05  7.6642958132979371e-05 
 7.8662361686336087e-05  8.0734987885234922e-05  8.2862240246630282e-05  8.5045559341876374e-05 
 8.7286423777280714e-05  8.9586351200727983e-05  9.1946899335071614e-05  9.4369667039013045e-05 
 9.6856295396206393e-05  9.9408468833347722e-05  1.0202791626802629e-04  1.0471641228714243e-04 
 1.0747577835670882e-04  1.1030788406388605e-04  1.1321464839211703e-04  1.1619804103025489e-04 
 1.1926008371659937e-04  1.2240285161878691e-04  1.2562847475049965e-04  1.2893913942598853e-04 
 1.3233708975343835e-04  1.3582462916821665e-04  1.3940412200709633e-04  1.4307799512455383e-04 
 1.4684873955229092e-04  1.5071891220314737e-04  1.5469113762061411e-04  1.5876810977518446e-04 
 1.6295259390881607e-04  1.6724742842881858e-04  1.7165552685250585e-04  1.7617987980400298e-04 
 1.8082355706462965e-04  1.8558970967832216e-04  1.9048157211360114e-04  1.9550246448362898e-04 
 2.0065579482595209e-04  2.0594506144356071e-04  2.1137385530895219e-04  2.1694586253292764e-04 
 2.2266486689989784e-04  2.2853475247153887e-04  2.3455950626067072e-04  2.4074322097730424e-04 
 2.4709009784884512e-04  2.5360444951650745e-04  2.6029070301004708e-04  2.6715340280298515e-04 
 2.7419721395055508e-04  2.8142692531267396e-04  2.8884745286430092e-04  2.9646384309562051e-04 
 3.0428127650455568e-04  3.1230507118418916e-04  3.2054068650774965e-04  3.2899372691389537e-04 
 3.3766994579511255e-04  3.4657524949211898e-04  3.5571570139726486e-04  3.6509752616999770e-04 
 3.7472711406755596e-04  3.8461102539415377e-04  3.9475599507200559e-04  4.0516893733765879e-04 
 4.1585695056718024e-04  4.2682732223388846e-04  4.3808753400238564e-04  4.4964526696280791e-04 
 4.6150840700929282e-04  4.7368505036681033e-04  4.8618350927061646e-04  4.9901231780272886e-04 
 5.1218023788994927e-04  5.2569626546811350e-04  5.3956963681737840e-04  5.5380983507351917e-04 
 5.6842659692034933e-04  5.8342991946855663e-04  5.9883006732640504e-04  6.1463757986791206e-04 
 6.3086327870431826e-04  6.4751827536482396e-04  6.6461397919276256e-04  6.8216210546360881e-04 
 7.0017468373137438e-04  7.1866406641018978e-04  7.3764293759809893e-04  7.5712432215028754e-04 
 7.7712159500922665e-04  7.9764849079945921e-04  8.1871911369499708e-04  8.4034794756756767e-04 
 8.6254986642423520e-04  8.8534014514316352e-04  9.0873447051664444e-04  9.3274895261075596e-04 
 9.5740013645138010e-04  9.8270501404661278e-04  1.0086810367559446e-03  1.0353461280169539e-03 
 1.0627186964405969e-03  1.0908176492866119e-03  1.1196624063308813e-03  1.1492729141370618e-03 
 1.1796696607452141e-03  1.2108736907905705e-03  1.2429066210660989e-03  1.2757906565429430e-03 
 1.3095486068633849e-03  1.3442039033214012e-03  1.3797806163465577e-03  1.4163034735074041e-03 
 1.4537978780512295e-03  1.4922899279975863e-03  1.5318064358036435e-03  1.5723749486200979e-03 
 1.6140237691570278e-03  1.6567819771798463e-03  1.7006794516561553e-03  1.7457468935752210e-03 
 1.7920158494624501e-03  1.8395187356121925e-03  1.8882888630630064e-03  1.9383604633405071e-03 
 1.9897687149937845e-03  2.0425497709524384e-03  2.0967407867322914e-03  2.1523799495188757e-03 
 2.2095065081590435e-03  2.2681608040920251e-03  2.3283843032526758e-03  2.3902196289808113e-03 
 2.4537105959719320e-03  2.5189022453059357e-03  2.5858408805920032e-03  2.6545741052692398e-03 
 2.7251508611042547e-03  2.7976214679286313e-03  2.8720376646607592e-03  2.9484526516584844e-03 
 3.0269211344508039e-03  3.1074993688988747e-03  3.1902452078385632e-03  3.2752181492590048e-03 
 3.3624793860738294e-03  3.4520918575440150e-03  3.5441203024139233e-03  3.6386313138244142e-03 
 3.7356933960697976e-03  3.8353770232680694e-03  3.9377547000168638e-03  4.0429010241105536e-03 
 4.1508927513971361e-03  4.2618088628569757e-03  4.3757306339887629e-03  4.4927417065920190e-03 
 4.6129281630389006e-03  4.7363786031324453e-03  4.8631842236523401e-03  4.9934389006937550e-03 
 5.1272392749093397e-03  5.2646848397693742e-03  5.4058780329598608e-03  5.5509243310438551e-03 
 5.6999323475166929e-03  5.8530139343914937e-03  6.0102842874573733e-03  6.1718620553591914e-03 
 6.3378694526541211e-03  6.5084323770072620e-03  6.6836805306958787e-03  6.8637475465991356e-03 
 7.0487711188584748e-03  7.2388931384017915e-03  7.4342598335333313e-03  7.6350219158004464e-03 
 7.8413347313576361e-03  8.0533584180585063e-03  8.2712580685164721e-03  8.4952038993862528e-03 
 8.7253714271292755e-03  8.9619416505383794e-03  9.2051012403097775e-03  9.4550427359629315e-03 
 9.7119647504232912e-03  9.9760721825968950e-03  1.0247576438281024e-02  1.0526695659770722e-02 
 1.0813654964537784e-02  1.1108686693375823e-02  1.1412030668423150e-02  1.1723934461494449e-02 
 1.2044653673171498e-02  1.2374452223124464e-02  1.2713602652156654e-02  1.3062386436488499e-02 
 1.3421094314820164e-02  1.3790026628737339e-02  1.4169493677050301e-02  1.4559816084683942e-02 
 1.4961325186765108e-02  1.5374363428582399e-02  1.5799284782126197e-02  1.6236455179947724e-02 
 1.6686252967111240e-02  1.7149069372048128e-02  1.7625308997159580e-02  1.8115390330052696e-02 
 1.8619746276336096e-02  1.9138824714943506e-02  1.9673089076997441e-02  2.0223018949272135e-02 
 2.0789110703363242e-02  2.1371878151721573e-02  2.1971853231761613e-02  2.2589586719310082e-02 
 2.3225648972717321e-02  2.3880630709014014e-02  2.4555143813558465e-02  2.5249822184684211e-02 
 2.5965322614925672e-02  2.6702325710470771e-02  2.7461536850561921e-02  2.8243687188644569e-02 
 2.9049534697141187e-02  2.9879865257812475e-02  3.0735493799752850e-02  3.1617265487158583e-02 
 3.2526056959097993e-02  3.3462777623612383e-02  3.4428371008574946e-02  3.5423816171841239e-02 
 3.6450129173330958e-02  3.7508364611795339e-02  3.8599617229139224e-02  3.9725023585287809e-02 
 4.0885763806713590e-02  4.2083063411866940e-02  4.3318195216887324e-02  4.4592481325110941e-02 
 4.5907295204031279e-02  4.7264063853515940e-02  4.8664270069235314e-02  5.0109454805411895e-02 
 5.1601219641160191e-02  5.3141229354851882e-02  5.4731214611106173e-02  5.6372974765181716e-02 
 5.8068380789719015e-02  5.9819378328965833e-02  6.1627990885798532e-02  6.3496323147042913e-02 
 6.5426564452785191e-02  6.7420992415559114e-02  6.9481976695488931e-02  7.1611982937666116e-02 
 7.3813576878236864e-02  7.6089428625872438e-02  7.8442317125503619e-02  8.0875134811386140e-02 
 8.3390892456773003e-02  8.5992724227658787e-02  8.8683892948253518e-02  9.1467795586031103e-02 
 9.4347968964379303e-02  9.7328095711050305e-02  1.0041201045077812e-01  1.0360370625058110e-01 
 1.0690734132641390e-01  1.1032724601995578e-01  1.1386793005443840e-01  1.1753409007850371e-01 
 1.2133061750715549e-01  1.2526260666891273e-01  1.2933536326828871e-01  1.3355441317270533e-01 
 1.3792551153291274e-01  1.4245465224587736e-01  1.4714807776898720e-01  1.5201228929423830e-01 
 1.5705405729083038e-01  1.6228043242431173e-01  1.6769875686005975e-01  1.7331667595845535e-01 
 1.7914215036860684e-01  1.8518346852689518e-01  1.9144925956593198e-01  1.9794850663874403e-01 
 2.0469056066211333e-01  2.1168515448199759e-01  2.1894241746282844e-01  2.2647289050121527e-01 
 2.3428754146317343e-01  2.4239778104241178e-01  2.5081547903549900e-01  2.5955298102776320e-01 
 2.6862312548169320e-01  2.7803926121726324e-01  2.8781526527105600e-01  2.9796556111826455e-01 
 3.0850513723861539e-01  3.1944956600394192e-01  3.3081502286155007e-01  3.4261830578361019e-01 
 3.5487685494861504e-01  3.6760877261638758e-01  3.8083284315322791e-01  3.9456855315853917e-01 
 4.0883611163859279e-01  4.2365647016708219e-01  4.3905134296560766e-01  4.5504322683033627e-01 
 4.7165542082375078e-01  4.8891204564250035e-01  5.0683806256412856e-01  5.2545929186658746e-01 
 5.4480243060514688e-01  5.6489506962143810e-01  5.8576570964900787e-01  6.0744377636881475e-01 
 6.2995963425662349e-01  6.5334459905221065e-01  6.7763094866771678e-01  7.0285193233929744e-01 
 7.2904177781252533e-01  7.5623569633772936e-01  7.8446988523662586e-01  8.1378152778626589e-01 
 8.4420879015045569e-01  8.7579081507238654e-01  9.0856771202549347e-01  9.4258054350209730e-01 
 9.7787130710181625e-01  1.0144829130635766e+00  1.0524591568666497e+00  1.0918446865074345e+00 
 1.1326849640397825e+00  1.1750262209475848e+00  1.2189154068991557e+00  1.2644001314138176e+00 
 1.3115285979520399e+00  1.3603495299216652e+00  1.4109120880742800e+00  1.4632657787478931e+00 
 1.5174603523947821e+00  1.5735456918170594e+00  1.6315716895173384e+00  1.6915881135580153e+00 
 1.7536444613109090e+00  1.8177898004688164e+00  1.8840725966836365e+00  1.9525405271912819e+00 
 2.0232402797833808e+00  2.0962173364895609e+00  2.1715157413434358e+00  2.2491778516205558e+00 
 2.3292440719590619e+00  2.4117525708045013e+00  2.4967389786605074e+00  2.5842360676784706e+00 
 2.6742734121833043e+00  2.7668770298108245e+00  2.8620690030269382e+00  2.9598670809117396e+00 
 3.0602842612249637e+00  3.1633283529249363e+00  3.2690015194938993e+00  3.3772998036293664e+00 
 3.4882126340976409e+00  3.6017223158117675e+00  3.7178035044945856e+00  3.8364226676187414e+00 
 3.9575375336794543e+00  4.0810965322526069e+00  4.2070382277181402e+00  4.3352907499844804e+00 
 4.4657712260295916e+00  4.5983852165723214e+00  4.7330261626969126e+00  4.8695748477643832e+00 
 5.0078988804457145e+00  5.1478522051904223e+00  5.2892746468853691e+00  5.4319914968454190e+00 
 5.5758131475936699e+00  5.7205347841140073e+00  5.8659361393773954e+00  6.0117813219365539e+00 
 6.1578187232380870e+00  6.3037810120060191e+00  6.4493852225995791e+00  6.5943329436430993e+00 
 6.7383106124750256e+00  6.8809899200862139e+00  7.0220283302436588e+00  7.1610697154650680e+00 
 7.2977451114748666e+00  7.4316735907940341e+00  7.5624632552657127e+00  7.6897123466696211e+00 
 7.8130104742067807e+00  7.9319399576093268e+00  8.0460772850053743e+00  8.1549946854759447e+00 
 8.2582618174838434e+00  8.3554475759893716e+00  8.4461220230033671e+00  8.5298584484119697e+00 
 8.6062355699222230e+00  8.6748398826388016e+00  8.7352681697440637e+00  8.7871301856169737e+00 
 8.8300515210630159e+00  8.8636766567056142e+00  8.8876722046180330e+00  8.9017303296518264e+00 
 8.9055723304911218e+00  8.8989523462929903e+00  8.8816611382029134e+00  8.8535298767344166e+00 
 8.8144338470183463e+00  8.7642959656837327e+00  8.7030899873966536e+00  8.6308432678839786e+00 
 8.5476389457445539e+00  8.4536174095542975e+00  8.3489769314113609e+00  8.2339733742221419e+00 
 8.1089189178576166e+00  7.9741797977928730e+00  7.8301731066026390e+00  7.6773627699095339e+00 
 7.5162548689167759e+00  7.3473925352558229e+00  7.1713506836563301e+00  6.9887308669966597e+00 
 6.8001565304845846e+00  6.6062689026010641e+00  6.4077236882257775e+00  6.2051886258928555e+00 
 5.9993418426725409e+00  5.7908707979475764e+00  5.5804714673935703e+00  5.3688473007582234e+00 
 5.1567074135067532e+00  4.9447634639040414e+00  4.7337247394079256e+00  4.5242911357719162e+00 
 4.3171439524221604e+00  4.1129347270612984e+00  3.9122726557888372e+00  3.7157114474847042e+00 
 3.5237366955483354e+00  3.3367549751496450e+00  3.1550858623402771e+00  2.9789698424584188e+00 
 2.8086193219210469e+00  2.6442103692281655e+00  2.4858750184484721e+00  2.3337019754464405e+00 
 2.1877376719878172e+00  2.0479876499103709e+00  1.9144182483110901e+00  1.7869585590892336e+00 
 1.6655026119469207e+00  1.5499117507401912e+00  1.4400366961225370e+00  1.3357812709396555e+00 
 1.2370503576355303e+00  1.1437326229853850e+00  1.0557021200290233e+00  9.7281990677648844e-01 
 8.9493566599915320e-01  8.2188931057867953e-01  7.5351255939541106e-01  6.8963046959177288e-01 
 6.3006291222036570e-01  5.7462597973819496e-01  5.2313331548231967e-01  4.7539735709241704e-01 
 4.3123048776213790e-01  3.9044609113167061e-01  3.5285950751060940e-01  3.1828889088395473e-01 
 2.8655596775103731e-01  2.5748670023676162e-01  2.3091185707109221e-01  2.0666749694151132e-01 
 1.8459536938400334e-01  1.6454323880297742e-01  1.4636513742207519e-01  1.2992155299687802e-01 
 1.1507955700332420e-01  1.0171287879063617e-01  8.9701930892429879e-02  7.8933790358571759e-02 
 6.9302140632514220e-02  6.0707178176204482e-02  5.3055487751617308e-02  4.6259890013100921e-02 
 4.0239264849720957e-02  3.4918353738144406e-02  3.0227544217968316e-02  2.6102639474179914e-02 
 2.2484615896440633e-02  1.9319371373354727e-02  1.6557466964315780e-02  1.4153864466110564e-02 
 1.2067662252392062e-02  1.0261831609530389e-02  8.7029556220711152e-03  7.3609724764476716e-03 
 6.2089248552412201e-03  5.2227168894538635e-03  4.3808799267301222e-03  3.6643481631523276e-03 
 3.0562449789900276e-03  2.5416806181614631e-03  2.1075616603125498e-03  1.7424125559751453e-03 
 1.4362093313206028e-03  1.1802254211033096e-03  9.6688945747451071e-04  7.8965472891365370e-04 
 6.4287992759135318e-04  5.2172072466712019e-04  4.2203165062715492e-04  3.4027771080720319e-04 
 2.7345513354393056e-04  2.1902062863284736e-04  1.7482852552928727e-04  1.3907516255715543e-04 
 1.1024990883396268e-04  8.7092218260382626e-05  6.8554138401562747e-05  5.3767725134023277e-05 
 4.2016845375899910e-05  3.2712884001587021e-05  2.5373906225394797e-05  1.9606862504634582e-05 
 1.5092458662621825e-05  1.1572348884623662e-05  8.8383430229640922e-06  6.7233518917010290e-06 
 5.0938246600186105e-06  3.8434608736058949e-06  2.8880059249027631e-06  2.1609628992884290e-06 
 1.6100756412553287e-06  1.1944576521353818e-06  8.8225912356529926e-07  6.4878012978966410e-07 
 4.7495186770309139e-07  3.4611997984197760e-07  2.5107456348856254e-07  1.8128060267122200e-07 
 1.3027040224758002e-07  9.3166293608874817e-08  6.6307552740702589e-08  4.6960248344915004e-08 
 3.3092736261988368e-08  2.3202842563791339e-08  1.6185527301674720e-08  1.1232079874073154e-08 
 7.7537413981252396e-09  5.3241461066257916e-09  3.6361807138128491e-09  2.4698279538775565e-09 
 1.6683308698372271e-09  1.1206241694859591e-09  7.4845854355348378e-10  4.9701867181604823e-10 
 3.2812675174630983e-10  2.1534803314317215e-10  1.4048709390400617e-10  9.1094816388081950e-11 
 5.8705343566649290e-11  3.7596974439445719e-11  2.3926741265441303e-11  1.5129801678553732e-11 
 9.5052841422988690e-12  5.9325559361614966e-12  3.6781179213358893e-12  2.2650523033641666e-12 
 1.3853541664189840e-12  8.4146121303019301e-13  5.0752600448987838e-13  3.0394366404377339e-13 
 1.8071643461100807e-13  1.0666712538446721e-13  6.2495681665498029e-14  3.6342399272740141e-14 
 2.0973861715446496e-14  1.2011601538545163e-14  6.8255412671407254e-15  3.8480646409850368e-15 
 2.1521454165898582e-15  1.1939312153197774e-15  6.5693066287752259e-16  3.5846456277643784e-16 
 1.9396062686351050e-16  1.0396377054997456e-16  5.5299136135665189e-17  2.9158030833315626e-17 
 1.5239346392268066e-17  7.8944427416056283e-18  4.0535078499912171e-18  2.0632961912306186e-18 
 1.0416025446844116e-18  5.2202906079069669e-19  2.6032053265215087e-19  0.0000000000000000e+00 
 0.0000000000000000e+00  0.0000000000000000e+00  0.0000000000000000e+00  0.0000000000000000e+00 
 0.0000000000000000e+00  0.0000000000000000e+00  0.0000000000000000e+00  0.0000000000000000e+00 
 0.0000000000000000e+00  0.0000000000000000e+00  0.0000000000000000e+00  0.0000000000000000e+00 
 0.0000000000000000e+00  0.0000000000000000e+00  0.0000000000000000e+00  0.0000000000000000e+00 
 0.0000000000000000e+00  0.0000000000000000e+00  0.0000000000000000e+00  0.0000000000000000e+00 
 0.0000000000000000e+00  0.0000000000000000e+00  0.0000000000000000e+00  0.0000000000000000e+00 
 0.0000000000000000e+00  0.0000000000000000e+00  0.0000000000000000e+00  0.0000000000000000e+00 
 0.0000000000000000e+00  0.0000000000000000e+00  0.0000000000000000e+00  0.0000000000000000e+00 
 0.0000000000000000e+00  0.0000000000000000e+00  0.0000000000000000e+00  0.0000000000000000e+00 
 0.0000000000000000e+00  0.0000000000000000e+00  0.0000000000000000e+00  0.0000000000000000e+00 
 0.0000000000000000e+00  0.0000000000000000e+00  0.0000000000000000e+00  0.0000000000000000e+00 
 0.0000000000000000e+00  0.0000000000000000e+00  0.0000000000000000e+00  0.0000000000000000e+00 
 0.0000000000000000e+00  0.0000000000000000e+00  0.0000000000000000e+00  0.0000000000000000e+00 
 0.0000000000000000e+00  0.0000000000000000e+00  0.0000000000000000e+00  0.0000000000000000e+00 
 0.0000000000000000e+00  0.0000000000000000e+00  0.0000000000000000e+00  0.0000000000000000e+00 
 0.0000000000000000e+00  0.0000000000000000e+00  0.0000000000000000e+00  0.0000000000000000e+00 
 0.0000000000000000e+00  0.0000000000000000e+00  0.0000000000000000e+00  0.0000000000000000e+00 
 0.0000000000000000e+00  0.0000000000000000e+00  0.0000000000000000e+00  0.0000000000000000e+00 
 0.0000000000000000e+00  0.0000000000000000e+00  0.0000000000000000e+00  0.0000000000000000e+00 
 0.0000000000000000e+00  0.0000000000000000e+00  0.0000000000000000e+00  0.0000000000000000e+00 
 0.0000000000000000e+00  0.0000000000000000e+00  0.0000000000000000e+00  0.0000000000000000e+00 
 0.0000000000000000e+00  0.0000000000000000e+00  0.0000000000000000e+00  0.0000000000000000e+00 
 0.0000000000000000e+00  0.0000000000000000e+00  0.0000000000000000e+00  0.0000000000000000e+00 
 0.0000000000000000e+00  0.0000000000000000e+00  0.0000000000000000e+00  0.0000000000000000e+00 
 0.0000000000000000e+00  0.0000000000000000e+00  0.0000000000000000e+00  0.0000000000000000e+00 
 0.0000000000000000e+00  0.0000000000000000e+00  0.0000000000000000e+00  0.0000000000000000e+00 
 0.0000000000000000e+00  0.0000000000000000e+00  0.0000000000000000e+00  0.0000000000000000e+00 
 0.0000000000000000e+00  0.0000000000000000e+00  0.0000000000000000e+00  0.0000000000000000e+00 
 0.0000000000000000e+00  0.0000000000000000e+00  0.0000000000000000e+00  0.0000000000000000e+00 
 0.0000000000000000e+00  0.0000000000000000e+00  0.0000000000000000e+00  0.0000000000000000e+00 
 0.0000000000000000e+00  0.0000000000000000e+00  0.0000000000000000e+00  0.0000000000000000e+00 
 0.0000000000000000e+00  0.0000000000000000e+00  0.0000000000000000e+00  0.0000000000000000e+00 
 0.0000000000000000e+00  0.0000000000000000e+00  0.0000000000000000e+00  0.0000000000000000e+00 
 0.0000000000000000e+00  0.0000000000000000e+00  0.0000000000000000e+00  0.0000000000000000e+00 
 0.0000000000000000e+00  0.0000000000000000e+00  0.0000000000000000e+00  0.0000000000000000e+00 
 0.0000000000000000e+00  0.0000000000000000e+00  0.0000000000000000e+00  0.0000000000000000e+00 
 0.0000000000000000e+00  0.0000000000000000e+00  0.0000000000000000e+00  0.0000000000000000e+00 
 0.0000000000000000e+00  0.0000000000000000e+00  0.0000000000000000e+00  0.0000000000000000e+00 
 0.0000000000000000e+00  0.0000000000000000e+00  0.0000000000000000e+00  0.0000000000000000e+00 
 0.0000000000000000e+00  0.0000000000000000e+00  0.0000000000000000e+00  0.0000000000000000e+00 
 0.0000000000000000e+00  0.0000000000000000e+00  0.0000000000000000e+00  0.0000000000000000e+00 
 0.0000000000000000e+00  0.0000000000000000e+00  0.0000000000000000e+00  0.0000000000000000e+00 
 0.0000000000000000e+00  0.0000000000000000e+00  0.0000000000000000e+00  0.0000000000000000e+00 
 0.0000000000000000e+00  0.0000000000000000e+00  0.0000000000000000e+00  0.0000000000000000e+00 
 0.0000000000000000e+00  0.0000000000000000e+00  0.0000000000000000e+00  0.0000000000000000e+00 
</PP_RHOATOM>
