  <PP_INFO>

############################################################
#    Opium Parameter File                                  #
############################################################
#-----------------------------------------------------------
#Command line   : opium pb p.log ae ps nl tc rpt upf 
 
#Opium version  : 3.7 
#Compile Host   : pzt.wm.edu 
#Compile OS     : Linux 2.6.9-42.ELsmp x86_64 
#Compile Date   : Mon Apr 27 12:45:31 EDT 2009 
#-----------------------------------------------------------
#Execution Host : whoville2.chem.upenn.edu 
#Execution Date : Sun Nov 23 17:46:55 2014
 
#-----------------------------------------------------------
############################################################
[Atom]
Pb
15
100 2.00  -
200 2.00  -
210 6.00  -
300 2.00  -
310 6.00  -
320 10.0  -
400 2.00  -
410 6.00  -
500 2.00  -
510 6.00  -
420 10.0  -
430 14.0  -
600 2.00  -
610 0.00  -
520 10.0  -

[Pseudo]
3 1.70 1.80 1.72
opt

[Optinfo]
6.15 10
5.30 10
7.07 10

[XC]
pbesol              # lda(PZ) or gga(PBE)

[Relativity]
srl              # nrl / srl / frl

[Configs]
6               # number of valence configurations
#
600 2.00 -1.0   # nlm occ eigen(- means auto-generate)
610 0.00 -1.0
520 8.00 -1.0
#
600 2.00 -1.0   # nlm occ eigen(- means auto-generate)
610 0.00 -1.0
520 9.00 -1.0
#
600 2.00 -1.0   # nlm occ eigen(- means auto-generate)
610 0.00 -1.0
520 10.00 -1.0
#
600 2.00 -1.0   # nlm occ eigen(- means auto-generate)
610 0.50 -1.0
520 10.00 -1.0
#
600 2.00 -1.0
610 1.00 -1.0
520 10.00 -1.0
#
600 2.00 -1.0
610 2.00 -1.0
520 10.00 -1.0
############################################################
  </PP_INFO>



<PP_HEADER>
   0         Version Number
   Pb        Element
   NC        Norm - Conserving pseudopotential
    F      Nonlinear Core Correction
SLA  PZ   NOGX NOGC    PZ   Exchange-Correlation functional
 14          Z valence
 0          Total energy
 0.000000   0.000000     Suggested cutoff for wfc and rho
 2           Max angular momentum component
 1189           Number of points in mesh
 3  2     Number of Wavefuncitons, Number of Projectors
 Wavefunctions         nl  l   occ
                       S  0  2.000000
                       P  1  0.000000
                       D  2  10.000000
</PP_HEADER>
<PP_MESH>
  <PP_R>
 2.3017706561202741e-05  2.3318890198483083e-05  2.3624014783708189e-05  2.3933131883659182e-05 
 2.4246293739861680e-05  2.4563553277414757e-05  2.4884964113935331e-05  2.5210580568619784e-05 
 2.5540457671423959e-05  2.5874651172363355e-05  2.6213217550935055e-05  2.6556214025662855e-05 
 2.6903698563767358e-05  2.7255729890962542e-05  2.7612367501380597e-05  2.7973671667626460e-05 
 2.8339703450964194e-05  2.8710524711636392e-05  2.9086198119318672e-05  2.9466787163711084e-05 
 2.9852356165267968e-05  3.0242970286068281e-05  3.0638695540828126e-05  3.1039598808057473e-05 
 3.1445747841362588e-05  3.1857211280896814e-05  3.2274058664960764e-05  3.2696360441754473e-05 
 3.3124187981283334e-05  3.3557613587419810e-05  3.3996710510122929e-05  3.4441552957817709e-05 
 3.4892216109936631e-05  3.5348776129624939e-05  3.5811310176612673e-05  3.6279896420254625e-05 
 3.6754614052741266e-05  3.7235543302482368e-05  3.7722765447665771e-05  3.8216362829993665e-05 
 3.8716418868598504e-05  3.9223018074140926e-05  3.9736246063092448e-05  4.0256189572204752e-05 
 4.0782936473168383e-05  4.1316575787463304e-05  4.1857197701403760e-05  4.2404893581379934e-05 
 4.2959755989299109e-05  4.3521878698228849e-05  4.4091356708244907e-05  4.4668286262486317e-05 
 4.5252764863420937e-05  4.5844891289323423e-05  4.6444765610969090e-05  4.7052489208546044e-05 
 4.7668164788788712e-05  4.8291896402335541e-05  4.8923789461313778e-05  4.9563950757154293e-05 
 5.0212488478639766e-05  5.0869512230188709e-05  5.1535133050378915e-05  5.2209463430713226e-05 
 5.2892617334630912e-05  5.3584710216767708e-05  5.4285859042467917e-05  5.4996182307551888e-05 
 5.5715800058342131e-05  5.6444833911951188e-05  5.7183407076835515e-05  5.7931644373617891e-05 
 5.8689672256182294e-05  5.9457618833045107e-05  6.0235613889005590e-05  6.1023788907079896e-05 
 6.1822277090722090e-05  6.2631213386335542e-05  6.3450734506079653e-05  6.4280978950974146e-05 
 6.5122087034306321e-05  6.5974200905344162e-05  6.6837464573359990e-05  6.7712023931968364e-05 
 6.8598026783782369e-05  6.9495622865392779e-05  7.0404963872673773e-05  7.1326203486419895e-05 
 7.2259497398318470e-05  7.3205003337261932e-05  7.4162881096004384e-05  7.5133292558166888e-05 
 7.6116401725596244e-05  7.7112374746081608e-05  7.8121379941434047e-05  7.9143587835932950e-05 
 8.0179171185145519e-05  8.1228305005122587e-05  8.2291166601976737e-05  8.3367935601847545e-05 
 8.4458793981258829e-05  8.5563926097873024e-05  8.6683518721648192e-05  8.7817761066402502e-05 
 8.8966844821791776e-05  9.0130964185705715e-05  9.1310315897087397e-05  9.2505099269183026e-05 
 9.3715516223226268e-05  9.4941771322563218e-05  9.6184071807224283e-05  9.7442627628948169e-05 
 9.8717651486664268e-05  1.0000935886243912e-04  1.0131796805789373e-04  1.0264370023109663e-04 
 1.0398677943394053e-04  1.0534743265000735e-04  1.0672588983292911e-04  1.0812238394525057e-04 
 1.0953715099780053e-04  1.1097043008957813e-04  1.1242246344816124e-04  1.1389349647064353e-04 
 1.1538377776510677e-04  1.1689355919263688e-04  1.1842309590988851e-04  1.1997264641220733e-04 
 1.2154247257731637e-04  1.2313283970957377e-04  1.2474401658481028e-04  1.2637627549575231e-04 
 1.2802989229804092e-04  1.2970514645685145e-04  1.3140232109412397e-04  1.3312170303641163e-04 
 1.3486358286335495e-04  1.3662825495679056e-04  1.3841601755050238e-04  1.4022717278062367e-04 
 1.4206202673669915e-04  1.4392088951341463e-04  1.4580407526300346e-04  1.4771190224833940e-04 
 1.4964469289672404e-04  1.5160277385437704e-04  1.5358647604164069e-04  1.5559613470890606e-04 
 1.5763208949327119e-04  1.5969468447594019e-04  1.6178426824037443e-04  1.6390119393120350e-04 
 1.6604581931390765e-04  1.6821850683528095e-04  1.7041962368468571e-04  1.7264954185610844e-04 
 1.7490863821102742e-04  1.7719729454210352e-04  1.7951589763770399e-04  1.8186483934727040e-04 
 1.8424451664754256e-04  1.8665533170964782e-04  1.8909769196706969e-04  1.9157201018450481e-04 
 1.9407870452762125e-04  1.9661819863372873e-04  1.9919092168337567e-04  2.0179730847288076e-04 
 2.0443779948781484e-04  2.0711284097744417e-04  2.0982288503014726e-04  2.1256838964981919e-04 
 2.1534981883327526e-04  2.1816764264866761e-04  2.2102233731492759e-04  2.2391438528224854e-04 
 2.2684427531361994e-04  2.2981250256743065e-04  2.3281956868115143e-04  2.3586598185611221e-04 
 2.3895225694339057e-04  2.4207891553082184e-04  2.4524648603114915e-04  2.4845550377132605e-04 
 2.5170651108298835e-04  2.5500005739410956e-04  2.5833669932185516e-04  2.6171700076665271e-04 
 2.6514153300749138e-04  2.6861087479847082e-04  2.7212561246661108e-04  2.7568634001094358e-04 
 2.7929365920289801e-04  2.8294817968800367e-04  2.8665051908892067e-04  2.9040130310981961e-04 
 2.9420116564212736e-04  2.9805074887165588e-04  3.0195070338713325e-04  3.0590168829015488e-04 
 3.0990437130657333e-04  3.1395942889934496e-04  3.1806754638285417e-04  3.2222941803873383e-04 
 3.2644574723319906e-04  3.3071724653591935e-04  3.3504463784044317e-04  3.3942865248620061e-04 
 3.4387003138210126e-04  3.4836952513174962e-04  3.5292789416029816e-04  3.5754590884296250e-04 
 3.6222434963521501e-04  3.6696400720468488e-04  3.7176568256478234e-04  3.7663018721007142e-04 
 3.8155834325341527e-04  3.8655098356491462e-04  3.9160895191266550e-04  3.9673310310535653e-04 
 4.0192430313673561e-04  4.0718342933196352e-04  4.1251137049588447e-04  4.1790902706323631e-04 
 4.2337731125082552e-04  4.2891714721169527e-04  4.3452947119130799e-04  4.4021523168577428e-04 
 4.4597538960215028e-04  4.5181091842083371e-04  4.5772280436008378e-04  4.6371204654269545e-04 
 4.6977965716485230e-04  4.7592666166719098e-04  4.8215409890810289e-04  4.8846302133930366e-04 
 4.9485449518370023e-04  5.0132960061558430e-04  5.0788943194318519e-04  5.1453509779361055e-04 
 5.2126772130020626e-04  5.2808844029236975e-04  5.3499840748784389e-04  5.4199879068753142e-04 
 5.4909077297285458e-04  5.5627555290569970e-04  5.6355434473097507e-04  5.7092837858182404e-04 
 5.7839890068751821e-04  5.8596717358407372e-04  5.9363447632762372e-04  6.0140210471058039e-04 
 6.0927137148062836e-04  6.1724360656258126e-04  6.2532015728314317e-04  6.3350238859860802e-04 
 6.4179168332554291e-04  6.5018944237448645e-04  6.5869708498670471e-04  6.6731604897404893e-04 
 6.7604779096194615e-04  6.8489378663557515e-04  6.9385553098925913e-04  7.0293453857912358e-04 
 7.1213234377906021e-04  7.2145050104003899e-04  7.3089058515281573e-04  7.4045419151407346e-04 
 7.5014293639605008e-04  7.5995845721969020e-04  7.6990241283137492e-04  7.7997648378327054e-04 
 7.9018237261734524e-04  8.0052180415310240e-04  8.1099652577908078e-04  8.2160830774816597e-04 
 8.3235894347676791e-04  8.4325024984791247e-04  8.5428406751829821e-04  8.6546226122937342e-04 
 8.7678672012248026e-04  8.8825935805812533e-04  8.9988211393942480e-04  9.1165695203978701e-04 
 9.2358586233487537e-04  9.3567086083892227e-04  9.4791398994543800e-04  9.6031731877238146e-04 
 9.7288294351184569e-04  9.8561298778431883e-04  9.9850960299758228e-04  1.0115749687103011e-03 
 1.0248112930003783e-03  1.0382208128381228e-03  1.0518057944643030e-03  1.0655685337731472e-03 
 1.0795113567003550e-03  1.0936366196161870e-03  1.1079467097236946e-03  1.1224440454621664e-03 
 1.1371310769158463e-03  1.1520102862280070e-03  1.1670841880204363e-03  1.1823553298184139e-03 
 1.1978262924812516e-03  1.2134996906384610e-03  1.2293781731316346e-03  1.2454644234621063e-03 
 1.2617611602444687e-03  1.2782711376660265e-03  1.2949971459522598e-03  1.3119420118383766e-03 
 1.3291085990470427e-03  1.3464998087723548e-03  1.3641185801701494e-03  1.3819678908547270e-03 
 1.4000507574020759e-03  1.4183702358596822e-03  1.4369294222630075e-03  1.4557314531587274e-03 
 1.4747795061348112e-03  1.4940768003575498e-03  1.5136265971155965e-03  1.5334322003711335e-03 
 1.5534969573182495e-03  1.5738242589486259e-03  1.5944175406246183e-03  1.6152802826598445e-03 
 1.6364160109073650e-03  1.6578282973555558e-03  1.6795207607317910e-03  1.7014970671140122e-03 
 1.7237609305503034e-03  1.7463161136865753e-03  1.7691664284024610e-03  1.7923157364555344e-03 
 1.8157679501339535e-03  1.8395270329176502e-03  1.8635970001481610e-03  1.8879819197072378e-03 
 1.9126859127043248e-03  1.9377131541730359e-03  1.9630678737767469e-03  1.9887543565234186e-03 
 2.0147769434897701e-03  2.0411400325549348e-03  2.0678480791437143e-03  2.0949055969795459e-03 
 2.1223171588473449e-03  2.1500873973663097e-03  2.1782210057728446e-03  2.2067227387137320e-03 
 2.2355974130496763e-03  2.2648499086693630e-03  2.2944851693141774e-03  2.3245082034137046e-03 
 2.3549240849321607e-03  2.3857379542259177e-03  2.4169550189122261e-03  2.4485805547493178e-03 
 2.4806199065280205e-03  2.5130784889750408e-03  2.5459617876680686e-03  2.5792753599628480e-03 
 2.6130248359323882e-03  2.6472159193184500e-03  2.6818543884955066e-03  2.7169460974472925e-03 
 2.7524969767561414e-03  2.7885130346052703e-03  2.8250003577941791e-03  2.8619651127673291e-03 
 2.8994135466562901e-03  2.9373519883355240e-03  2.9757868494919657e-03  3.0147246257086328e-03 
 3.0541718975623799e-03  3.0941353317360401e-03  3.1346216821451045e-03  3.1756377910791547e-03 
 3.2171905903582228e-03  3.2592871025042863e-03  3.3019344419280938e-03  3.3451398161315083e-03 
 3.3889105269256053e-03  3.4332539716646878e-03  3.4781776444964573e-03  3.5236891376285466e-03 
 3.5697961426116162e-03  3.6165064516392466e-03  3.6638279588648410e-03  3.7117686617357502e-03 
 3.7603366623448586e-03  3.8095401687998679e-03  3.8593874966104786e-03  3.9098870700937328e-03 
 3.9610474237977414e-03  4.0128772039440489e-03  4.0653851698888568e-03  4.1185801956033878e-03 
 4.1724712711735988e-03  4.2270675043195186e-03  4.2823781219344988e-03  4.3384124716445600e-03 
 4.3951800233881710e-03  4.4526903710166875e-03  4.5109532339157390e-03  4.5699784586478286e-03 
 4.6297760206164204e-03  4.6903560257518144e-03  4.7517287122190582e-03  4.8139044521482415e-03 
 4.8768937533873952e-03  4.9407072612783504e-03  5.0053557604558237e-03  5.0708501766700441e-03 
 5.1372015786332343e-03  5.2044211798902536e-03  5.2725203407137031e-03  5.3415105700238370e-03 
 5.4114035273336164e-03  5.4822110247191797e-03  5.5539450288161129e-03  5.6266176628418435e-03 
 5.7002412086444880e-03  5.7748281087785193e-03  5.8503909686075835e-03  5.9269425584348419e-03 
 6.0044958156611700e-03  6.0830638469716253e-03  6.1626599305504987e-03  6.2432975183253610e-03 
 6.3249902382404750e-03  6.4077518965599380e-03  6.4915964802009906e-03  6.5765381590978233e-03 
 6.6625912885963472e-03  6.7497704118802482e-03  6.8380902624288658e-03  6.9275657665071495e-03 
 7.0182120456882494e-03  7.1100444194090937e-03  7.2030784075594141e-03  7.2973297331046325e-03 
 7.3928143247430980e-03  7.4895483195980637e-03  7.5875480659448845e-03  7.6868301259739504e-03 
 7.7874112785897027e-03  7.8893085222463324e-03  7.9925390778205364e-03  8.0971203915219062e-03 
 8.2030701378413770e-03  8.3104062225382407e-03  8.4191467856662948e-03  8.5293102046395015e-03 
 8.6409150973378746e-03  8.7539803252539138e-03  8.8685249966802375e-03  8.9845684699389507e-03 
 9.1021303566532225e-03  9.2212305250617254e-03  9.3418891033763777e-03  9.4641264831841123e-03 
 9.5879633228930315e-03  9.7134205512238014e-03  9.8405193707466077e-03  9.9692812614644594e-03 
 1.0099727984443351e-02  1.0231881585489943e-02  1.0365764398877354e-02  1.0501399051119692e-02 
 1.0638808464796029e-02  1.0778015862424299e-02  1.0919044770386039e-02  1.1061919022902357e-02 
 1.1206662766061986e-02  1.1353300461902015e-02  1.1501856892542061e-02  1.1652357164372481e-02 
 1.1804826712297413e-02  1.1959291304033367e-02  1.2115777044463961e-02  1.2274310380051794e-02 
 1.2434918103307898e-02  1.2597627357319769e-02  1.2762465640338600e-02  1.2929460810426553e-02 
 1.3098641090164835e-02  1.3270035071423384e-02  1.3443671720192986e-02  1.3619580381480530e-02 
 1.3797790784268456e-02  1.3978333046539006e-02  1.4161237680364204e-02  1.4346535597062501e-02 
 1.4534258112422843e-02  1.4724436951997127e-02  1.4917104256461880e-02  1.5112292587050137e-02 
 1.5310034931054312e-02  1.5510364707401202e-02  1.5713315772299809e-02  1.5918922424963153e-02 
 1.6127219413404885e-02  1.6338241940311825e-02  1.6552025668993275e-02  1.6768606729408206e-02 
 1.6988021724271329e-02  1.7210307735238975e-02  1.7435502329176074e-02  1.7663643564504984e-02 
 1.7894769997637474e-02  1.8128920689490853e-02  1.8366135212089338e-02  1.8606453655251851e-02 
 1.8849916633367249e-02  1.9096565292258338e-02  1.9346441316135467e-02  1.9599586934641432e-02 
 1.9856044929988263e-02  2.0115858644187568e-02  2.0379071986375428e-02  2.0645729440233154e-02 
 2.0915876071505107e-02  2.1189557535614953e-02  2.1466820085381540e-02  2.1747710578835639e-02 
 2.2032276487139221e-02  2.2320565902608083e-02  2.2612627546839577e-02  2.2908510778946747e-02 
 2.3208265603900012e-02  2.3511942680978268e-02  2.3819593332330302e-02  2.4131269551648453e-02 
 2.4447024012955575e-02  2.4766910079507164e-02  2.5090981812809835e-02  2.5419293981757830e-02 
 2.5751902071889130e-02  2.6088862294762587e-02  2.6430231597457887e-02  2.6776067672199651e-02 
 2.7126428966107674e-02  2.7481374691074478e-02  2.7840964833772405e-02  2.8205260165791429e-02 
 2.8574322253909712e-02  2.8948213470498564e-02  2.9326997004063472e-02  2.9710736869923166e-02 
 3.0099497921028291e-02  3.0493345858921821e-02  3.0892347244842598e-02  3.1296569510974530e-02 
 3.1706080971842673e-02  3.2120950835858607e-02  3.2541249217016753e-02  3.2967047146743908e-02 
 3.3398416585903624e-02  3.3835430436957831e-02  3.4278162556287496e-02  3.4726687766674494e-02 
 3.5181081869946930e-02  3.5641421659789771e-02  3.6107784934723143e-02  3.6580250511250509e-02 
 3.7058898237178811e-02  3.7543809005112949e-02  3.8035064766126864e-02  3.8532748543613410e-02 
 3.9036944447315473e-02  3.9547737687540829e-02  4.0065214589562824e-02  4.0589462608209531e-02 
 4.1120570342643888e-02  4.1658627551337077e-02  4.2203725167238013e-02  4.2755955313141150e-02 
 4.3315411317255574e-02  4.3882187728977430e-02  4.4456380334869344e-02  4.5038086174848328e-02 
 4.5627403558585876e-02  4.6224432082122451e-02  4.6829272644699528e-02  4.7442027465811748e-02 
 4.8062800102482317e-02  4.8691695466764356e-02  4.9328819843471185e-02  4.9974280908138928e-02 
 5.0628187745223770e-02  5.1290650866537529e-02  5.1961782229924453e-02  5.2641695258182290e-02 
 5.3330504858231084e-02  5.4028327440532695e-02  5.4735280938764459e-02  5.5451484829750056e-02 
 5.6177060153651814e-02  5.6912129534426356e-02  5.7656817200548605e-02  5.8411249006006534e-02 
 5.9175552451570912e-02  5.9949856706343146e-02  6.0734292629585192e-02  6.1528992792835212e-02 
 6.2334091502312096e-02  6.3149724821614059e-02  6.3976030594713323e-02  6.4813148469252235e-02 
 6.5661219920143996e-02  6.6520388273482334e-02  6.7390798730763868e-02  6.8272598393427475e-02 
 6.9165936287715002e-02  7.0070963389856758e-02  7.0987832651587063e-02  7.1916699025993402e-02 
 7.2857719493703968e-02  7.3811053089417281e-02  7.4776860928780123e-02  7.5755306235616077e-02 
 7.6746554369510847e-02  7.7750772853758268e-02  7.8768131403672323e-02  7.9798801955269394e-02 
 8.0842958694325756e-02  8.1900778085815543e-02  8.2972438903733597e-02  8.4058122261308821e-02 
 8.5158011641612658e-02  8.6272292928568223e-02  8.7401154438365117e-02  8.8544786951285329e-02 
 8.9703383743945458e-02  9.0877140621961019e-02  9.2066255953038273e-02  9.3270930700497995e-02 
 9.4491368457239960e-02  9.5727775480149796e-02  9.6980360724957138e-02  9.8249335881549646e-02 
 9.9534915409749042e-02  1.0083731657555543e-01  1.0215675948786562e-01  1.0349346713567227e-01 
 1.0484766542574930e-01  1.0621958322083087e-01  1.0760945237828963e-01  1.0901750778932127e-01 
 1.1044398741864146e-01  1.1188913234470281e-01  1.1335318680043735e-01  1.1483639821453273e-01 
 1.1633901725324834e-01  1.1786129786277763e-01  1.1940349731216701e-01  1.2096587623679403e-01 
 1.2254869868241557e-01  1.2415223214979217e-01  1.2577674763989644e-01  1.2742251969971269e-01 
 1.2908982646863607e-01  1.3077894972547893e-01  1.3249017493609197e-01  1.3422379130160861e-01 
 1.3598009180732087e-01  1.3775937327219431e-01  1.3956193639903142e-01  1.4138808582529083e-01 
 1.4323813017457207e-01  1.4511238210877339e-01  1.4701115838093293e-01  1.4893477988875931e-01 
 1.5088357172886607e-01  1.5285786325171249e-01  1.5485798811726501e-01  1.5688428435138629e-01 
 1.5893709440296275e-01  1.6101676520177899e-01  1.6312364821714978e-01  1.6525809951731932e-01 
 1.6742047982963756e-01  1.6961115460152396e-01  1.7183049406222900e-01  1.7407887328540370e-01 
 1.7635667225248822e-01  1.7866427591692935e-01  1.8100207426923867e-01  1.8337046240290200e-01 
 1.8576984058115115e-01  1.8820061430460835e-01  1.9066319437981877e-01  1.9315799698867619e-01 
 1.9568544375875938e-01  1.9824596183458817e-01  2.0083998394981151e-01  2.0346794850034097e-01 
 2.0613029961844037e-01  2.0882748724778541e-01  2.1155996721950487e-01  2.1432820132921762e-01 
 2.1713265741507687e-01  2.1997380943683600e-01  2.2285213755594893e-01  2.2576812821671843e-01 
 2.2872227422850655e-01  2.3171507484902049e-01  2.3474703586868853e-01  2.3781866969613874e-01 
 2.4093049544479886e-01  2.4408303902062720e-01  2.4727683321099120e-01  2.5051241777471062e-01 
 2.5379033953327779e-01  2.5711115246327165e-01  2.6047541778998118e-01  2.6388370408225392e-01 
 2.6733658734858534e-01  2.7083465113446559e-01  2.7437848662100023e-01  2.7796869272482116e-01 
 2.8160587619930499e-01  2.8529065173711576e-01  2.8902364207408932e-01  2.9280547809447771e-01 
 2.9663679893756995e-01  3.0051825210570637e-01  3.0445049357371129e-01  3.0843418789975163e-01 
 3.1247000833765032e-01  3.1655863695066688e-01  3.2070076472676834e-01  3.2489709169540743e-01 
 3.2914832704582953e-01  3.3345518924692735e-01  3.3781840616866332e-01  3.4223871520508242e-01 
 3.4671686339893237e-01  3.5125360756791640e-01  3.5584971443259711e-01  3.6050596074597346e-01 
 3.6522313342475510e-01  3.7000202968235180e-01  3.7484345716360618e-01  3.7974823408128427e-01 
 3.8471718935435967e-01  3.8975116274809996e-01  3.9485100501599024e-01  4.0001757804351173e-01 
 4.0525175499380317e-01  4.1055442045522689e-01  4.1592647059086690e-01  4.2136881328998183e-01 
 4.2688236832144150e-01  4.3246806748916861e-01  4.3812685478961738e-01  4.4385968657130975e-01 
 4.4966753169646173e-01  4.5555137170472271e-01  4.6151220097905821e-01  4.6755102691380257e-01 
 4.7366887008491321e-01  4.7986676442244486e-01  4.8614575738529325e-01  4.9250691013821379e-01 
 4.9895129773116165e-01  5.0548000928097858e-01  5.1209414815545518e-01  5.1879483215980371e-01 
 5.2558319372556916e-01  5.3246038010201302e-01  5.3942755355000149e-01  5.4648589153842941e-01 
 5.5363658694321694e-01  5.6088084824890627e-01  5.6821989975290033e-01  5.7565498177237107e-01 
 5.8318735085387585e-01  5.9081827998571734e-01  5.9854905881308196e-01  6.0638099385598954e-01 
 6.1431540873010448e-01  6.2235364437042473e-01  6.3049705925790556e-01  6.3874702964904495e-01 
 6.4710494980847466e-01  6.5557223224459438e-01  6.6415030794828889e-01  6.7284062663476862e-01 
 6.8164465698857546e-01  6.9056388691179349e-01  6.9959982377550844e-01  7.0875399467455680e-01 
 7.1802794668560810e-01  7.2742324712862538e-01  7.3694148383174507e-01  7.4658426539962441e-01 
 7.5635322148530015e-01  7.6625000306559954e-01  7.7627628272016624e-01  7.8643375491412526e-01 
 7.9672413628445327e-01  8.0714916593009367e-01  8.1771060570586962e-01  8.2841024052023993e-01 
 8.3924987863695488e-01  8.5023135198065525e-01  8.6135651644647326e-01  8.7262725221368243e-01 
 8.8404546406345297e-01  8.9561308170076426e-01  9.0733206008052847e-01  9.1920437973798452e-01 
 9.3123204712341179e-01  9.4341709494122516e-01  9.5576158249350907e-01  9.6826759602803769e-01 
 9.8093724909086588e-01  9.9377268288351583e-01  1.0067760666248482e+00  1.0199495979176647e+00 
 1.0332955031201079e+00  1.0468160377219216e+00  1.0605134867256336e+00  1.0743901650327274e+00 
 1.0884484178348641e+00  1.1026906210102274e+00  1.1171191815250516e+00  1.1317365378404052e+00 
 1.1465451603242967e+00  1.1615475516691711e+00  1.1767462473148731e+00  1.1921438158771414e+00 
 1.2077428595817119e+00  1.2235460147040955e+00  1.2395559520151216e+00  1.2557753772323013e+00 
 1.2722070314771001e+00  1.2888536917381945e+00  1.3057181713407890e+00  1.3228033204220755e+00 
 1.3401120264129134e+00  1.3576472145258116e+00  1.3754118482492954e+00  1.3934089298487475e+00 
 1.4116415008737921e+00  1.4301126426723274e+00  1.4488254769112807e+00  1.4677831661041771e+00 
 1.4869889141456107e+00  1.5064459668527126e+00  1.5261576125137024e+00  1.5461271824436069e+00 
 1.5663580515472770e+00  1.5868536388897421e+00  1.6076174082740446e+00  1.6286528688266302e+00 
 1.6499635755903996e+00  1.6715531301255162e+00  1.6934251811180823e+00  1.7155834249967730e+00 
 1.7380316065575425e+00  1.7607735195965040e+00  1.7838130075510878e+00  1.8071539641495962e+00 
 1.8308003340692471e+00  1.8547561136028372e+00  1.8790253513341248e+00  1.9036121488220508e+00 
 1.9285206612939119e+00  1.9537550983475940e+00  1.9793197246630225e+00  2.0052188607228922e+00 
 2.0314568835428393e+00  2.0580382274111684e+00  2.0849673846382593e+00  2.1122489063157790e+00 
 2.1398874030858233e+00  2.1678875459201272e+00  2.1962540669094741e+00  2.2249917600634257e+00 
 2.2541054821205240e+00  2.2836001533690893e+00  2.3134807584787631e+00  2.3437523473429289e+00 
 2.3744200359321521e+00  2.4054890071587973e+00  2.4369645117529530e+00  2.4688518691498023e+00 
 2.5011564683886442e+00  2.5338837690236380e+00  2.5670393020464854e+00  2.6006286708211803e+00 
 2.6346575520309918e+00  2.6691316966378369e+00  2.7040569308542053e+00  2.7394391571278045e+00 
 2.7752843551390893e+00  2.8115985828118375e+00  2.8483879773369574e+00  2.8856587562096863e+00 
 2.9234172182803619e+00  2.9616697448189417e+00  3.0004228005934572e+00  3.0396829349625696e+00 
 3.0794567829824353e+00  3.1197510665280248e+00  3.1605725954291670e+00  3.2019282686214052e+00 
 3.2438250753119391e+00  3.2862700961608184e+00  3.3292705044775901e+00  3.3728335674336041e+00 
 3.4169666472901850e+00  3.4616772026428673e+00  3.5069727896819236e+00  3.5528610634693716e+00 
 3.5993497792326985e+00  3.6464467936755165e+00  3.6941600663053618e+00  3.7424976607788705e+00 
 3.7914677462645581e+00  3.8410785988234246e+00  3.8913386028076364e+00  3.9422562522774793e+00 
 3.9938401524369080e+00  4.0460990210878247e+00  4.0990416901034132e+00  4.1526771069207431e+00 
 4.2070143360529162e+00  4.2620625606209837e+00  4.3178310839059186e+00  4.3743293309208875e+00 
 4.4315668500041090e+00  4.4895533144325395e+00  4.5482985240566807e+00  4.6078124069567776e+00 
 4.6681050211206889e+00  4.7291865561437127e+00  4.7910673349506450e+00  4.8537578155403880e+00 
 4.9172685927533797e+00  4.9816104000621131e+00  5.0467941113851706e+00  5.1128307429249107e+00 
 5.1797314550292368e+00  5.2475075540777256e+00  5.3161704943924279e+00  5.3857318801736840e+00 
 5.4562034674612523e+00  5.5275971661211125e+00  5.5999250418582642e+00  5.6731993182558522e+00 
 5.7474323788409887e+00  5.8226367691775955e+00  5.8988251989866312e+00  5.9760105442940716e+00 
 6.0542058496069799e+00  6.1334243301180660e+00  6.2136793739390992e+00  6.2949845443634738e+00 
 6.3773535821585163e+00  6.4608004078876640e+00  6.5453391242630730e+00  6.6309840185290261e+00 
 6.7177495648764918e+00  6.8056504268893150e+00  6.8947014600223886e+00  6.9849177141122638e+00 
 7.0763144359206036e+00  7.1689070717109269e+00  7.2627112698590617e+00  7.3577428834977576e+00 
 7.4540179731959055e+00  7.5515528096728071e+00  7.6503638765479698e+00  7.7504678731268735e+00 
 7.8518817172232156e+00  7.9546225480179888e+00  8.0587077289561506e+00  8.1641548506810118e+00 
 8.2709817340071154e+00  8.3792064329319977e+00  8.4888472376873736e+00  8.5999226778301949e+00 
 8.7124515253742167e+00  8.8264527979625065e+00  8.9419457620814615e+00  9.0589499363169015e+00 
 9.1774850946527611e+00  9.2975712698129165e+00  9.4192287566467883e+00  9.5424781155592147e+00 
 9.6673401759851831e+00  9.7938360399101043e+00  9.9219870854360632e+00  1.0051814970394732e+01 
 1.0183341636007691e+01  1.0316589310594473e+01  1.0451580513329224e+01  1.0588338058046503e+01 
 1.0726885057096858e+01  1.0867244925252889e+01  1.1009441383666381e+01  1.1153498463877249e+01 
 1.1299440511874918e+01  1.1447292192212853e+01  1.1597078492176935e+01  1.1748824726008367e+01 
 1.1902556539181830e+01  1.2058299912739651e+01  1.2216081167682647e+01  1.2375926969418437e+01 
 1.2537864332267983e+01  1.2701920624030990e+01  1.2868123570611260e+01  1.3036501260702339e+01 
 1.3207082150534616e+01  1.3379895068684464e+01  1.3554969220946360e+01  1.3732334195268738e+01 
 1.3912019966754398e+01  1.4094056902726393e+01  1.4278475767860172e+01  1.4465307729382868e+01 
 1.4654584362340664e+01  1.4846337654935025e+01  1.5040600013928785e+01  1.5237404270122987e+01 
 1.5436783683905338e+01  1.5638771950871329e+01  1.5843403207518785e+01  1.6050712037017142e+01 
 1.6260733475052000e+01  1.6473503015746264e+01  1.6689056617658714e+01  1.6907430709861128e+01 
 1.7128662198094819e+01  1.7352788471007866e+01  1.7579847406473828e+01  1.7809877377993221e+01 
 1.8042917261178726e+01  1.8279006440325261e+01  1.8518184815066011e+01  1.8760492807115583e+01 
 1.9005971367101342e+01  1.9254661981484187e+01  1.9506606679569870e+01  1.9761848040612037e+01 
 2.0020429201008149e+01  2.0282393861589792e+01  2.0547786295008102e+01  2.0816651353215985e+01 
 2.1089034475048202e+01  2.1364981693900649e+01  2.1644539645510090e+01  2.1927755575835715e+01 
 2.2214677349043839e+01  2.2505353455597032e+01  2.2799833020449142e+01  2.3098165811347510e+01 
 2.3400402247243875e+01  2.3706593406815234e+01  2.4016791037096336e+01  2.4331047562224992e+01 
 2.4649416092301912e+01  2.4971950432366469e+01  2.5298705091489708e+01  2.5629735291986783e+01 
 2.5965096978749443e+01  2.6304846828700956e+01  2.6649042260374610e+01  2.6997741443617560e+01 
 2.7351003309421714e+01  2.7708887559883184e+01  2.8071454678292127e+01  2.8438765939354468e+01 
 2.8810883419547576e+01  2.9187870007611288e+01  2.9569789415176224e+01  2.9956706187531292e+01 
 3.0348685714531911e+01  3.0745794241651090e+01  3.1148098881175081e+01  3.1555667623545528e+01 
 3.1968569348849837e+01  3.2386873838462392e+01  3.2810651786837546e+01  3.3239974813457202e+01 
 3.3674915474934679e+01  3.4115547277276981e+01  3.4561944688307442e+01  3.5014183150251007e+01 
 3.5472339092484106e+01  3.5936489944451431e+01  3.6406714148751654e+01  3.6883091174394615e+01 
 3.7365701530231249e+01  3.7854626778560601e+01  3.8349949548913081e+01  3.8851753552016049e+01 
 3.9360123593940095e+01  3.9875145590432560e+01  4.0396906581436518e+01  4.0925494745801139e+01 
 4.1460999416184585e+01  4.2003511094150412e+01  4.2553121465463704e+01  4.3109923415585065e+01 
 4.3674011045369603e+01  4.4245479686969020e+01  4.4824425919944218e+01  4.5410947587586193e+01 
 4.6005143813453081e+01  4.6607115018120979e+01  4.7216962936156534e+01  4.7834790633309076e+01 
 4.8460702523930244e+01  4.9094804388618961e+01  4.9737203392099893e+01  5.0388008101333462e+01 
 5.1047328503864286e+01  5.1715276026410052e+01  5.2391963553691447e+01  5.3077505447511555e+01 
 5.3772017566081693e+01  5.4475617283603285e+01  5.5188423510102851e+01  5.5910556711529608e+01 
 5.6642138930112964e+01  5.7383293804989471e+01  5.8134146593096609e+01  5.8894824190343080e+01 
 5.9665455153052889e+01  6.0446169719693323e+01  6.1237099832883899e+01  6.2038379161696689e+01 
 6.2850143124244923e+01  6.3672528910570790e+01  6.4505675505829331e+01  6.5349723713777891e+01 
 6.6204816180572948e+01  6.7071097418876150e+01  6.7948713832279111e+01  6.8837813740043984e+01 
 6.9738547402171832e+01  7.0651067044794871e+01  7.1575526885905106e+01  7.2512083161415504e+01 
 7.3460894151566208e+01  7.4422120207672293e+01  7.5395923779225583e+01  7.6382469441346899e+01 
 7.7381923922601715e+01  7.8394456133175652e+01  7.9420237193422778e+01  8.0459440462783419e+01 
 8.1512241569083258e+01  8.2578818438215563e+01  8.3659351324209226e+01  8.4754022839694315e+01 
 8.5863017986761804e+01  8.6986524188231613e+01  8.8124731319325306e+01  8.9277831739757644e+01 
 9.0446020326243570e+01  9.1629494505435233e+01  9.2828454287285012e+01  9.4043102298850414e+01 
 9.5273643818535660e+01  9.6520286810787056e+01  9.7783241961236740e+01  9.9062722712311853e+01 
 1.0035894529930378e+02  1.0167212878691572e+02  1.0300249510628210e+02  1.0435026909247696e+02 
 1.0571567852251266e+02  1.0709895415383176e+02  1.0850032976330908e+02  1.0992004218675733e+02 
 1.1135833135895585e+02  1.1281544035419728e+02  1.1429161542737059e+02  1.1578710605557583e+02 
 1.1730216498028940e+02 
  </PP_R>
  <PP_RAB>
 2.9923018529563562e-07  3.0314557258028008e-07  3.0711219218820645e-07  3.1113071448756932e-07 
 3.1520181861820180e-07  3.1932619260639183e-07  3.2350453348115927e-07  3.2773754739205718e-07 
 3.3202594972851145e-07  3.3637046524072362e-07  3.4077182816215568e-07  3.4523078233361711e-07 
 3.4974808132897562e-07  3.5432448858251302e-07  3.5896077751794772e-07  3.6365773167914397e-07 
 3.6841614486253450e-07  3.7323682125127310e-07  3.7812057555114271e-07  3.8306823312824407e-07 
 3.8808063014848358e-07  3.9315861371888761e-07  3.9830304203076560e-07  4.0351478450474713e-07 
 4.0879472193771362e-07  4.1414374665165856e-07  4.1956276264448989e-07  4.2505268574280815e-07 
 4.3061444375668332e-07  4.3624897663645748e-07  4.4195723663159806e-07  4.4774018845163019e-07 
 4.5359880942917620e-07  4.5953408968512418e-07  4.6554703229596471e-07  4.7163865346331013e-07 
 4.7780998268563643e-07  4.8406206293227080e-07  4.9039595081965496e-07  4.9681271678991764e-07 
 5.0331344529178048e-07  5.0989923496383197e-07  5.1657119882020178e-07  5.2333046443866174e-07 
 5.3017817415118897e-07  5.3711548523702297e-07  5.4414357011824885e-07  5.5126361655793908e-07 
 5.5847682786088843e-07  5.6578442307697505e-07  5.7318763720718375e-07  5.8068772141232212e-07 
 5.8828594322447218e-07  5.9598358676120443e-07  6.0378195294259818e-07  6.1168235971109852e-07 
 6.1968614225425324e-07  6.2779465323036197e-07  6.3600926299707908e-07  6.4433135984300579e-07 
 6.5276235022231696e-07  6.6130365899245321e-07  6.6995672965492587e-07  6.7872302459927194e-07 
 6.8760402535020183e-07  6.9660123281798019e-07  7.0571616755208291e-07  7.1495036999817454e-07 
 7.2430540075844770e-07  7.3378284085536540e-07  7.4338429199886162e-07  7.5311137685703250e-07 
 7.6296573933036981e-07  7.7294904482958637e-07  7.8306298055707264e-07  7.9330925579203859e-07 
 8.0368960217938718e-07  8.1420577402236205e-07  8.2485954857903547e-07  8.3565272636266386e-07 
 8.4658713144598210e-07  8.5766461176947407e-07  8.6888703945367979e-07  8.8025631111558874e-07 
 8.9177434818917072e-07  9.0344309725010612e-07  9.1526453034475895e-07  9.2724064532345864e-07 
 9.3937346617814008e-07  9.5166504338440511e-07  9.6411745424805700e-07  9.7673280325616943e-07 
 9.8951322243275116e-07  1.0024608716990609e-06  1.0155779392386426e-06  1.0288666418671284e-06 
 1.0423292254068917e-06  1.0559679650665936e-06  1.0697851658256974e-06  1.0837831628240180e-06 
 1.0979643217563648e-06  1.1123310392723492e-06  1.1268857433814264e-06  1.1416308938632324e-06 
 1.1565689826832930e-06  1.1717025344141741e-06  1.1870341066621361e-06  1.2025662904993793e-06 
 1.2183017109019413e-06  1.2342430271933218e-06  1.2503929334939155e-06  1.2667541591763261e-06 
 1.2833294693266355e-06  1.3001216652117087e-06  1.3171335847526183e-06  1.3343681030042562e-06 
 1.3518281326412269e-06  1.3695166244500954e-06  1.3874365678280783e-06  1.4055909912882574e-06 
 1.4239829629714069e-06  1.4426155911645157e-06  1.4614920248260960e-06  1.4806154541183659e-06 
 1.4999891109463879e-06  1.5196162695042794e-06  1.5395002468285506e-06  1.5596444033586953e-06 
 1.5800521435051127e-06  1.6007269162244589e-06  1.6216722156025335e-06  1.6428915814447800e-06 
 1.6643885998745318e-06  1.6861669039390687e-06  1.7082301742236116e-06  1.7305821394733511e-06 
 1.7532265772236143e-06  1.7761673144382773e-06  1.7994082281565309e-06  1.8229532461481077e-06 
 1.8468063475770889e-06  1.8709715636743901e-06  1.8954529784190450e-06  1.9202547292284122e-06 
 1.9453810076574126e-06  1.9708360601069013e-06  1.9966241885413287e-06  2.0227497512157785e-06 
 2.0492171634125253e-06  2.0760308981872224e-06  2.1031954871248673e-06  2.1307155211056454e-06 
 2.1585956510807993e-06  2.1868405888586524e-06  2.2154551079009141e-06  2.2444440441294094e-06 
 2.2738122967433564e-06  2.3035648290473458e-06  2.3337066692901517e-06  2.3642429115145150e-06 
 2.3951787164180529e-06  2.4265193122254215e-06  2.4582699955719060e-06  2.4904361323985626e-06 
 2.5230231588590762e-06  2.5560365822384733e-06  2.5894819818838837e-06  2.6233650101474499e-06 
 2.6576913933415927e-06  2.6924669327067740e-06  2.7276975053919144e-06  2.7633890654476494e-06 
 2.7995476448325784e-06  2.8361793544326787e-06  2.8732903850940586e-06  2.9108870086692308e-06 
 2.9489755790770589e-06  2.9875625333765984e-06  3.0266543928549683e-06  3.0662577641294587e-06 
 3.1063793402640774e-06  3.1470259019006840e-06  3.1882043184049389e-06  3.2299215490272384e-06 
 3.2721846440788486e-06  3.3150007461234241e-06  3.3583770911841169e-06  3.4023210099664852e-06 
 3.4468399290973877e-06  3.4919413723801206e-06  3.5376329620659438e-06  3.5839224201422665e-06 
 3.6308175696376741e-06  3.6783263359440474e-06  3.7264567481559685e-06  3.7752169404276546e-06 
 3.8246151533476554e-06  3.8746597353315267e-06  3.9253591440327325e-06  3.9767219477720134e-06 
 4.0287568269854527e-06  4.0814725756914846e-06  4.1348781029771037e-06  4.1889824345035395e-06 
 4.2437947140315876e-06  4.2993242049669514e-06  4.3555802919257613e-06  4.4125724823206077e-06 
 4.4703104079673162e-06  4.5288038267127450e-06  4.5880626240838759e-06  4.6480968149585119e-06 
 4.7089165452577946e-06  4.7705320936609031e-06  4.8329538733421700e-06  4.8961924337309282e-06 
 4.9602584622943982e-06  5.0251627863438895e-06  5.0909163748646514e-06  5.1575303403696347e-06 
 5.2250159407775624e-06  5.2933845813155256e-06  5.3626478164464981e-06  5.4328173518220716e-06 
 5.5039050462607318e-06  5.5759229137520380e-06  5.6488831254870032e-06  5.7227980119150651e-06 
 5.7976800648279536e-06  5.8735419394708380e-06  5.9503964566810887e-06  6.0282566050550406e-06 
 6.1071355431430793e-06  6.1870466016734820e-06  6.2680032858053377e-06  6.3500192774109471e-06 
 6.4331084373881023e-06  6.5172848080025955e-06  6.6025626152614068e-06  6.6889562713169370e-06 
 6.7764803769026807e-06  6.8651497238008067e-06  6.9549792973419702e-06  7.0459842789379085e-06 
 7.1381800486471088e-06  7.2315821877740960e-06  7.3262064815026755e-06  7.4220689215637122e-06 
 7.5191857089377360e-06  7.6175732565929579e-06  7.7172481922591073e-06  7.8182273612375440e-06 
 7.9205278292481678e-06  8.0241668853135566e-06  8.1291620446808603e-06  8.2355310517819032e-06 
 8.3432918832320579e-06  8.4524627508683229e-06  8.5630621048271615e-06  8.6751086366626361e-06 
 8.7886212825053000e-06  8.9036192262624759e-06  9.0201219028603681e-06  9.1381490015286053e-06 
 9.2577204691277825e-06  9.3788565135205062e-06  9.5015776069866046e-06  9.6259044896829552e-06 
 9.7518581731486513e-06  9.8794599438559726e-06  1.0008731366807873e-05  1.0139694289182516e-05 
 1.0272370844025487e-05  1.0406783453990331e-05  1.0542954835128050e-05  1.0680908000726158e-05 
 1.0820666265197982e-05  1.0962253248022861e-05  1.1105692877737876e-05  1.1251009395981854e-05 
 1.1398227361592242e-05  1.1547371654755629e-05  1.1698467481212522e-05  1.1851540376517230e-05 
 1.2006616210353378e-05  1.2163721190905989e-05  1.2322881869290693e-05  1.2484125144040958e-05 
 1.2647478265653993e-05  1.2812968841196145e-05  1.2980624838968568e-05  1.3150474593233913e-05 
 1.3322546809004918e-05  1.3496870566895596e-05  1.3673475328035939e-05  1.3852390939050914e-05 
 1.4033647637104614e-05  1.4217276055010431e-05  1.4403307226408030e-05  1.4591772591008162e-05 
 1.4782703999906001e-05  1.4976133720964090e-05  1.5172094444265672e-05  1.5370619287639379e-05 
 1.5571741802256269e-05  1.5775495978299992e-05  1.5981916250711250e-05  1.6191037505007382e-05 
 1.6402895083178091e-05  1.6617524789658344e-05  1.6834962897379376e-05  1.7055246153898895e-05 
 1.7278411787611554e-05  1.7504497514040613e-05  1.7733541542211940e-05  1.7965582581111450e-05 
 1.8200659846226987e-05  1.8438813066175868e-05  1.8680082489419098e-05  1.8924508891063455e-05 
 1.9172133579752544e-05  1.9422998404648145e-05  1.9677145762502754e-05  1.9934618604824733e-05 
 2.0195460445137244e-05  2.0459715366332135e-05  2.0727428028120038e-05  2.0998643674577978e-05 
 2.1273408141795745e-05  2.1551767865622226e-05  2.1833769889513282e-05  2.2119461872482158e-05 
 2.2408892097153943e-05  2.2702109477925478e-05  2.2999163569231992e-05  2.3300104573921947e-05 
 2.3604983351741394e-05  2.3913851427929452e-05  2.4226761001926092e-05  2.4543764956194090e-05 
 2.4864916865156220e-05  2.5190271004249465e-05  2.5519882359097707e-05  2.5853806634804441e-05 
 2.6192100265367009e-05  2.6534820423214151e-05  2.6882025028868285e-05  2.7233772760734093e-05 
 2.7590123065015483e-05  2.7951136165762026e-05  2.8316873075046980e-05  2.8687395603278514e-05 
 2.9062766369645791e-05  2.9443048812701720e-05  2.9828307201084307e-05  3.0218606644378158e-05 
 3.0614013104118087e-05  3.1014593404936928e-05  3.1420415245858939e-05  3.1831547211741130e-05 
 3.2248058784864265e-05  3.2670020356675530e-05  3.3097503239684887e-05  3.3530579679517020e-05 
 3.3969322867121045e-05  3.4413806951139851e-05  3.4864107050441588e-05  3.5320299266814801e-05 
 3.5782460697829837e-05  3.6250669449868513e-05  3.6725004651324327e-05  3.7205546465975275e-05 
 3.7692376106531767e-05  3.8185575848361814e-05  3.8685229043395551e-05  3.9191420134212222e-05 
 3.9704234668310938e-05  4.0223759312568521e-05  4.0750081867886359e-05  4.1283291284029006e-05 
 4.1823477674656891e-05  4.2370732332555718e-05  4.2925147745065219e-05  4.3486817609709608e-05 
 4.4055836850032865e-05  4.4632301631640938e-05  4.5216309378453942e-05  4.5807958789171101e-05 
 4.6407349853951010e-05  4.7014583871310201e-05  4.7629763465242931e-05  4.8252992602564749e-05 
 4.8884376610483157e-05  4.9524022194398279e-05  5.0172037455936221e-05  5.0828531911218523e-05 
 5.1493616509370637e-05  5.2167403651272635e-05  5.2850007208555134e-05  5.3541542542844040e-05 
 5.4242126525256784e-05  5.4951877556153737e-05  5.5670915585148483e-05  5.6399362131379279e-05 
 5.7137340304046219e-05  5.7884974823216937e-05  5.8642392040904608e-05  5.9409719962421772e-05 
 6.0187088268013461e-05  6.0974628334773584e-05  6.1772473258847751e-05  6.2580757877927137e-05 
 6.3399618794036133e-05  6.4229194396618551e-05  6.5069624885925702e-05  6.5921052296710576e-05 
 6.6783620522232041e-05  6.7657475338573291e-05  6.8542764429278133e-05  6.9439637410309874e-05 
 7.0348245855337009e-05  7.1268743321349333e-05  7.2201285374609464e-05  7.3146029616943955e-05 
 7.4103135712378339e-05  7.5072765414120745e-05  7.6055082591898587e-05  7.7050253259652944e-05 
 7.8058445603595205e-05  7.9079830010631128e-05  8.0114579097156484e-05  8.1162867738229693e-05 
 8.2224873097126177e-05  8.3300774655279192e-05  8.4390754242612875e-05  8.5494996068271706e-05 
 8.6613686751752504e-05  8.7747015354443220e-05  8.8895173411575256e-05  9.0058354964592940e-05 
 9.1236756593947234e-05  9.2430577452318216e-05  9.3640019298272376e-05  9.4865286530360223e-05 
 9.6106586221660276e-05  9.7364128154774822e-05  9.8638124857283488e-05  9.9928791637661344e-05 
 1.0123634662166613e-04  1.0256101078920232e-04  1.0390300801166697e-04  1.0526256508978478e-04 
 1.0663991179193790e-04  1.0803528089299713e-04  1.0944890821366183e-04  1.1088103266031351e-04 
 1.1233189626539237e-04  1.1380174422830087e-04  1.1529082495684309e-04  1.1679939010920635e-04 
 1.1832769463649189e-04  1.1987599682580243e-04  1.2144455834389290e-04  1.2303364428139347e-04 
 1.2464352319760942e-04  1.2627446716590942e-04  1.2792675181970590e-04  1.2960065639903797e-04 
 1.3129646379776355e-04  1.3301446061136926e-04  1.3475493718540559e-04  1.3651818766455598e-04 
 1.3830451004234837e-04  1.4011420621151587e-04  1.4194758201501850e-04  1.4380494729773064e-04 
 1.4568661595880581e-04  1.4759290600472618e-04  1.4952413960304679e-04  1.5148064313684224e-04 
 1.5346274725986636e-04  1.5547078695243375e-04  1.5750510157803150e-04  1.5956603494067330e-04 
 1.6165393534300267e-04  1.6376915564515700e-04  1.6591205332440180e-04  1.6808299053554517e-04 
 1.7028233417214285e-04  1.7251045592850398e-04  1.7476773236250882e-04  1.7705454495924689e-04 
 1.7937128019548994e-04  1.8171832960500706e-04  1.8409608984473465e-04  1.8650496276181251e-04 
 1.8894535546149695e-04  1.9141768037596264e-04  1.9392235533400443e-04  1.9645980363165177e-04 
 1.9903045410370605e-04  2.0163474119621561e-04  2.0427310503989750e-04  2.0694599152452098e-04 
 2.0965385237426350e-04  2.1239714522405372e-04  2.1517633369691258e-04  2.1799188748230667e-04 
 2.2084428241552726e-04  2.2373400055810666e-04  2.2666153027928895e-04  2.2962736633856478e-04 
 2.3263200996928715e-04  2.3567596896338107e-04  2.3875975775716139e-04  2.4188389751827406e-04 
 2.4504891623377422e-04  2.4825534879935839e-04  2.5150373710976107e-04  2.5479463015033862e-04 
 2.5812858408984739e-04  2.6150616237443838e-04  2.6492793582288054e-04  2.6839448272303096e-04 
 2.7190638892956638e-04  2.7546424796299438e-04  2.7906866110996001e-04  2.8272023752486331e-04 
 2.8641959433280985e-04  2.9016735673390509e-04  2.9396415810891449e-04  2.9781064012630772e-04 
 3.0170745285070015e-04  3.0565525485271749e-04  3.0965471332029392e-04  3.1370650417142989e-04 
 3.1781131216842244e-04  3.2196983103359314e-04  3.2618276356652782e-04  3.3045082176285176e-04 
 3.3477472693455869e-04  3.3915520983191362e-04  3.4359301076695254e-04  3.4808887973859543e-04 
 3.5264357655939976e-04  3.5725787098396820e-04  3.6193254283904122e-04  3.6666838215528854e-04 
 3.7146618930082625e-04  3.7632677511648132e-04  3.8125096105282513e-04  3.8623957930900113e-04 
 3.9129347297336774e-04  3.9641349616598365e-04  4.0160051418295376e-04  4.0685540364266884e-04 
 4.1217905263395474e-04  4.1757236086616188e-04  4.2303623982121780e-04  4.2857161290767078e-04 
 4.3417941561674710e-04  4.3986059568045178e-04  4.4561611323173743e-04  4.5144694096676841e-04 
 4.5735406430931009e-04  4.6333848157726698e-04  4.6940120415140085e-04  4.7554325664625658e-04 
 4.8176567708332451e-04  4.8806951706646830e-04  4.9445584195964923e-04  5.0092573106697426e-04 
 5.0748027781510115e-04  5.1412058993803079e-04  5.2084778966431664e-04  5.2766301390672391e-04 
 5.3456741445437046e-04  5.4156215816738196e-04  5.4864842717409416e-04  5.5582741907083495e-04 
 5.6310034712432242e-04  5.7046844047670651e-04  5.7793294435330147e-04  5.8549512027302819e-04 
 5.9315624626161631e-04  6.0091761706759187e-04  6.0878054438109387e-04  6.1674635705555271e-04 
 6.2481640133227009e-04  6.3299204106793657e-04  6.4127465796512536e-04  6.4966565180580606e-04 
 6.5816644068790898e-04  6.6677846126498783e-04  6.7550316898901781e-04  6.8434203835636973e-04 
 6.9329656315700403e-04  7.0236825672692496e-04  7.1155865220393793e-04  7.2086930278675071e-04 
 7.3030178199747354e-04  7.3985768394754260e-04  7.4953862360713187e-04  7.5934623707808486e-04 
 7.6928218187042186e-04  7.7934813718246083e-04  7.8954580418460747e-04  7.9987690630685772e-04 
 8.1034318953005717e-04  8.2094642268098269e-04  8.3168839773127318e-04  8.4257093010027897e-04 
 8.5359585896187186e-04  8.6476504755527025e-04  8.7608038349993027e-04  8.8754377911455713e-04 
 8.9915717174029498e-04  9.1092252406813783e-04  9.2284182447063172e-04  9.3491708733791420e-04 
 9.4715035341815153e-04  9.5954369016242459e-04  9.7209919207414156e-04  9.8481898106300898e-04 
 9.9770520680364104e-04  1.0107600470988575e-03  1.0239857082477402e-03  1.0373844254185020e-03 
 1.0509584630262348e-03  1.0647101151156019e-03  1.0786417057485366e-03  1.0927555893970146e-03 
 1.1070541513409644e-03  1.1215398080713869e-03  1.1362150076987465e-03  1.1510822303667093e-03 
 1.1661439886712910e-03  1.1814028280854932e-03  1.1968613273894975e-03  1.2125220991064738e-03 
 1.2283877899441195e-03  1.2444610812419473e-03  1.2607446894244427e-03  1.2772413664601454e-03 
 1.2939539003267375e-03  1.3108851154822205e-03  1.3280378733422531e-03  1.3454150727637395e-03 
 1.3630196505347409e-03  1.3808545818708013e-03  1.3989228809177651e-03  1.4172276012611766e-03 
 1.4357718364423390e-03  1.4545587204811364e-03  1.4735914284056855e-03  1.4928731767889255e-03 
 1.5124072242922284e-03  1.5321968722161092e-03  1.5522454650581711e-03  1.5725563910783222e-03 
 1.5931330828714023e-03  1.6139790179472981e-03  1.6350977193186535e-03  1.6564927560962649e-03 
 1.6781677440922689e-03  1.7001263464312261e-03  1.7223722741691956e-03  1.7449092869209117e-03 
 1.7677411934951712e-03  1.7908718525385260e-03  1.8143051731874084e-03  1.8380451157287807e-03 
 1.8620956922694369e-03  1.8864609674140540e-03  1.9111450589521281e-03  1.9361521385538709e-03 
 1.9614864324752589e-03  1.9871522222722625e-03  2.0131538455244449e-03  2.0394956965680217e-03 
 2.0661822272385155e-03  2.0932179476231268e-03  2.1206074268229473e-03  2.1483552937251512e-03 
 2.1764662377852882e-03  2.2049450098198115e-03  2.2337964228089768e-03  2.2630253527102478e-03 
 2.2926367392823465e-03  2.3226355869200815e-03  2.3530269655001024e-03  2.3838160112377260e-03 
 2.4150079275549650e-03  2.4466079859599083e-03  2.4786215269376440e-03  2.5110539608527906e-03 
 2.5439107688638718e-03  2.5771975038496463e-03  2.6109197913475493e-03  2.6450833305044323e-03 
 2.6796938950397245e-03  2.7147573342212101e-03  2.7502795738535632e-03  2.7862666172798292e-03 
 2.8227245463959992e-03  2.8596595226788677e-03  2.8970777882273359e-03  2.9349856668173394e-03 
 2.9733895649705850e-03  3.0122959730372661e-03  3.0517114662929508e-03  3.0916427060498036e-03 
 3.1320964407823850e-03  3.1730795072681534e-03  3.2145988317428854e-03  3.2566614310712378e-03 
 3.2992744139326109e-03  3.3424449820225314e-03  3.3861804312697551e-03  3.4304881530693009e-03 
 3.4753756355316093e-03  3.5208504647480524e-03  3.5669203260730027e-03  3.6135930054226749e-03 
 3.6608763905909649e-03  3.7087784725825046e-03  3.7573073469631610e-03  3.8064712152282099e-03 
 3.8562783861884093e-03  3.9067372773741831e-03  3.9578564164582464e-03  4.0096444426967713e-03 
 4.0621101083894535e-03  4.1152622803586692e-03  4.1691099414479880e-03  4.2236621920402964e-03 
 4.2789282515957837e-03  4.3349174602100556e-03  4.3916392801926227e-03  4.4491032976660709e-03 
 4.5073192241861203e-03  4.5662968983829133e-03  4.6260462876237625e-03  4.6865774896976548e-03 
 4.7479007345218160e-03  4.8100263858705727e-03  4.8729649431268800e-03  4.9367270430566955e-03 
 5.0013234616066759e-03  5.0667651157252991e-03  5.1330630652078732e-03  5.2002285145656526e-03 
 5.2682728149194410e-03  5.3372074659179492e-03  5.4070441176812698e-03  5.4777945727697633e-03 
 5.5494707881787392e-03  5.6220848773591917e-03  5.6956491122650259e-03  5.7701759254270265e-03 
 5.8456779120540023e-03  5.9221678321613952e-03  5.9996586127277563e-03  6.0781633498794329e-03 
 6.1576953111038713e-03  6.2382679374917826e-03  6.3198948460088120e-03  6.4025898317967792e-03 
 6.4863668705051015e-03  6.5712401206527212e-03  6.6572239260209174e-03  6.7443328180774482e-03 
 6.8325815184323985e-03  6.9219849413261689e-03  7.0125581961500193e-03  7.1043165899995825e-03 
 7.1972756302618197e-03  7.2914510272357813e-03  7.3868586967877035e-03  7.4835147630408234e-03 
 7.5814355611003859e-03  7.6806376398143254e-03  7.7811377645700648e-03  7.8829529201278632e-03 
 7.9861003134913573e-03  8.0905973768155212e-03  8.1964617703527715e-03  8.3037113854375847e-03 
 8.4123643475101702e-03  8.5224390191797270e-03  8.6339540033277557e-03  8.7469281462519925e-03 
 8.8613805408514802e-03  8.9773305298533144e-03  9.0947977090816094e-03  9.2138019307692384e-03 
 9.3343633069129048e-03  9.4565022126721302e-03  9.5802392898126851e-03  9.7055954501951164e-03 
 9.8325918793089016e-03  9.9612500398527943e-03  1.0091591675362161e-02  1.0223638813883627e-02 
 1.0357413771697892e-02  1.0492939157091217e-02  1.0630237874176305e-02  1.0769333126763118e-02 
 1.0910248422280413e-02  1.1053007575748518e-02  1.1197634713804153e-02  1.1344154278777871e-02 
 1.1492591032824889e-02  1.1642970062109934e-02  1.1795316781046870e-02  1.1949656936593799e-02 
 1.2106016612604353e-02  1.2264422234235926e-02  1.2424900572415618e-02  1.2587478748364489e-02 
 1.2752184238181256e-02  1.2919044877485705e-02  1.3088088866123025e-02  1.3259344772929640e-02 
 1.3432841540561402e-02  1.3608608490384980e-02  1.3786675327433237e-02  1.3967072145425457e-02 
 1.4149829431853233e-02  1.4334978073132956e-02  1.4522549359825670e-02  1.4712574991925267e-02 
 1.4905087084215856e-02  1.5100118171699223e-02  1.5297701215093350e-02  1.5497869606402837e-02 
 1.5700657174562253e-02  1.5906098191153240e-02  1.6114227376196579e-02  1.6325079904019917e-02 
 1.6538691409202302e-02  1.6755097992596529e-02  1.6974336227430258e-02  1.7196443165486981e-02 
 1.7421456343367874e-02  1.7649413788835552e-02  1.7880354027240839e-02  1.8114316088033718e-02 
 1.8351339511359296e-02  1.8591464354740257e-02  1.8834731199846650e-02  1.9081181159354303e-02 
 1.9330855883892939e-02  1.9583797569085262e-02  1.9840048962678131e-02  2.0099653371766890e-02 
 2.0362654670114600e-02  2.0629097305566647e-02  2.0899026307562581e-02  2.1172487294746193e-02 
 2.1449526482675195e-02  2.1730190691631710e-02  2.2014527354535067e-02  2.2302584524958046e-02 
 2.2594410885248051e-02  2.2890055754754550e-02  2.3189569098164140e-02  2.3493001533944749e-02 
 2.3800404342900212e-02  2.4111829476836884e-02  2.4427329567343621e-02  2.4746957934686658e-02 
 2.5070768596820853e-02  2.5398816278518720e-02  2.5731156420619291e-02  2.6067845189397598e-02 
 2.6408939486056909e-02  2.6754496956345186e-02  2.7104576000297368e-02  2.7459235782105126e-02 
 2.7818536240115700e-02  2.8182538096961654e-02  2.8551302869823162e-02  2.8924892880824532e-02 
 2.9303371267566811e-02  2.9686801993798161e-02  3.0075249860223918e-02  3.0468780515458073e-02 
 3.0867460467117976e-02  3.1271357093064361e-02  3.1680538652788387e-02  3.2095074298947431e-02 
 3.2515034089052375e-02  3.2940488997307289e-02  3.3371510926604307e-02  3.3808172720675343e-02 
 3.4250548176402891e-02  3.4698712056291880e-02  3.5152740101104668e-02  3.5612709042661457e-02 
 3.6078696616808160e-02  3.6550781576553885e-02  3.7029043705380446e-02  3.7513563830725918e-02 
 3.8004423837644706e-02  3.8501706682646242e-02  3.9005496407714939e-02  3.9515878154513399e-02 
 4.0032938178771654e-02  4.0556763864864322e-02  4.1087443740579169e-02  4.1625067492078269e-02 
 4.2169725979055203e-02  4.2721511250090639e-02  4.3280516558208672e-02  4.3846836376636854e-02 
 4.4420566414772406e-02  4.5001803634357275e-02  4.5590646265865002e-02  4.6187193825101829e-02 
 4.6791547130025077e-02  4.7403808317781709e-02  4.8024080861969701e-02  4.8652469590125313e-02 
 4.9289080701439253e-02  4.9934021784704519e-02  5.0587401836499270e-02  5.1249331279607228e-02 
 5.1919921981679801e-02  5.2599287274141718e-02  5.3287541971344367e-02  5.3984802389969659e-02 
 5.4691186368687909e-02  5.5406813288072787e-02  5.6131804090776942e-02  5.6866281301971536e-02 
 5.7610369050053414e-02  5.8364193087623008e-02  5.9127880812736844e-02  5.9901561290438103e-02 
 6.0685365274568956e-02  6.1479425229868261e-02  6.2283875354358378e-02  6.3098851602025038e-02 
 6.3924491705793937e-02  6.4760935200807473e-02  6.5608323448007211e-02  6.6466799658023837e-02 
 6.7336508915380081e-02  6.8217598203010432e-02  6.9110216427101565e-02  7.0014514442257883e-02 
 7.0930645076996271e-02  7.1858763159574457e-02  7.2799025544157431e-02  7.3751591137326072e-02 
 7.4716620924932850e-02  7.5694277999308737e-02  7.6684727586826207e-02  7.7688137075822922e-02 
 7.8704676044890731e-02  7.9734516291534857e-02  8.0777831861208280e-02  8.1834799076725154e-02 
 8.2905596568060708e-02  8.3990405302539622e-02  8.5089408615419942e-02  8.6202792240877332e-02 
 8.7330744343394384e-02  8.8473455549561097e-02  8.9631118980291052e-02  9.0803930283459428e-02 
 9.1992087666967842e-02  9.3195791932242047e-02  9.4415246508167794e-02  9.5650657485470844e-02 
 9.6902233651546765e-02  9.8170186525746481e-02  9.9454730395123606e-02  1.0075608235064935e-01 
 1.0207446232390180e-01  1.0341009312423385e-01  1.0476320047642995e-01  1.0613401305885314e-01 
 1.0752276254209249e-01  1.0892968362811596e-01  1.1035501408993585e-01  1.1179899481179253e-01 
 1.1326186982986482e-01  1.1474388637351259e-01  1.1624529490705900e-01  1.1776634917211971e-01 
 1.1930730623048588e-01  1.2086842650756791e-01  1.2244997383640824e-01  1.2405221550226979e-01 
 1.2567542228780737e-01  1.2731986851883134e-01  1.2898583211066880e-01  1.3067359461513151e-01 
 1.3238344126809998e-01  1.3411566103772815e-01  1.3587054667327991e-01  1.3764839475460453e-01 
 1.3944950574225914e-01  1.4127418402828754e-01  1.4312273798766295e-01  1.4499548003040422e-01 
 1.4689272665437392e-01  1.4881479849876708e-01  1.5076202039830017e-01  1.5273472143810876e-01 
 1.5473323500936378e-01  1.5675789886561545e-01  1.5880905517987440e-01  1.6088705060243969e-01 
 1.6299223631948376e-01  1.6512496811240285e-01  1.6728560641794638e-01  1.6947451638913041e-01 
 1.7169206795695000e-01  1.7393863589289801e-01  1.7621459987230267e-01  1.7852034453849358e-01 
 1.8085625956780718e-01  1.8322273973544312e-01  1.8562018498218222e-01  1.8804900048197729e-01 
 1.9050959671042864e-01  1.9300238951415533e-01  1.9552780018107419e-01  1.9808625551159881e-01 
 2.0067818789076938e-01  2.0330403536132727e-01  2.0596424169774419e-01  2.0865925648122283e-01 
 2.1138953517567599e-01  2.1415553920470143e-01  2.1695773602956328e-01  2.1979659922819464e-01 
 2.2267260857523263e-01  2.2558625012310224e-01  2.2853801628415976e-01  2.3152840591391186e-01 
 2.3455792439532341e-01  2.3762708372422839e-01  2.4073640259585813e-01  2.4388640649250257e-01 
 2.4707762777231743e-01  2.5031060575929442e-01  2.5358588683440830e-01  2.5690402452795646e-01 
 2.6026557961310592e-01  2.6367112020066730e-01  2.6712122183510534e-01  2.7061646759180780e-01 
 2.7415744817562659e-01  2.7774476202070841e-01  2.8137901539163118e-01  2.8506082248586428e-01 
 2.8879080553756992e-01  2.9256959492276141e-01  2.9639782926583885e-01  3.0027615554751763e-01 
 3.0420522921417037e-01  3.0818571428859803e-01  3.1221828348225233e-01  3.1630361830892489e-01 
 3.2044240919992484e-01  3.2463535562076407e-01  3.2888316618936619e-01  3.3318655879582815e-01 
 3.3754626072374272e-01  3.4196300877311242e-01  3.4643754938486993e-01  3.5097063876702828e-01 
 3.5556304302248226e-01  3.6021553827848135e-01  3.6492891081779766e-01  3.6970395721160809e-01 
 3.7454148445411845e-01  3.7944231009894674e-01  3.8440726239729089e-01  3.8943718043790676e-01 
 3.9453291428891479e-01  3.9969532514146416e-01  4.0492528545527601e-01  4.1022367910609187e-01 
 4.1559140153504787e-01  4.2102935990001106e-01  4.2653847322888810e-01  4.3211967257494360e-01 
 4.3777390117415083e-01  4.4350211460460076e-01  4.4930528094799671e-01  4.5518438095326308e-01 
 4.6114040820229335e-01  4.6717436927786860e-01  4.7328728393377145e-01  4.7948018526712999e-01 
 4.8575411989300621e-01  4.9211014812128778e-01  4.9854934413587004e-01  5.0507279617620859e-01 
 5.1168160672122120e-01  5.1837689267562326e-01  5.2515978555867471e-01  5.3203143169541478e-01 
 5.3899299241039955e-01  5.4604564422395530e-01  5.5319057905102809e-01  5.6042900440260579e-01 
 5.6776214358980481e-01  5.7519123593059718e-01  5.8271753695927486e-01  5.9034231863862052e-01 
 5.9806686957489008e-01  6.0589249523557265e-01  6.1382051817003491e-01  6.2185227823301792e-01 
 6.2998913281109314e-01  6.3823245705204645e-01  6.4658364409729863e-01  6.5504410531733492e-01 
 6.6361527055023573e-01  6.7229858834333067e-01  6.8109552619798874e-01  6.9000757081765018e-01 
 6.9903622835906198e-01  7.0818302468684269e-01  7.1744950563133703e-01  7.2683723724988492e-01 
 7.3634780609146855e-01  7.4598281946486311e-01  7.5574390571025585e-01  7.6563271447446002e-01 
 7.7565091698968758e-01  7.8580020635601311e-01  7.9608229782749063e-01  8.0649892910205689e-01 
 8.1705186061518398e-01  8.2774287583742023e-01  8.3857378157578122e-01  8.4954640827911254e-01 
 8.6066261034744829e-01  8.7192426644538989e-01  8.8333327981962839e-01  8.9489157862057178e-01 
 9.0660111622823381e-01  9.1846387158233334e-01  9.3048184951676638e-01  9.4265708109840152e-01 
 9.5499162397036064e-01  9.6748756269973979e-01  9.8014700912993258e-01  9.9297210273750969e-01 
 1.0059650109938223e+00  1.0191279297312834e+00  1.0324630835144961e+00  1.0459727260161844e+00 
 1.0596591403980824e+00  1.0735246396968023e+00  1.0875715672147199e+00  1.1018022969160259e+00 
 1.1162192338279033e+00  1.1308248144470110e+00  1.1456215071512290e+00  1.1606118126168494e+00 
 1.1757982642411664e+00  1.1911834285706580e+00  1.2067699057347052e+00  1.2225603298850554e+00 
 1.2385573696409635e+00  1.2547637285402318e+00  1.2711821454960777e+00  1.2878153952600540e+00 
 1.3046662888909490e+00  1.3217376742299043e+00  1.3390324363816672e+00  1.3565534982022005e+00 
 1.3743038207926646e+00  1.3922864039998128e+00  1.4105042869230180e+00  1.4289605484278451e+00 
 1.4476583076664260e+00  1.4666007246045645e+00  1.4857910005558175e+00  1.5052323787224857e+00 
 1.5249281447437621e+00 
  </PP_RAB>
</PP_MESH>


<PP_LOCAL>
-2.3136874672567156e+01 -2.3136874675362268e+01 -2.3136874678230967e+01 -2.3136874681193625e+01 
-2.3136874684229966e+01 -2.3136874687345028e+01 -2.3136874690546421e+01 -2.3136874693829544e+01 
-2.3136874697198142e+01 -2.3136874700657973e+01 -2.3136874704206971e+01 -2.3136874707850211e+01 
-2.3136874711591016e+01 -2.3136874715427467e+01 -2.3136874719365270e+01 -2.3136874723409601e+01 
-2.3136874727558883e+01 -2.3136874731816686e+01 -2.3136874736186666e+01 -2.3136874740672972e+01 
-2.3136874745278568e+01 -2.3136874750003773e+01 -2.3136874754854624e+01 -2.3136874759831972e+01 
-2.3136874764938938e+01 -2.3136874770184829e+01 -2.3136874775569289e+01 -2.3136874781092523e+01 
-2.3136874786763006e+01 -2.3136874792583640e+01 -2.3136874798556587e+01 -2.3136874804686972e+01 
-2.3136874810980196e+01 -2.3136874817440674e+01 -2.3136874824070649e+01 -2.3136874830874966e+01 
-2.3136874837859413e+01 -2.3136874845029073e+01 -2.3136874852388022e+01 -2.3136874859941639e+01 
-2.3136874867693709e+01 -2.3136874875650648e+01 -2.3136874883819722e+01 -2.3136874892204279e+01 
-2.3136874900809403e+01 -2.3136874909642920e+01 -2.3136874918710969e+01 -2.3136874928017644e+01 
-2.3136874937570770e+01 -2.3136874947377354e+01 -2.3136874957444018e+01 -2.3136874967777249e+01 
-2.3136874978382895e+01 -2.3136874989269529e+01 -2.3136875000446999e+01 -2.3136875011919610e+01 
-2.3136875023694238e+01 -2.3136875035784030e+01 -2.3136875048194401e+01 -2.3136875060932191e+01 
-2.3136875074009421e+01 -2.3136875087434063e+01 -2.3136875101214347e+01 -2.3136875115361502e+01 
-2.3136875129884469e+01 -2.3136875144793819e+01 -2.3136875160099208e+01 -2.3136875175810797e+01 
-2.3136875191942604e+01 -2.3136875208503902e+01 -2.3136875225504426e+01 -2.3136875242958475e+01 
-2.3136875260879130e+01 -2.3136875279277323e+01 -2.3136875298166100e+01 -2.3136875317559284e+01 
-2.3136875337469828e+01 -2.3136875357912203e+01 -2.3136875378902811e+01 -2.3136875400455065e+01 
-2.3136875422582918e+01 -2.3136875445304316e+01 -2.3136875468633885e+01 -2.3136875492589542e+01 
-2.3136875517189246e+01 -2.3136875542449140e+01 -2.3136875568388341e+01 -2.3136875595023582e+01 
-2.3136875622377474e+01 -2.3136875650470436e+01 -2.3136875679318933e+01 -2.3136875708946164e+01 
-2.3136875739375366e+01 -2.3136875770627391e+01 -2.3136875802724209e+01 -2.3136875835693015e+01 
-2.3136875869559351e+01 -2.3136875904344226e+01 -2.3136875940073576e+01 -2.3136875976778963e+01 
-2.3136876014487758e+01 -2.3136876053225336e+01 -2.3136876093023794e+01 -2.3136876133915063e+01 
-2.3136876175928052e+01 -2.3136876219098667e+01 -2.3136876263461840e+01 -2.3136876309048617e+01 
-2.3136876355897719e+01 -2.3136876404047513e+01 -2.3136876453538125e+01 -2.3136876504409674e+01 
-2.3136876556700798e+01 -2.3136876610461165e+01 -2.3136876665734725e+01 -2.3136876722563684e+01 
-2.3136876781002226e+01 -2.3136876841101408e+01 -2.3136876902910618e+01 -2.3136876966490032e+01 
-2.3136877031896343e+01 -2.3136877099185885e+01 -2.3136877168426274e+01 -2.3136877239679688e+01 
-2.3136877313014644e+01 -2.3136877388506978e+01 -2.3136877466228285e+01 -2.3136877546260123e+01 
-2.3136877628685124e+01 -2.3136877713586081e+01 -2.3136877801057675e+01 -2.3136877891194718e+01 
-2.3136877984101286e+01 -2.3136878079886344e+01 -2.3136878178654072e+01 -2.3136878280532336e+01 
-2.3136878385647645e+01 -2.3136878494125416e+01 -2.3136878606120483e+01 -2.3136878721775560e+01 
-2.3136878841249409e+01 -2.3136878964728115e+01 -2.3136879092384309e+01 -2.3136879224408851e+01 
-2.3136879361023166e+01 -2.3136879502451087e+01 -2.3136879648923323e+01 -2.3136879800707945e+01 
-2.3136879958083114e+01 -2.3136880121343346e+01 -2.3136880290829108e+01 -2.3136880466882204e+01 
-2.3136880649875199e+01 -2.3136880840230063e+01 -2.3136881038395703e+01 -2.3136881244854568e+01 
-2.3136881460131683e+01 -2.3136881684819276e+01 -2.3136881919540631e+01 -2.3136882164987984e+01 
-2.3136882421913786e+01 -2.3136882691137767e+01 -2.3136882973598020e+01 -2.3136883270277437e+01 
-2.3136883582267647e+01 -2.3136883910785688e+01 -2.3136884257181134e+01 -2.3136884622946098e+01 
-2.3136885009665956e+01 -2.3136885419175204e+01 -2.3136885853520390e+01 -2.3136886314877458e+01 
-2.3136886805722622e+01 -2.3136887328842377e+01 -2.3136887887261434e+01 -2.3136888484406764e+01 
-2.3136889124127340e+01 -2.3136889810598618e+01 -2.3136890548606662e+01 -2.3136891343481217e+01 
-2.3136892201147610e+01 -2.3136893128345299e+01 -2.3136894132473035e+01 -2.3136895221897181e+01 
-2.3136896406137925e+01 -2.3136897695827791e+01 -2.3136899102844311e+01 -2.3136900640610442e+01 
-2.3136902324358037e+01 -2.3136904171106025e+01 -2.3136906200198954e+01 -2.3136908433519171e+01 
-2.3136910895495003e+01 -2.3136913614070941e+01 -2.3136916620945495e+01 -2.3136919951631661e+01 
-2.3136923646539756e+01 -2.3136927751826082e+01 -2.3136932319550947e+01 -2.3136937408491765e+01 
-2.3136943085921782e+01 -2.3136949428321838e+01 -2.3136956522083494e+01 -2.3136964465956233e+01 
-2.3136973372512596e+01 -2.3136983369095944e+01 -2.3136994601450052e+01 -2.3137007235657265e+01 
-2.3137021459944599e+01 -2.3137037490430952e+01 -2.3137055573340508e+01 -2.3137075988072965e+01 
-2.3137099054924377e+01 -2.3137125139029092e+01 -2.3137154656270290e+01 -2.3137188084196502e+01 
-2.3137225965193302e+01 -2.3137268917446615e+01 -2.3137317651797517e+01 -2.3137372975429752e+01 
-2.3137435810376346e+01 -2.3137507211868773e+01 -2.3137588379783342e+01 -2.3137680686397896e+01 
-2.3137785696278492e+01 -2.3137905192362243e+01 -2.3138041207079116e+01 -2.3138196049055718e+01 
-2.3138372355780639e+01 -2.3138573127444619e+01 -2.3138801758439730e+01 -2.3139062114507354e+01 
-2.3139358579896879e+01 -2.3139696112225266e+01 -2.3140080324154855e+01 -2.3140517548848717e+01 
-2.3141014936495960e+01 -2.3141580522297339e+01 -2.3142223320501088e+01 -2.3142953457040313e+01 
-2.3143782216340799e+01 -2.3144722150213660e+01 -2.3145787228816882e+01 -2.3146992872532515e+01 
-2.3148356050609209e+01 -2.3149895362820462e+01 -2.3151631053287925e+01 -2.3153585045220868e+01 
-2.3155780864720356e+01 -2.3158243532092371e+01 -2.3160999439136187e+01 -2.3164076088836300e+01 
-2.3167501567336860e+01 -2.3171304121952272e+01 -2.3175511515894872e+01 -2.3180149996421363e+01 
-2.3185243315004818e+01 -2.3190811305713883e+01 -2.3196868347262644e+01 -2.3203421450428102e+01 
-2.3210468021363667e+01 -2.3217993738530897e+01 -2.3225969810247779e+01 -2.3234350258356052e+01 
-2.3243069163337850e+01 -2.3252038078155021e+01 -2.3261143993124868e+01 -2.3270247248847046e+01 
-2.3279180780099122e+01 -2.3287750702356156e+01 -2.3295738092614940e+01 -2.3302902553775912e+01 
-2.3308988389151011e+01 -2.3313733455079948e+01 -2.3316879934226382e+01 -2.3318188407429449e+01 
-2.3317454296738017e+01 -2.3314525407168318e+01 -2.3309320897766920e+01 -2.3301850309612270e+01 
-2.3292229855021276e+01 -2.3280694809136975e+01 -2.3267606734544255e+01 -2.3253452503069820e+01 
-2.3238833297159726e+01 -2.3224443342145758e+01 -2.3211037111912681e+01 -2.3199386013592427e+01 
-2.3190226844159604e+01 -2.3184204869605811e+01 -2.3181816571289847e+01 -2.3181790859282135e+01 
-2.3181791247551946e+01 -2.3181791630693631e+01 -2.3181792029310497e+01 -2.3181792461605227e+01 
-2.3181792879177621e+01 -2.3181793314179998e+01 -2.3181793772043815e+01 -2.3181794214580204e+01 
-2.3181794688882345e+01 -2.3181795185707266e+01 -2.3181795680507651e+01 -2.3181796192104496e+01 
-2.3181796714560218e+01 -2.3181797241902476e+01 -2.3181797789916732e+01 -2.3181798360282031e+01 
-2.3181798954483465e+01 -2.3181799562791952e+01 -2.3181800146498293e+01 -2.3181800769393259e+01 
-2.3181801446630971e+01 -2.3181802089558694e+01 -2.3181802752951640e+01 -2.3181803473460970e+01 
-2.3181804192776596e+01 -2.3181804913557862e+01 -2.3181805665360880e+01 -2.3181806446272848e+01 
-2.3181807228528566e+01 -2.3181808037868564e+01 -2.3181808902153147e+01 -2.3181809763637389e+01 
-2.3181810619820386e+01 -2.3181811519712596e+01 -2.3181812465819863e+01 -2.3181813413779778e+01 
-2.3181814377208475e+01 -2.3181815391954682e+01 -2.3181816422253036e+01 -2.3181817480377951e+01 
-2.3181818561104450e+01 -2.3181819671146570e+01 -2.3181820825761584e+01 -2.3181821984344346e+01 
-2.3181823184318372e+01 -2.3181824431601719e+01 -2.3181825691135668e+01 -2.3181826995203494e+01 
-2.3181828335297059e+01 -2.3181829698034722e+01 -2.3181831104691256e+01 -2.3181832548877011e+01 
-2.3181834032400300e+01 -2.3181835549999064e+01 -2.3181837105369663e+01 -2.3181838715112416e+01 
-2.3181840360088177e+01 -2.3181842043144741e+01 -2.3181843771954775e+01 -2.3181845546493207e+01 
-2.3181847375364281e+01 -2.3181849247890774e+01 -2.3181851164353990e+01 -2.3181853137526357e+01 
-2.3181855163154733e+01 -2.3181857238093691e+01 -2.3181859367725870e+01 -2.3181861554213040e+01 
-2.3181863800692096e+01 -2.3181866102956818e+01 -2.3181868466099154e+01 -2.3181870897080479e+01 
-2.3181873389711335e+01 -2.3181875944706817e+01 -2.3181878566467841e+01 -2.3181881255569543e+01 
-2.3181884021917277e+01 -2.3181886862225692e+01 -2.3181889767868558e+01 -2.3181892751829675e+01 
-2.3181895822004492e+01 -2.3181898972377290e+01 -2.3181902197952091e+01 -2.3181905510749782e+01 
-2.3181908915668895e+01 -2.3181912406865909e+01 -2.3181915985947970e+01 -2.3181919663532295e+01 
-2.3181923441979187e+01 -2.3181927313753580e+01 -2.3181931286505705e+01 -2.3181935366142760e+01 
-2.3181939553286039e+01 -2.3181943852890292e+01 -2.3181948263319502e+01 -2.3181952785580719e+01 
-2.3181957429620116e+01 -2.3181962198994860e+01 -2.3181967092198455e+01 -2.3181972112513684e+01 
-2.3181977266718533e+01 -2.3181982554735345e+01 -2.3181987979342054e+01 -2.3181993551267336e+01 
-2.3181999270079753e+01 -2.3182005134798132e+01 -2.3182011154646244e+01 -2.3182017335480115e+01 
-2.3182023677625637e+01 -2.3182030184478752e+01 -2.3182036863051270e+01 -2.3182043716772696e+01 
-2.3182050750493602e+01 -2.3182057970961885e+01 -2.3182065380153418e+01 -2.3182072981927242e+01 
-2.3182080784170708e+01 -2.3182088791593255e+01 -2.3182097009104414e+01 -2.3182105443221175e+01 
-2.3182114097144051e+01 -2.3182122977026786e+01 -2.3182132091217650e+01 -2.3182141444415631e+01 
-2.3182151042352704e+01 -2.3182160893178089e+01 -2.3182171000867562e+01 -2.3182181371671557e+01 
-2.3182192015999487e+01 -2.3182202940654001e+01 -2.3182214150445649e+01 -2.3182225651531823e+01 
-2.3182237453746019e+01 -2.3182249566516962e+01 -2.3182261996043131e+01 -2.3182274749436878e+01 
-2.3182287836900642e+01 -2.3182301266354024e+01 -2.3182315045437360e+01 -2.3182329185102432e+01 
-2.3182343694586955e+01 -2.3182358582154418e+01 -2.3182373857999913e+01 -2.3182389531795017e+01 
-2.3182405613958771e+01 -2.3182422115958492e+01 -2.3182439046820345e+01 -2.3182456418059427e+01 
-2.3182474242431670e+01 -2.3182492529269389e+01 -2.3182511290968478e+01 -2.3182530540270804e+01 
-2.3182550289257193e+01 -2.3182570551199984e+01 -2.3182591337645803e+01 -2.3182612662388262e+01 
-2.3182634538743105e+01 -2.3182656981211327e+01 -2.3182680004478623e+01 -2.3182703621828516e+01 
-2.3182727848271639e+01 -2.3182752698973374e+01 -2.3182778190149062e+01 -2.3182804337352799e+01 
-2.3182831156701152e+01 -2.3182858664795027e+01 -2.3182886878052503e+01 -2.3182915814156949e+01 
-2.3182945490782473e+01 -2.3182975926130059e+01 -2.3183007138004111e+01 -2.3183039145316421e+01 
-2.3183071967961428e+01 -2.3183105624311139e+01 -2.3183140134615478e+01 -2.3183175519647715e+01 
-2.3183211799673973e+01 -2.3183248995572296e+01 -2.3183287128588571e+01 -2.3183326221235344e+01 
-2.3183366295370242e+01 -2.3183407373185371e+01 -2.3183449477947114e+01 -2.3183492632976957e+01 
-2.3183536862035464e+01 -2.3183582189137201e+01 -2.3183628638526717e+01 -2.3183676234869043e+01 
-2.3183725003856335e+01 -2.3183774970638176e+01 -2.3183826160430716e+01 -2.3183878600423430e+01 
-2.3183932317114540e+01 -2.3183987336074996e+01 -2.3184043684862971e+01 -2.3184101391717263e+01 
-2.3184160483521172e+01 -2.3184220987951040e+01 -2.3184282933706619e+01 -2.3184346349112378e+01 
-2.3184411262794310e+01 -2.3184477703451694e+01 -2.3184545700455338e+01 -2.3184615283464421e+01 
-2.3184686481388198e+01 -2.3184759324335083e+01 -2.3184833842470479e+01 -2.3184910065756622e+01 
-2.3184988025108911e+01 -2.3185067751035646e+01 -2.3185149274629801e+01 -2.3185232627493047e+01 
-2.3185317841182972e+01 -2.3185404948196489e+01 -2.3185493981378652e+01 -2.3185584974176514e+01 
-2.3185677960786943e+01 -2.3185772976040795e+01 -2.3185870056452892e+01 -2.3185969239699638e+01 
-2.3186070564447821e+01 -2.3186174071395023e+01 -2.3186279803625883e+01 -2.3186387806530362e+01 
-2.3186498128627367e+01 -2.3186610821903976e+01 -2.3186725942102647e+01 -2.3186843550231721e+01 
-2.3186963712924825e+01 -2.3187086499786503e+01 -2.3187211992180856e+01 -2.3187340296734835e+01 
-2.3187471489550855e+01 -2.3187605691195287e+01 -2.3187743026733720e+01 -2.3187883637059013e+01 
-2.3188027681008336e+01 -2.3188175338211050e+01 -2.3188326812330320e+01 -2.3188482333794727e+01 
-2.3188642164088431e+01 -2.3188806600434372e+01 -2.3188975980412614e+01 -2.3189150687461431e+01 
-2.3189331157503933e+01 -2.3189517885928762e+01 -2.3189711435429924e+01 -2.3189912445412627e+01 
-2.3190121641865829e+01 -2.3190339848817676e+01 -2.3190568001228538e+01 -2.3190807159324294e+01 
-2.3191058524745980e+01 -2.3191323458545188e+01 -2.3191603501564650e+01 -2.3191900397083703e+01 
-2.3192216116098578e+01 -2.3192552885799355e+01 -2.3192913221271951e+01 -2.3193299960759472e+01 
-2.3193716305288408e+01 -2.3194165862737187e+01 -2.3194652696899290e+01 -2.3195181382159614e+01 
-2.3195757064435824e+01 -2.3196385528850147e+01 -2.3197073274906991e+01 -2.3197827600225260e+01 
-2.3198656693166392e+01 -2.3199569735594689e+01 -2.3200577016725116e+01 -2.3201690059176276e+01 
-2.3202921758208014e+01 -2.3204286535252951e+01 -2.3205800507756543e+01 -2.3207481675707960e+01 
-2.3209350126817363e+01 -2.3211428262312143e+01 -2.3213741043815052e+01 -2.3216316263781824e+01 
-2.3219184840950053e+01 -2.3222381141883044e+01 -2.3225943330544560e+01 -2.3229913747323806e+01 
-2.3234339318274465e+01 -2.3239271995650729e+01 -2.3244769230439911e+01 -2.3250894476420530e+01 
-2.3257717725328437e+01 -2.3265316071488623e+01 -2.3273774303026943e+01 -2.3283185515578534e+01 
-2.3293651742840328e+01 -2.3305284595743384e+01 -2.3318205899695801e+01 -2.3332548316445866e+01 
-2.3348455933054723e+01 -2.3366084796459059e+01 -2.3385603366809647e+01 -2.3407192857012134e+01 
-2.3431047419356769e+01 -2.3457374132317149e+01 -2.3486392732657972e+01 -2.3518335028869789e+01 
-2.3553443922372036e+01 -2.3591971953462586e+01 -2.3634179279447338e+01 -2.3680330983835809e+01 
-2.3730693608657159e+01 -2.3785530797897973e+01 -2.3845097940214732e+01 -2.3909635704943906e+01 
-2.3979362379044964e+01 -2.4054464936378075e+01 -2.4135088806294700e+01 -2.4221326358801502e+01 
-2.4313204190640370e+01 -2.4410669381481181e+01 -2.4513574993381415e+01 -2.4621665209019369e+01 
-2.4734560641246784e+01 -2.4851744495654845e+01 -2.4972550418564289e+01 -2.5096153005159753e+01 
-2.5221562063248523e+01 -2.5347621805718358e+01 -2.5473016161695920e+01 -2.5596281330020837e+01 
-2.5715826525384632e+01 -2.5829963571194796e+01 -2.5936945563229155e+01 -2.6035014263361440e+01 
-2.6122455200981427e+01 -2.6197658699159692e+01 -2.6259184260163394e+01 -2.6305825023354551e+01 
-2.6336668444378969e+01 -2.6351149037082884e+01 -2.6349089064763781e+01 -2.6330723522270002e+01 
-2.6296706630364461e+01 -2.6248098322894169e+01 -2.6186330730198996e+01 -2.6113156286206660e+01 
-2.6030580612817360e+01 -2.5940784570175644e+01 -2.5846040648939599e+01 -2.5748629129356466e+01 
-2.5650759134561312e+01 -2.5554498933984373e+01 -2.5461718740100292e+01 -2.5374047955436382e+01 
-2.5292847535445535e+01 -2.5219196978133940e+01 -2.5153894532490359e+01 -2.5097468583779463e+01 
-2.5050197827679007e+01 -2.5012137755461470e+01 -2.4983151086369698e+01 -2.4962940039634734e+01 
-2.4951078678687260e+01 -2.4947043934473776e+01 -2.4950244283927976e+01 -2.4960045399638165e+01 
-2.4975792381411772e+01 -2.4996828421413312e+01 -2.5022509945845385e+01 -2.5052218415875487e+01 
-2.5085369067533346e+01 -2.5121416931242361e+01 -2.5159860500924289e+01 -2.5200243429616965e+01 
-2.5242154616599802e+01 -2.5285227028020383e+01 -2.5329135560050773e+01 -2.5373594216298670e+01 
-2.5418352833393971e+01 -2.5463193549250899e+01 -2.5507927172083463e+01 -2.5552389574504893e+01 
-2.5596438207152037e+01 -2.5639948800163719e+01 -2.5682812298409527e+01 -2.5724932058803592e+01 
-2.5766221323091958e+01 -2.5806600968021467e+01 -2.5845997526724155e+01 -2.5884341468754037e+01 
-2.5921565722058865e+01 -2.5957604417959221e+01 -2.5992391838818161e+01 -2.6025861547847033e+01 
-2.6057945681141170e+01 -2.6088574382893267e+01 -2.6117675366148298e+01 -2.6145173583058028e+01 
-2.6170990990065928e+01 -2.6195046395220913e+01 -2.6217255376425879e+01 -2.6237530260772711e+01 
-2.6255780156635723e+01 -2.6271911031457936e+01 -2.6285825829159066e+01 -2.6297424622137250e+01 
-2.6306604793755628e+01 -2.6313261247794880e+01 -2.6317286641954908e+01 -2.6318571643094252e+01 
-2.6317005202197549e+01 -2.6312474847309591e+01 -2.6304866993027570e+01 -2.6294067265257208e+01 
-2.6279960839953567e+01 -2.6262432794816117e+01 -2.6241368472852908e+01 -2.6216653856694162e+01 
-2.6188175952719831e+01 -2.6155823183988044e+01 -2.6119485791007470e+01 -2.6079056239553815e+01 
-2.6034429634865884e+01 -2.5985504141736737e+01 -2.5932181410248926e+01 -2.5874367007409067e+01 
-2.5811970855324880e+01 -2.5744907677084861e+01 -2.5673097452239151e+01 -2.5596465884496531e+01 
-2.5514944885139766e+01 -2.5428473076467547e+01 -2.5336996320517184e+01 -2.5240468279299698e+01 
-2.5138851013494651e+01 -2.5032115627214417e+01 -2.4920242966951534e+01 -2.4803224382903309e+01 
-2.4681062560472057e+01 -2.4553772428904541e+01 -2.4421382152570363e+01 -2.4283934208000389e+01 
-2.4141486546673015e+01 -2.3994113839599859e+01 -2.3841908794749429e+01 -2.3684983532425719e+01 
-2.3523470996992099e+01 -2.3357526375887456e+01 -2.3187328488809577e+01 -2.3013081101560569e+01 
-2.2835014110746201e+01 -2.2653384537504095e+01 -2.2468477261131557e+01 -2.2280605417428937e+01 
-2.2090110382092217e+01 -2.1897361257063487e+01 -2.1702753777864821e+01 -2.1506708562959044e+01 
-2.1309668632572340e+01 -2.1112096134501964e+01 -2.0914468228552042e+01 -2.0717272099684063e+01 
-2.0520999092828642e+01 -2.0326137989592375e+01 -2.0133167478568129e+01 -1.9942547906043476e+01 
-1.9754712431681313e+01 -1.9570057752873630e+01 -1.9388934600164877e+01 -1.9211638242301628e+01 
-1.9038399270755740e+01 -1.8869374957671557e+01 -1.8704641496036206e+01 -1.8544187928152812e+01 
-1.8387909157218079e+01 -1.8235605477437826e+01 -1.8086979521274635e+01 -1.7941637726779057e+01 
-1.7799093797387314e+01 -1.7658774717452523e+01 -1.7520029393618429e+01 -1.7382139937059527e+01 
-1.7244335549570486e+01 -1.7105808920073944e+01 -1.6965734984512622e+01 -1.6823291844335916e+01 
-1.6677683577892207e+01 -1.6528164615568240e+01 -1.6374065278658055e+01 -1.6214818007576682e+01 
-1.6049983725348692e+01 -1.5879277701489251e+01 -1.5702594198061082e+01 -1.5520029104016261e+01 
-1.5331899694240759e+01 -1.5138760597271309e+01 -1.4941415023217500e+01 -1.4740920302315279e+01 
-1.4538586818677391e+01 -1.4335969502594629e+01 -1.4134851176743206e+01 -1.3937217236417162e+01 
-1.3745221392915196e+01 -1.3561142511299595e+01 -1.3387332937632721e+01 -1.3226159112414443e+01 
-1.3079935709175068e+01 -1.2950854984000117e+01 -1.2840913465401787e+01 -1.2751838515943829e+01 
-1.2685017636711962e+01 -1.2641433628346409e+01 -1.2621608847502143e+01 -1.2625561772126106e+01 
-1.2652778907849726e+01 -1.2702204706128871e+01 -1.2772251633309892e+01 -1.2860831825829475e+01 
-1.2965410913630667e+01 -1.3083083616550320e+01 -1.3210669651936175e+01 -1.3344862080446841e+01 
-1.3482192750592255e+01 -1.3619460235866280e+01 -1.3753635800442980e+01 -1.3882062715569289e+01 
-1.4002605990881580e+01 -1.4113752564429827e+01 -1.4214698606419301e+01 -1.4305405952291089e+01 
-1.4386621733354300e+01 -1.4459856542110131e+01 -1.4527318204927072e+01 -1.4591800414561524e+01 
-1.4656528062207457e+01 -1.4724964009243681e+01 -1.4800585107831401e+01 -1.4886638317005225e+01 
-1.4985890518418250e+01 -1.5100387827646653e+01 -1.5231241537385317e+01 -1.5378458054588108e+01 
-1.5540829111029886e+01 -1.5715896044531146e+01 -1.5899998096920084e+01 -1.6088409624089504e+01 
-1.6275565146858309e+01 -1.6455364668320996e+01 -1.6621545070876124e+01 -1.6768097116060243e+01 
-1.6889702023571221e+01 -1.6982157178924947e+01 -1.7042757580490857e+01 -1.7070598552797463e+01 
-1.7066766423687188e+01 -1.7034387722494269e+01 -1.6978514431256652e+01 -1.6905833234851531e+01 
-1.6824200625669068e+01 -1.6742022713548117e+01 -1.6667517594486412e+01 -1.6607917270229493e+01 
-1.6568682757267897e+01 -1.6552817062224307e+01 -1.6560363059475630e+01 -1.6588164690677285e+01 
-1.6629949482911620e+01 -1.6676759715696484e+01 -1.6717718289419302e+01 -1.6741101629984819e+01 
-1.6735388346165134e+01 -1.6692474341100318e+01 -1.6590989834351301e+01 -1.6380454031858115e+01 
-1.6161417488109105e+01 -1.5947591831158713e+01 -1.5736960450378797e+01 -1.5529482710029281e+01 
-1.5325074543242213e+01 -1.5123669265668594e+01 -1.4925201135060373e+01 -1.4729606880536016e+01 
-1.4536825464176268e+01 -1.4346798019027085e+01 -1.4159467771324231e+01 -1.3974779965578268e+01 
-1.3792681790360946e+01 -1.3613122304724365e+01 -1.3436052365128562e+01 -1.3261424552675170e+01 
-1.3089193100695477e+01 -1.2919313822631590e+01 -1.2751744040333119e+01 -1.2586442512909882e+01 
-1.2423369366360239e+01 -1.2262486024292389e+01 -1.2103755140115343e+01 -1.1947140531167124e+01 
-1.1792607115312540e+01 -1.1640120850642575e+01 -1.1489648678863125e+01 -1.1341158473094541e+01 
-1.1194618990611753e+01 -1.1049999831119456e+01 -1.0907271400831224e+01 -1.0766404882537953e+01 
-1.0627372211441115e+01 -1.0490146056260388e+01 -1.0354699804749851e+01 -1.0221007552375838e+01 
-1.0089044092728411e+01 -9.9587849079633841e+00 -9.8302061576103448e+00 -9.7032846641725943e+00 
-9.5779978942611468e+00 -9.4543239343604473e+00 -9.3322414609426794e+00 -9.2117297050907165e+00 
-9.0927684123784509e+00 -8.9753377992151790e+00 -8.8594185071111298e+00 -8.7449915565704224e+00 
-8.6320383022505105e+00 -8.5205403909151425e+00 -8.4104797236707487e+00 -8.3018384228903663e+00 
-8.1945988051779359e+00 -8.0887433600378955e+00 -7.9842547343767869e+00 -7.8811157224355188e+00 
-7.7793092605502343e+00 -7.6788184260176626e+00 -7.5796264392436399e+00 -7.4817166683442409e+00 
-7.3850726353921221e+00 -7.2896780235666210e+00 -7.1955166845728522e+00 -7.1025726457902705e+00 
-7.0108301167503591e+00 -6.9202734946439426e+00 -6.8308873686958291e+00 -6.7426565233132720e+00 
-6.6555659400311207e+00 -6.5696007983178717e+00 -6.4847464753664079e+00 -6.4009885450179729e+00 
-6.3183127759819193e+00 -6.2367051295123677e+00 -6.1561517566915622e+00 -6.0766389954566913e+00 
-5.9981533674791629e+00 -5.9206815749894233e+00 -5.8442104976129849e+00 -5.7687271892698755e+00 
-5.6942188751638962e+00 -5.6206729488858009e+00 -5.5480769696338008e+00 -5.4764186595533468e+00 
-5.4056859011934364e+00 -5.3358667350652560e+00 -5.2669493573010975e+00 -5.1989221173998130e+00 
-5.1317735160477929e+00 -5.0654922030093088e+00 -5.0000669750778766e+00 -4.9354867740782851e+00 
-4.8717406849178309e+00 -4.8088179336796291e+00 -4.7467078857514871e+00 -4.6854000439941741e+00 
-4.6248840469355024e+00 -4.5651496670002283e+00 -4.5061868087606953e+00 -4.4479855072228798e+00 
-4.3905359261274937e+00 -4.3338283562825319e+00 -4.2778532139167655e+00 -4.2226010390544158e+00 
-4.1680624939138999e+00 -4.1142283613265471e+00 -4.0610895431772800e+00 -4.0086370588657410e+00 
-3.9568620437870057e+00 -3.9057557478324791e+00 -3.8553095339111025e+00 -3.8055148764882372e+00 
-3.7563633601453135e+00 -3.7078466781565678e+00 -3.6599566310859535e+00 -3.6126851253997656e+00 
-3.5660241721009007e+00 -3.5199658853760911e+00 -3.4745024812649752e+00 -3.4296262763435004e+00 
-3.3853296864261062e+00 -3.3416052252835660e+00 -3.2984455033776379e+00 -3.2558432266128658e+00 
-3.2137911951024503e+00 -3.1722823019533224e+00 -3.1313095320635660e+00 -3.0908659609377076e+00 
-3.0509447535156382e+00 -3.0115391630186825e+00 -2.9726425298082053e+00 -2.9342482802600882e+00 
-2.8963499256551364e+00 -2.8589410610813371e+00 -2.8220153643514503e+00 -2.7855665949350579e+00 
-2.7495885929027097e+00 -2.7140752778870270e+00 -2.6790206480532106e+00 -2.6444187790851581e+00 
-2.6102638231844431e+00 -2.5765500080827373e+00 -2.5432716360651013e+00 -2.5104230830070220e+00 
-2.4779987974246978e+00 -2.4459932995374820e+00 -2.4144011803394485e+00 -2.3832171006873804e+00 
-2.3524357903976845e+00 -2.3220520473554660e+00 -2.2920607366358747e+00 -2.2624567896360452e+00 
-2.2332352032187406e+00 -2.2043910388660728e+00 -2.1759194218456157e+00 -2.1478155403861097e+00 
-2.1200746448653995e+00 -2.0926920470054085e+00 -2.0656631190821768e+00 -2.0389832931425431e+00 
-2.0126480602324248e+00 -1.9866529696345649e+00 -1.9609936281172229e+00 -1.9356656991903849e+00 
-1.9106649023737772e+00 -1.8859870124732496e+00 -1.8616278588666513e+00 -1.8375833247990616e+00 
-1.8138493466869825e+00 -1.7904219134316344e+00 -1.7672970657410330e+00 -1.7444708954608799e+00 
-1.7219395449140695e+00 -1.6996992062487319e+00 -1.6777461207946995e+00 -1.6560765784282785e+00 
-1.6346869169452354e+00 -1.6135735214418685e+00 -1.5927328237040863e+00 -1.5721613016043683e+00 
-1.5518554785065175e+00 -1.5318119226781004e+00 -1.5120272467104767e+00 -1.4924981069463177e+00 
-1.4732212029145229e+00 -1.4541932767724299e+00 -1.4354111127552314e+00 -1.4168715366325042e+00 
-1.3985714151717612e+00 -1.3805076556089173e+00 -1.3626772051256131e+00 -1.3450770503332781e+00 
-1.3277042167638642e+00 -1.3105557683671472e+00 -1.2936288070145339e+00 -1.2769204720092679e+00 
-1.2604279396029658e+00 -1.2441484225183970e+00 -1.2280791694784270e+00 -1.2122174647410466e+00 
-1.1965606276404017e+00 -1.1811060121337589e+00 -1.1658510063543126e+00 -1.1507930321697786e+00 
-1.1359295447466800e+00 -1.1212580321202639e+00 -1.1067760147699808e+00 -1.0924810452004272e+00 
-1.0783707075277238e+00 -1.0644426170712189e+00 -1.0506944199504751e+00 -1.0371237926874575e+00 
-1.0237284418138592e+00 -1.0105061034835006e+00 -9.9745454308973225e-01 -9.8457155488778469e-01 
-9.7185496162198870e-01 -9.5930261415781526e-01 -9.4691239111866810e-01 -9.3468219852736278e-01 
-9.2260996945224272e-01 -9.1069366365786109e-01 -8.9893126726017647e-01 -8.8732079238620076e-01 
-8.7586027683804946e-01 -8.6454778376131580e-01 -8.5338140131774498e-01 -8.4235924236212723e-01 
-8.3147944412336539e-01 -8.2074016788966164e-01 -8.1013959869777252e-01 -7.9967594502627359e-01 
-7.8934743849279032e-01 -7.7915233355513569e-01 -7.6908890721631051e-01 -7.5915545873330892e-01 
-7.4935030932969915e-01 -7.3967180191188997e-01 -7.3011830078909656e-01 -7.2068819139688634e-01 
-7.1137988002433239e-01 -7.0219179354465300e-01 -6.9312237914936692e-01 -6.8417010408585799e-01 
-6.7533345539832812e-01 -6.6661093967212182e-01 -6.5800108278131653e-01 -6.4950242963960969e-01 
-6.4111354395438813e-01 -6.3283300798400954e-01 -6.2465942229818172e-01 -6.1659140554147451e-01 
-6.0862759419984869e-01 -6.0076664237023725e-01 -5.9300722153306717e-01 -5.8534802032775279e-01 
-5.7778774433105662e-01 -5.7032511583834511e-01 -5.6295887364763730e-01 -5.5568777284647242e-01 
-5.4851058460151148e-01 -5.4142609595085422e-01 -5.3443310959906121e-01 -5.2753044371479085e-01 
-5.2071693173108380e-01 -5.1399142214819415e-01 -5.0735277833899872e-01 -5.0079987835688955e-01 
-4.9433161474617637e-01 -4.8794689435491073e-01 -4.8164463815015357e-01 -4.7542378103560295e-01 
-4.6928327167160361e-01 -4.6322207229745477e-01 -4.5723915855603914e-01 -4.5133351932069121e-01 
-4.4550415652432757e-01 -4.3975008499075796e-01 -4.3407033226819958e-01 -4.2846393846492531e-01 
-4.2292995608703587e-01 -4.1746744987834095e-01 -4.1207549666228660e-01 -4.0675318518594938e-01 
-4.0149961596601896e-01 -3.9631390113679626e-01 -3.9119516430012974e-01 -3.8614254037731349e-01 
-3.8115517546287631e-01 -3.7623222668027989e-01 -3.7137286203946018e-01 -3.6657626029622981e-01 
-3.6184161081347527e-01 -3.5716811342416743e-01 -3.5255497829612165e-01 -3.4800142579852295e-01 
-3.4350668637016246e-01 -3.3907000038937646e-01 -3.3469061804567685e-01 -3.3036779921302184e-01 
-3.2610081332474228e-01 -3.2188893925006506e-01 -3.1773146517224887e-01 -3.1362768846827743e-01 
-3.0957691559012240e-01 -3.0557846194752403e-01 -3.0163165179230222e-01 -2.9773581810414473e-01 
-2.9389030247788789e-01 -2.9009445501223619e-01 -2.8634763419993547e-01 -2.8264920681934846e-01 
-2.7899854782744754e-01 -2.7539504025417183e-01 -2.7183807509816610e-01 -2.6832705122385386e-01 
-2.6486137525984155e-01 -2.6144046149864503e-01 -2.5806373179769443e-01 -2.5473061548163517e-01 
-2.5144054924587494e-01 -2.4819297706139090e-01 -2.4498735008075276e-01 -2.4182312654537266e-01 
-2.3869977169394030e-01 
</PP_LOCAL>


<PP_NONLOCAL>
  <PP_BETA>
  1  1      Beta    L
  1188  
 6.5389640505001977e-09  6.7112065624396865e-09  6.8879861053411341e-09  7.0694221888942591e-09 
 7.2556374707868850e-09  7.4467578396261321e-09  7.6429125000439345e-09  7.8442340600441994e-09 
 8.0508586206508055e-09  8.2629258679170973e-09  8.4805791673588788e-09  8.7039656608749248e-09 
 8.9332363662204424e-09  9.1685462791007659e-09  9.4100544779543400e-09  9.6579242314956597e-09 
 9.9123231090911435e-09  1.0173423094042285e-08  1.0441400699852860e-08  1.0716437089558706e-08 
 1.0998718198200723e-08  1.1288434858523982e-08  1.1585782929987834e-08  1.1890963431174221e-08 
 1.2204182675683879e-08  1.2525652411611990e-08  1.2855589964697875e-08  1.3194218385245382e-08 
 1.3541766598913202e-08  1.3898469561477252e-08  1.4264568417669558e-08  1.4640310664201139e-08 
 1.5025950317079017e-08  1.5421748083330641e-08  1.5827971537251504e-08  1.6244895301295351e-08 
 1.6672801231729374e-08  1.7111978609179373e-08  1.7562724334194498e-08  1.8025343127962817e-08 
 1.8500147738314469e-08  1.8987459151150780e-08  1.9487606807442606e-08  2.0000928825944773e-08 
 2.0527772231776948e-08  2.1068493191025490e-08  2.1623457251525019e-08  2.2193039589982232e-08 
 2.2777625265609448e-08  2.3377609480438772e-08  2.3993397846493370e-08  2.4625406659996268e-08 
 2.5274063182801948e-08  2.5939805931241254e-08  2.6623084972574466e-08  2.7324362229253606e-08 
 2.8044111791199002e-08  2.8782820236301396e-08  2.9540986959366753e-08  3.0319124509725378e-08 
 3.1117758937734231e-08  3.1937430150406193e-08  3.2778692276407106e-08  3.3642114040666926e-08 
 3.4528279148858883e-08  3.5437786682005545e-08  3.6371251501479847e-08  3.7329304664673504e-08 
 3.8312593851614939e-08  3.9321783802824769e-08  4.0357556768704377e-08  4.1420612970761908e-08 
 4.2511671074987742e-08  4.3631468677698368e-08  4.4780762804178519e-08  4.5960330420457548e-08 
 4.7170968958566364e-08  4.8413496855630461e-08  4.9688754107162807e-08  5.0997602834930795e-08 
 5.2340927869781842e-08  5.3719637349820406e-08  5.5134663334342260e-08  5.6586962433939290e-08 
 5.8077516457202911e-08  5.9607333074461425e-08  6.1177446499000512e-08  6.2788918186228890e-08 
 6.4442837551258989e-08  6.6140322705390707e-08  6.7882521211993311e-08  6.9670610862299251e-08 
 7.1505800471631804e-08  7.3389330696607349e-08  7.5322474873861554e-08  7.7306539880870207e-08 
 7.9342867019443395e-08  8.1432832922491736e-08  8.3577850484678599e-08  8.5779369817584899e-08 
 8.8038879230034848e-08  9.0357906234243491e-08  9.2738018578467379e-08  9.5180825306855828e-08 
 9.7687977847219311e-08  1.0026117112745072e-07  1.0290214472135376e-07  1.0561268402465404e-07 
 1.0839462146198469e-07  1.1124983772566910e-07  1.1418026304712966e-07  1.1718787850178879e-07 
 1.2027471734834216e-07  1.2344286640330682e-07  1.2669446745177940e-07  1.3003171869535147e-07 
 1.3345687623816563e-07  1.3697225561211489e-07  1.4058023334221693e-07  1.4428324855322053e-07 
 1.4808380461853241e-07  1.5198447085257718e-07  1.5598788424773362e-07  1.6009675125702561e-07 
 1.6431384962376825e-07  1.6864203025940872e-07  1.7308421917082978e-07  1.7764341943842090e-07 
 1.8232271324625101e-07  1.8712526396571979e-07  1.9205431829408915e-07  1.9711320844935007e-07 
 2.0230535442289906e-07  2.0763426629155306e-07  2.1310354659046420e-07  2.1871689274853727e-07 
 2.2447809958799777e-07  2.3039106188979951e-07  2.3645977702660671e-07  2.4268834766512907e-07 
 2.4908098453963773e-07  2.5564200929853768e-07  2.6237585742591829e-07  2.6928708124006052e-07 
 2.7638035297092194e-07  2.8366046791869123e-07  2.9113234769553044e-07  2.9880104355271375e-07 
 3.0667173979539982e-07  3.1474975728735074e-07  3.2304055704796760e-07  3.3154974394407031e-07 
 3.4028307047892142e-07  3.4924644068105434e-07  3.5844591409553164e-07  3.6788770988033627e-07 
 3.7757821101065736e-07  3.8752396859392559e-07  3.9773170629849870e-07  4.0820832489900422e-07 
 4.1896090694140316e-07  4.2999672153093378e-07  4.4132322924617038e-07  4.5294808718251520e-07 
 4.6487915412853833e-07  4.7712449587866028e-07  4.8969239068577172e-07  5.0259133485747186e-07 
 5.1583004849971317e-07  5.2941748141173250e-07  5.4336281913624999e-07  5.5767548916903357e-07 
 5.7236516733201773e-07  5.8744178431429098e-07  6.0291553238536388e-07  6.1879687228527508e-07 
 6.3509654029616614e-07  6.5182555550012404e-07  6.6899522722819334e-07  6.8661716270558852e-07 
 7.0470327489827645e-07  7.2326579056623625e-07  7.4231725852883189e-07  7.6187055814789279e-07 
 7.8193890803423112e-07  8.0253587498347868e-07  8.2367538314729417e-07  8.4537172344612443e-07 
 8.6763956322988666e-07  8.9049395619311661e-07  9.1395035255125630e-07  9.3802460948498478e-07 
 9.6273300185963222e-07  9.8809223322693876e-07  1.0141194471165825e-06  1.0408322386251041e-06 
 1.0682486663100822e-06  1.0963872643975682e-06  1.1252670553110687e-06  1.1549075625304890e-06 
 1.1853288237897953e-06  1.2165514046222546e-06  1.2485964122624471e-06  1.2814855099144252e-06 
 1.3152409313956739e-06  1.3498854961667551e-06  1.3854426247568061e-06  1.4219363545953230e-06 
 1.4593913562609032e-06  1.4978329501579422e-06  1.5372871236325675e-06  1.5777805485393517e-06 
 1.6193405992706968e-06  1.6619953712610566e-06  1.7057736999785082e-06  1.7507051804165149e-06 
 1.7968201870990433e-06  1.8441498946125490e-06  1.8927262986787040e-06  1.9425822377821325e-06 
 1.9937514153677215e-06  2.0462684226225461e-06  2.1001687618577906e-06  2.1554888705064550e-06 
 2.2122661457530533e-06  2.2705389698120000e-06  2.3303467358716869e-06  2.3917298747218352e-06 
 2.4547298820820806e-06  2.5193893466502931e-06  2.5857519788895357e-06  2.6538626405731433e-06 
 2.7237673751078684e-06  2.7955134386555772e-06  2.8691493320745486e-06  2.9447248337019037e-06 
 3.0222910329993548e-06  3.1019003650849886e-06  3.1836066461744067e-06  3.2674651099551631e-06 
 3.3535324449190931e-06  3.4418668326777017e-06  3.5325279872865288e-06  3.6255771956050772e-06 
 3.7210773587194910e-06  3.8190930344560166e-06  3.9196904810139485e-06  4.0229377017475306e-06 
 4.1289044911270412e-06  4.2376624819101359e-06  4.3492851935552301e-06  4.4638480819097191e-06 
 4.5814285902065300e-06  4.7021062014034022e-06  4.8259624919003736e-06  4.9530811866715271e-06 
 5.0835482158484947e-06  5.2174517727936669e-06  5.3548823737024873e-06  5.4959329187750059e-06 
 5.6406987549979780e-06  5.7892777405799244e-06  5.9417703110826636e-06  6.0982795472939079e-06 
 6.2589112448867021e-06  6.4237739859129365e-06  6.5929792121788728e-06  6.7666413005525035e-06 
 6.9448776402533395e-06  7.1278087121769503e-06  7.3155581703077021e-06  7.5082529252746004e-06 
 7.7060232301068373e-06  7.9090027682464729e-06  8.1173287438781876e-06  8.3311419746365560e-06 
 8.5505869867536958e-06  8.7758121127113431e-06  9.0069695914632803e-06  9.2442156712956333e-06 
 9.4877107153946198e-06  9.7376193101926556e-06  9.9941103765661324e-06  1.0257357283959744e-05 
 1.0527537967514361e-05  1.0804835048277338e-05  1.1089435956576508e-05  1.1381533058640684e-05 
 1.1681323786552476e-05  1.1989010771620683e-05  1.2304801981262249e-05  1.2628910859486035e-05 
 1.2961556471073287e-05  1.3302963649551415e-05  1.3653363149061582e-05  1.4012991800221634e-05 
 1.4382092670089788e-05  1.4760915226337030e-05  1.5149715505738237e-05  1.5548756287095914e-05 
 1.5958307268712910e-05  1.6378645250533659e-05  1.6810054321076344e-05  1.7252826049282223e-05 
 1.7707259681410894e-05  1.8173662343114095e-05  1.8652349246824379e-05  1.9143643904597769e-05 
 1.9647878346553673e-05  2.0165393345059284e-05  2.0696538644809182e-05  2.1241673198954287e-05 
 2.1801165411440279e-05  2.2375393385716866e-05  2.2964745179986170e-05  2.3569619069161457e-05 
 2.4190423813712329e-05  2.4827578935576797e-05  2.5481515001326065e-05  2.6152673912771975e-05 
 2.6841509205211822e-05  2.7548486353512108e-05  2.8274083086235446e-05  2.9018789708021929e-05 
 2.9783109430441650e-05  3.0567558711539978e-05  3.1372667604303569e-05  3.2198980114280797e-05 
 3.3047054566596661e-05  3.3917463982607462e-05  3.4810796466449177e-05  3.5727655601737055e-05 
 3.6668660858683141e-05  3.7634448011904274e-05  3.8625669569200259e-05  3.9642995211589290e-05 
 4.0687112244895438e-05  4.1758726063189920e-05  4.2858560624396585e-05  4.3987358938380101e-05 
 4.5145883567841771e-05  4.6334917142359407e-05  4.7555262885914210e-05  4.8807745158256363e-05 
 5.0093210010472015e-05  5.1412525755121779e-05  5.2766583551331507e-05  5.4156298005225451e-05 
 5.5582607786103100e-05  5.7046476258769390e-05  5.8548892132439872e-05  6.0090870126654142e-05 
 6.1673451654639799e-05  6.3297705524582279e-05  6.4964728659267483e-05  6.6675646834575086e-05 
 6.8431615437314144e-05  7.0233820242904444e-05  7.2083478213420151e-05  7.3981838316524795e-05 
 7.5930182365842831e-05  7.7929825883322755e-05  7.9982118984165735e-05  8.2088447284904607e-05 
 8.4250232835234682e-05  8.6468935074213778e-05  8.8746051811464021e-05  9.1083120234022237e-05 
 9.3481717939506871e-05  9.5943463996281758e-05  9.8470020031316149e-05  1.0106309134646005e-04 
 1.0372442806386854e-04  1.0645582630133055e-04  1.0925912937827489e-04  1.1213622905324745e-04 
 1.1508906679367169e-04  1.1811963507872650e-04  1.2122997873619638e-04  1.2442219631417047e-04 
 1.2769844148848811e-04  1.3106092450685338e-04  1.3451191367056133e-04  1.3805373685480340e-04 
 1.4168878306854922e-04  1.4541950405501402e-04  1.4924841593376076e-04  1.5317810088550231e-04 
 1.5721120888069986e-04  1.6135045945308050e-04  1.6559864351922411e-04  1.6995862524539756e-04 
 1.7443334396284477e-04  1.7902581613277456e-04  1.8373913736230809e-04  1.8857648447269179e-04 
 1.9354111762110289e-04  1.9863638247741844e-04  2.0386571245733958e-04  2.0923263101330566e-04 
 2.1474075398466818e-04  2.2039379200862068e-04  2.2619555299343547e-04  2.3214994465556787e-04 
 2.3826097712225896e-04  2.4453276560127991e-04  2.5096953311951574e-04  2.5757561333212019e-04 
 2.6435545340402242e-04  2.7131361696559734e-04  2.7845478714436073e-04  2.8578376967460412e-04 
 2.9330549608690539e-04  3.0102502697952274e-04  3.0894755537370759e-04  3.1707841015503406e-04 
 3.2542305960287562e-04  3.3398711501022666e-04  3.4277633439610573e-04  3.5179662631282433e-04 
 3.6105405375048250e-04  3.7055483814106625e-04  3.8030536346461756e-04  3.9031218045997078e-04 
 4.0058201094262850e-04  4.1112175223239299e-04  4.2193848169342550e-04  4.3303946138949250e-04 
 4.4443214285716981e-04  4.5612417199989124e-04  4.6812339410574476e-04  4.8043785899200633e-04 
 4.9307582627947241e-04  5.0604577079968460e-04  5.1935638813824410e-04  5.3301660031745339e-04 
 5.4703556162160705e-04  5.6142266456830068e-04  5.7618754602922978e-04  5.9134009350398449e-04 
 6.0689045155044039e-04  6.2284902837540204e-04  6.3922650258925321e-04  6.5603383012839938e-04 
 6.7328225134940232e-04  6.9098329829875662e-04  7.0914880216233064e-04  7.2779090089859669e-04 
 7.4692204705981006e-04  7.6655501580539566e-04  7.8670291311188083e-04  8.0737918418377196e-04 
 8.2859762206985205e-04  8.5037237648946629e-04  8.7271796287341312e-04  8.9564927162413669e-04 
 9.1918157760003988e-04  9.4333054982870691e-04  9.6811226145401233e-04  9.9354319992207406e-04 
 1.0196402774111336e-03  1.0464208415104888e-03  1.0739026861536797e-03  1.1021040628111838e-03 
 1.1310436919479592e-03  1.1607407747512186e-03  1.1912150051338717e-03  1.2224865820191497e-03 
 1.2545762219119557e-03  1.2875051717625376e-03  1.3212952221281484e-03  1.3559687206383614e-03 
 1.3915485857697581e-03  1.4280583209357676e-03  1.4655220288974143e-03  1.5039644265007728e-03 
 1.5434108597469421e-03  1.5838873192003731e-03  1.6254204557413273e-03  1.6680375966683101e-03 
 1.7117667621562415e-03  1.7566366820761525e-03  1.8026768131820614e-03  1.8499173566708094e-03 
 1.8983892761203695e-03  1.9481243158122232e-03  1.9991550194432338e-03  2.0515147492323957e-03 
 2.1052377054276714e-03  2.1603589462180408e-03  2.2169144080557012e-03  2.2749409263932091e-03 
 2.3344762568402121e-03  2.3955590967440674e-03  2.4582291071986008e-03  2.5225269354848430e-03 
 2.5884942379474133e-03  2.6561737033098331e-03  2.7256090764317667e-03  2.7968451825107991e-03 
 2.8699279517308989e-03  2.9449044443595079e-03  3.0218228762943491e-03  3.1007326450608733e-03 
 3.1816843562606032e-03  3.2647298504699315e-03  3.3499222305884489e-03  3.4373158896351141e-03 
 3.5269665389898084e-03  3.6189312370770482e-03  3.7132684184878599e-03  3.8100379235347153e-03 
 3.9093010282336303e-03  4.0111204747063384e-03  4.1155605019944875e-03  4.2226868772764180e-03 
 4.3325669274759653e-03  4.4452695712512745e-03  4.5608653513501711e-03  4.6794264673171654e-03 
 4.8010268085353679e-03  4.9257419875849652e-03  5.0536493738979928e-03  5.1848281276871784e-03 
 5.3193592341244881e-03  5.4573255377427963e-03  5.5988117770317041e-03  5.7439046191960792e-03 
 5.8926926950431582e-03  6.0452666339612183e-03  6.2017190989498228e-03  6.3621448216586206e-03 
 6.5266406373881251e-03  6.6953055200023003e-03  6.8682406166995129e-03  7.0455492825836101e-03 
 7.2273371149734972e-03  7.4137119873847650e-03  7.6047840831120163e-03  7.8006659283362534e-03 
 8.0014724246757242e-03  8.2073208810937645e-03  8.4183310450708423e-03  8.6346251329423359e-03 
 8.8563278592968340e-03  9.0835664653229429e-03  9.3164707459859209e-03  9.5551730759070273e-03 
 9.7998084338115476e-03  1.0050514425402314e-02  1.0307431304507378e-02  1.0570701992340829e-02 
 1.0840472094706068e-02  1.1116889916961531e-02  1.1400106476556657e-02  1.1690275512935859e-02 
 1.1987553494595984e-02  1.2292099623071163e-02  1.2604075833603994e-02  1.2923646792251227e-02 
 1.3250979889155294e-02  1.3586245227699356e-02  1.3929615609249334e-02  1.4281266513165284e-02 
 1.4641376071753889e-02  1.5010125039810649e-02  1.5387696758383409e-02  1.5774277112370942e-02 
 1.6170054481546743e-02  1.6575219684579565e-02  1.6989965915598027e-02  1.7414488672824888e-02 
 1.7848985678780759e-02  1.8293656791534295e-02  1.8748703906445559e-02  1.9214330847826550e-02 
 1.9690743249910266e-02  2.0178148426493445e-02  2.0676755228584590e-02  2.1186773889358329e-02 
 2.1708415855683821e-02  2.2241893605460635e-02  2.2787420449958622e-02  2.3345210320323381e-02 
 2.3915477537368505e-02  2.4498436563738148e-02  2.5094301737481343e-02  2.5703286986037313e-02 
 2.6325605519588475e-02  2.6961469502693111e-02  2.7611089703061049e-02  2.8274675116291999e-02 
 2.8952432565345566e-02  2.9644566273460893e-02  3.0351277409196454e-02  3.1072763602204671e-02 
 3.1809218428303802e-02  3.2560830862358482e-02  3.3327784697418032e-02  3.4110257928514513e-02 
 3.4908422099457409e-02  3.5722441610911190e-02  3.6552472987979485e-02  3.7398664105464455e-02 
 3.8261153368910492e-02  3.9140068849484129e-02  4.0035527370684221e-02  4.0947633544818680e-02 
 4.1876478757128924e-02  4.2822140095389219e-02  4.3784679222752046e-02  4.4764141191562308e-02 
 4.5760553195812514e-02  4.6773923259866394e-02  4.7804238861034250e-02  4.8851465483546810e-02 
 4.9915545101438467e-02  5.0996394587823464e-02  5.2093904048025191e-02  5.3207935074001837e-02 
 5.4338318917506394e-02  5.5484854579415099e-02  5.6647306812672209e-02  5.7825404036315670e-02 
 5.9018836158084162e-02  6.0227252303148474e-02  6.1450258446571489e-02  6.2687414947176126e-02 
 6.3938233980594367e-02  6.5202176869380263e-02  6.6478651308206710e-02  6.7767008482317023e-02 
 6.9066540077585781e-02  7.0376475180750284e-02  7.1695977068607572e-02  7.3024139885243408e-02 
 7.4359985206660553e-02  7.5702458492508687e-02  7.7050425425003746e-02  7.8402668135536743e-02 
 7.9757881319947391e-02  8.1114668243945712e-02  8.2471536640737197e-02  8.3826894503529759e-02 
 8.5179045776286738e-02  8.6526185946830869e-02  8.7866397547230024e-02  8.9197645567272402e-02 
 9.0517772787807940e-02  9.1824495041774729e-02  9.3115396411860271e-02  9.4387924374960769e-02 
 9.5639384904922922e-02  9.6866937546455784e-02  9.8067590474624100e-02  9.9238195555954270e-02 
 1.0037544342892260e-01  1.0147585862345034e-01  1.0253579474100918e-01  1.0355142971904074e-01 
 1.0451876120562703e-01  1.0543360207272014e-01  1.0629157609873228e-01  1.0708811385394147e-01 
 1.0781844882493960e-01  1.0847761381728172e-01  1.0906043767855893e-01  1.0956154238732398e-01 
 1.0997534055665258e-01  1.1029603340459623e-01  1.1051760924740832e-01  1.1063384257515378e-01 
 1.1063829377317419e-01  1.1052430955683341e-01  1.1028502419102024e-01  1.0991336157000846e-01 
 1.0940203823744817e-01  1.0874356743047868e-01  1.0793026423615508e-01  1.0695425195257600e-01 
 1.0580746975121098e-01  1.0448168174094176e-01  1.0296848753819186e-01  1.0125933445116211e-01 
 9.9345531389571515e-02  9.7218264614339786e-02  9.4868615444260701e-02  9.2287580038838149e-02 
 8.9466091377957316e-02  8.6395043559874429e-02  8.3065318538967287e-02  7.9467815423712285e-02 
 7.5593482453246222e-02  7.1433351767520692e-02  6.6978577081242191e-02  6.2220474365390188e-02 
 5.7150565631814018e-02  5.1760625906121592e-02  4.6042733461444288e-02  3.9989323370507174e-02 
 3.3593244415437672e-02  2.6847819373632949e-02  1.9746908673461561e-02  1.2284977385264989e-02 
 4.4571654807251757e-03  -3.7406387432056191e-03  -1.2311722221292178e-02  -2.1258467850287194e-02 
 -3.0582272637294346e-02  -4.0283463569417581e-02  -5.0361211572601254e-02  -6.0813443998870634e-02 
 -7.1636756159539919e-02  -8.2826322507430439e-02  -9.4375808164193109e-02  -1.0627728158940644e-01 
 -1.1852112929639015e-01  -1.3109597363555048e-01  -1.4398859478935527e-01  -1.5718385825336018e-01 
 -1.7066464921453500e-01  -1.8441181538062398e-01  -1.9840411996138640e-01  -2.1261820665288228e-01 
 -2.2702857862772419e-01  -2.4160759368526538e-01  -2.5632547786333826e-01  -2.7115035995428072e-01 
 -2.8604832949880182e-01  -3.0098352094738973e-01  -3.1591822677544712e-01  -3.3081304240923559e-01 
 -3.4562704585872606e-01  -3.6031801495306726e-01  -3.7484268502660673e-01  -3.8915704979939880e-01 
 -4.0321670802622128e-01  -4.1697725824214810e-01  -4.3039474359978663e-01  -4.4342614836227801e-01 
 -4.5602994707555922e-01  -4.6816670678196926e-01  -4.7979974184394875e-01  -4.9089582001123072e-01 
 -5.0142591727846320e-01  -5.1136601783538915e-01  -5.2069795400361574e-01  -5.2941027948054464e-01 
 -5.3749916747408033e-01  -5.4496932341717652e-01  -5.5183489991077550e-01  -5.5812039937437352e-01 
 -5.6386154760970175e-01  -5.6910611913659104e-01  -5.7391469278102891e-01  -5.7836131363278132e-01 
 -5.8253403520200830e-01  -5.8653531345919907e-01  -5.9048222251846327e-01  -5.9450646010871966e-01 
 -5.9875410976828469e-01  -6.0338512600287286e-01  -6.0857250858085821e-01  -6.1450109312290990e-01 
 -6.2136615981229526e-01  -6.2937126006293198e-01  -6.3872598095108923e-01  -6.4964308091045253e-01 
 -6.6233520576807869e-01  -6.7701111311076878e-01  -6.9387143246560223e-01  -7.1310401768928278e-01 
 -7.3487883955049305e-01  -7.5934251584167123e-01  -7.8661252984962571e-01  -8.1677121987868595e-01 
 -8.4985964377109469e-01  -8.8587144584371114e-01  -9.2474687820686130e-01  -9.6636715395203698e-01 
 -1.0105493352089669e+00  -1.0570419838218823e+00  -1.1055218249514864e+00  -1.1555916927589056e+00 
 -1.2067800408495135e+00  -1.2585423052108342e+00  -1.3102644030537822e+00  -1.3612686326817041e+00 
 -1.4108222058024060e+00  -1.4581485914425849e+00  -1.5024417768456451e+00  -1.5428834548735455e+00 
 -1.5786630272408644e+00  -1.6090001706769603e+00  -1.6331695492841600e+00  -1.6505270779018979e+00 
 -1.6605369518919986e+00  -1.6627984715915480e+00  -1.6570715121402309e+00  -1.6432993393078170e+00 
 -1.6216273598807700e+00  -1.5924163412828227e+00  -1.5562486481098643e+00  -1.5139261420914969e+00 
 -1.4664585803386463e+00  -1.4150416332566784e+00  -1.3610240272302720e+00  -1.3058637903899191e+00 
 -1.2510741349814514e+00  -1.1981601248844538e+00  -1.1485479348318259e+00  -1.1035091787497842e+00 
 -1.0640834400144727e+00  -1.0310027427322146e+00  -1.0046222213054095e+00  -9.8486163535128846e-01 
 -9.7116259088542178e-01  -9.6246631555262041e-01  -9.5721654078835172e-01  -9.5339141190792187e-01 
 -9.4856732558409884e-01  -9.4001614692090185e-01  -9.2483536860715643e-01  -9.0010846519702314e-01 
 -8.6309003873158918e-01  -8.1140748026251452e-01  -7.4326798617324186e-01  -6.5765713394242997e-01 
 -5.5451315382488076e-01  -4.3485987162437001e-01  -3.0088136726494896e-01  -1.5592296114557949e-01 
 -4.4063655221850562e-03  1.4834826128280004e-01  2.9639419253685123e-01  4.3351713961976746e-01 
 5.5366620182395787e-01  6.5143302599708586e-01  7.2254738414485953e-01  7.6435049923390741e-01 
 7.7620246441122986e-01  7.5977773286148564e-01  7.1920364465568598e-01  6.6100205244280463e-01 
 5.9380401031603214e-01  5.2782273836218740e-01  4.7409083088208354e-01  4.4349343977957162e-01 
 4.4565845338242793e-01  4.8779478586499792e-01  5.7359677199854198e-01  7.0235127712611423e-01 
 8.6838908914306656e-01  1.0610087938810244e+00  1.2649669867873428e+00  1.4615738149604092e+00 
 1.6303616612477894e+00  1.7512151379420215e+00  1.8067710046818446e+00  1.7848432599543771e+00 
 1.6804617346701896e+00  1.4983121739104814e+00  1.2444390524752744e+00  9.1597509115455733e-01 
 5.9221257814673489e-01  3.1301526210797714e-01  1.0711561797380180e-01  5.5712483998023327e-03 
 -5.5194198055116589e-04  5.4680733413514590e-05  -5.4172042477980357e-06  5.3668083331859325e-07 
 -5.3169118446579668e-08  5.2675357831032202e-09  -5.2180265146074183e-10  5.1141507539703744e-11 
 -4.7653291920633048e-12  3.4455510642545286e-13  -3.3994759744992474e-15  -1.2183531490042635e-13 
 -4.1514710281033896e-13  3.2556186842323119e-13  5.8665564858951785e-14  -8.2345119316169290e-14 
 -2.9378373326598978e-13  -2.2625281916077445e-13  -1.4922498027136021e-13  4.9836301469766120e-13 
 -8.4082091939756991e-13  7.0960649961891454e-13  -6.8146754035645450e-13  4.1401393027723637e-13 
 3.9480129162343177e-13  -2.3571075500005921e-13  2.7344678162639360e-13  6.8069057707744629e-14 
 9.0953106241143722e-13  -6.6214222467264814e-13  -1.0724564260847741e-13  4.0104516515019856e-13 
 -1.3975489447009271e-13  -1.0533817221725108e-13  5.4659801762350641e-13  -2.1653049092491055e-13 
 1.1017720410541338e-13  -2.2666859795331705e-13  -2.0765492662153249e-13  1.9499081403010493e-13 
 -2.2943052100329887e-13  4.0042998979748901e-14  4.2114366159695461e-14  4.5883025286772573e-14 
 -3.6556359637144011e-14  -2.0513674961193840e-11  -2.0375659851294078e-11  -1.9035953835470784e-11 
 -1.8823282885595549e-11  -1.8170925202405064e-11  0.0000000000000000e+00  0.0000000000000000e+00 
 0.0000000000000000e+00  0.0000000000000000e+00  0.0000000000000000e+00  0.0000000000000000e+00 
 0.0000000000000000e+00  0.0000000000000000e+00  0.0000000000000000e+00  0.0000000000000000e+00 
 0.0000000000000000e+00  0.0000000000000000e+00  0.0000000000000000e+00  0.0000000000000000e+00 
 0.0000000000000000e+00  0.0000000000000000e+00  0.0000000000000000e+00  0.0000000000000000e+00 
 0.0000000000000000e+00  0.0000000000000000e+00  0.0000000000000000e+00  0.0000000000000000e+00 
 0.0000000000000000e+00  0.0000000000000000e+00  0.0000000000000000e+00  0.0000000000000000e+00 
 0.0000000000000000e+00  0.0000000000000000e+00  0.0000000000000000e+00  0.0000000000000000e+00 
 0.0000000000000000e+00  0.0000000000000000e+00  0.0000000000000000e+00  0.0000000000000000e+00 
 0.0000000000000000e+00  0.0000000000000000e+00  0.0000000000000000e+00  0.0000000000000000e+00 
 0.0000000000000000e+00  0.0000000000000000e+00  0.0000000000000000e+00  0.0000000000000000e+00 
 0.0000000000000000e+00  0.0000000000000000e+00  0.0000000000000000e+00  0.0000000000000000e+00 
 0.0000000000000000e+00  0.0000000000000000e+00  0.0000000000000000e+00  0.0000000000000000e+00 
 0.0000000000000000e+00  0.0000000000000000e+00  0.0000000000000000e+00  0.0000000000000000e+00 
 0.0000000000000000e+00  0.0000000000000000e+00  0.0000000000000000e+00  0.0000000000000000e+00 
 0.0000000000000000e+00  0.0000000000000000e+00  0.0000000000000000e+00  0.0000000000000000e+00 
 0.0000000000000000e+00  0.0000000000000000e+00  0.0000000000000000e+00  0.0000000000000000e+00 
 0.0000000000000000e+00  0.0000000000000000e+00  0.0000000000000000e+00  0.0000000000000000e+00 
 0.0000000000000000e+00  0.0000000000000000e+00  0.0000000000000000e+00  0.0000000000000000e+00 
 0.0000000000000000e+00  0.0000000000000000e+00  0.0000000000000000e+00  0.0000000000000000e+00 
 0.0000000000000000e+00  0.0000000000000000e+00  0.0000000000000000e+00  0.0000000000000000e+00 
 0.0000000000000000e+00  0.0000000000000000e+00  0.0000000000000000e+00  0.0000000000000000e+00 
 0.0000000000000000e+00  0.0000000000000000e+00  0.0000000000000000e+00  0.0000000000000000e+00 
 0.0000000000000000e+00  0.0000000000000000e+00  0.0000000000000000e+00  0.0000000000000000e+00 
 0.0000000000000000e+00  0.0000000000000000e+00  0.0000000000000000e+00  0.0000000000000000e+00 
 0.0000000000000000e+00  0.0000000000000000e+00  0.0000000000000000e+00  0.0000000000000000e+00 
 0.0000000000000000e+00  0.0000000000000000e+00  0.0000000000000000e+00  0.0000000000000000e+00 
 0.0000000000000000e+00  0.0000000000000000e+00  0.0000000000000000e+00  0.0000000000000000e+00 
 0.0000000000000000e+00  0.0000000000000000e+00  0.0000000000000000e+00  0.0000000000000000e+00 
 0.0000000000000000e+00  0.0000000000000000e+00  0.0000000000000000e+00  0.0000000000000000e+00 
 0.0000000000000000e+00  0.0000000000000000e+00  0.0000000000000000e+00  0.0000000000000000e+00 
 0.0000000000000000e+00  0.0000000000000000e+00  0.0000000000000000e+00  0.0000000000000000e+00 
 0.0000000000000000e+00  0.0000000000000000e+00  0.0000000000000000e+00  0.0000000000000000e+00 
 0.0000000000000000e+00  0.0000000000000000e+00  0.0000000000000000e+00  0.0000000000000000e+00 
 0.0000000000000000e+00  0.0000000000000000e+00  0.0000000000000000e+00  0.0000000000000000e+00 
 0.0000000000000000e+00  0.0000000000000000e+00  0.0000000000000000e+00  0.0000000000000000e+00 
 0.0000000000000000e+00  0.0000000000000000e+00  0.0000000000000000e+00  0.0000000000000000e+00 
 0.0000000000000000e+00  0.0000000000000000e+00  0.0000000000000000e+00  0.0000000000000000e+00 
 0.0000000000000000e+00  0.0000000000000000e+00  0.0000000000000000e+00  0.0000000000000000e+00 
 0.0000000000000000e+00  0.0000000000000000e+00  0.0000000000000000e+00  0.0000000000000000e+00 
 0.0000000000000000e+00  0.0000000000000000e+00  0.0000000000000000e+00  0.0000000000000000e+00 
 0.0000000000000000e+00  0.0000000000000000e+00  0.0000000000000000e+00  0.0000000000000000e+00 
 0.0000000000000000e+00  0.0000000000000000e+00  0.0000000000000000e+00  0.0000000000000000e+00 
 0.0000000000000000e+00  0.0000000000000000e+00  0.0000000000000000e+00  0.0000000000000000e+00 
 0.0000000000000000e+00  0.0000000000000000e+00  0.0000000000000000e+00  0.0000000000000000e+00 
 0.0000000000000000e+00  0.0000000000000000e+00  0.0000000000000000e+00  0.0000000000000000e+00 
 0.0000000000000000e+00  0.0000000000000000e+00  0.0000000000000000e+00  0.0000000000000000e+00 
 0.0000000000000000e+00  0.0000000000000000e+00  0.0000000000000000e+00  0.0000000000000000e+00 
 0.0000000000000000e+00  0.0000000000000000e+00  0.0000000000000000e+00  0.0000000000000000e+00 
 0.0000000000000000e+00  0.0000000000000000e+00  0.0000000000000000e+00  0.0000000000000000e+00 
 0.0000000000000000e+00  0.0000000000000000e+00  0.0000000000000000e+00  0.0000000000000000e+00 
 0.0000000000000000e+00  0.0000000000000000e+00  0.0000000000000000e+00  0.0000000000000000e+00 
 0.0000000000000000e+00  0.0000000000000000e+00  0.0000000000000000e+00  0.0000000000000000e+00 
 0.0000000000000000e+00  0.0000000000000000e+00  0.0000000000000000e+00  0.0000000000000000e+00 
 0.0000000000000000e+00  0.0000000000000000e+00  0.0000000000000000e+00  0.0000000000000000e+00 
 0.0000000000000000e+00  0.0000000000000000e+00  0.0000000000000000e+00  0.0000000000000000e+00 
 0.0000000000000000e+00  0.0000000000000000e+00  0.0000000000000000e+00  0.0000000000000000e+00 
 0.0000000000000000e+00  0.0000000000000000e+00  0.0000000000000000e+00  0.0000000000000000e+00 
 0.0000000000000000e+00  0.0000000000000000e+00  0.0000000000000000e+00  0.0000000000000000e+00 
 0.0000000000000000e+00  0.0000000000000000e+00  0.0000000000000000e+00  0.0000000000000000e+00 
 0.0000000000000000e+00  0.0000000000000000e+00  0.0000000000000000e+00  0.0000000000000000e+00 
 0.0000000000000000e+00  0.0000000000000000e+00  0.0000000000000000e+00  0.0000000000000000e+00 
 0.0000000000000000e+00  0.0000000000000000e+00  0.0000000000000000e+00  0.0000000000000000e+00 
 0.0000000000000000e+00  0.0000000000000000e+00  0.0000000000000000e+00  0.0000000000000000e+00 
 0.0000000000000000e+00  0.0000000000000000e+00  0.0000000000000000e+00  0.0000000000000000e+00 
 0.0000000000000000e+00  0.0000000000000000e+00  0.0000000000000000e+00  0.0000000000000000e+00 
 0.0000000000000000e+00  0.0000000000000000e+00  0.0000000000000000e+00  0.0000000000000000e+00 
 0.0000000000000000e+00  0.0000000000000000e+00  0.0000000000000000e+00  0.0000000000000000e+00 
 0.0000000000000000e+00 
  </PP_BETA>
  <PP_BETA>
  2  2      Beta    L
  1188  
 -5.7676856929027835e-13  -5.9970693417649162e-13  -6.2355756892376047e-13  -6.4835675494537060e-13 
 -6.7414221658393796e-13  -7.0095317849740765e-13  -7.2883042532732157e-13  -7.5781636374011369e-13 
 -7.8795508693582344e-13  -8.1929244172235639e-13  -8.5187609825730904e-13  -8.8575562256346979e-13 
 -9.2098255192828729e-13  -9.5761047330202829e-13  -9.9569510481384067e-13  -1.0352943805297800e-12 
 -1.0764685385816803e-12  -1.1192802128009663e-12  -1.1637945279967793e-12  -1.2100791990233598e-12 
 -1.2582046337873962e-12  -1.3082440403520151e-12  -1.3602735383003530e-12  -1.4143722745281117e-12 
 -1.4706225436412400e-12  -1.5291099131418821e-12  -1.5899233535930453e-12  -1.6531553739599568e-12 
 -1.7189021623340468e-12  -1.7872637322535451e-12  -1.8583440748433602e-12  -1.9322513170056164e-12 
 -2.0090978859014969e-12  -2.0890006799746332e-12  -2.1720812467761384e-12  -2.2584659678618755e-12 
 -2.3482862510431379e-12  -2.4416787302832432e-12  -2.5387854735441421e-12  -2.6397541988991243e-12 
 -2.7447384992404889e-12  -2.8538980759239178e-12  -2.9673989817050007e-12  -3.0854138733374652e-12 
 -3.2081222742173579e-12  -3.3357108474727223e-12  -3.4683736799141566e-12  -3.6063125772782421e-12 
 -3.7497373712129541e-12  -3.8988662384720125e-12  -4.0539260328037128e-12  -4.2151526300392289e-12 
 -4.3827912869051203e-12  -4.5570970141061076e-12  -4.7383349642454118e-12  -4.9267808351729659e-12 
 -5.1227212893749294e-12  -5.3264543900425116e-12  -5.5382900544835130e-12  -5.7585505255662171e-12 
 -5.9875708619128235e-12  -6.2256994475881575e-12  -6.4732985220588873e-12  -6.7307447312295117e-12 
 -6.9984297003932807e-12  -7.2767606299696718e-12  -7.5661609149346295e-12  -7.8670707888857977e-12 
 -8.1799479937225943e-12  -8.5052684759597408e-12  -8.8435271107335448e-12  -9.1952384546021621e-12 
 -9.5609375282852573e-12  -9.9411806305333930e-12  -1.0336546184365545e-11  -1.0747635616961817e-11 
 -1.1175074274549870e-11  -1.1619512373676937e-11  -1.2081625990314266e-11  -1.2562118088298673e-11 
 -1.3061719588675909e-11  -1.3581190481572074e-11  -1.4121320982284924e-11  -1.4682932733353122e-11 
 -1.5266880054432857e-11  -1.5874051241882179e-11  -1.6505369920030530e-11  -1.7161796446189131e-11 
 -1.7844329371539101e-11  -1.8554006960119725e-11  -1.9291908768227643e-11  -2.0059157286629745e-11 
 -2.0856919648087142e-11  -2.1686409402788633e-11  -2.2548888364393723e-11  -2.3445668529493717e-11 
 -2.4378114073410710e-11  -2.5347643425370306e-11  -2.6355731426205112e-11  -2.7403911571870925e-11 
 -2.8493778346188796e-11  -2.9626989646360939e-11  -3.0805269304951226e-11  -3.2030409712165208e-11 
 -3.3304274542419993e-11  -3.4628801589350897e-11  -3.6006005713567550e-11  -3.7437981907643734e-11 
 -3.8926908483002987e-11  -4.0475050383548933e-11  -4.2084762631078928e-11  -4.3758493907724490e-11 
 -4.5498790280866654e-11  -4.7308299076192559e-11  -4.9189772904786004e-11  -5.1146073850376463e-11 
 -5.3180177823117608e-11  -5.5295179086516631e-11  -5.7494294964403023e-11  -5.9780870735094017e-11 
 -6.2158384720204335e-11  -6.4630453575840178e-11  -6.7200837794225359e-11  -6.9873447424130597e-11 
 -7.2652348018806857e-11  -7.5541766820469880e-11  -7.8546099190744896e-11  -8.1669915296853134e-11 
 -8.4917967063710832e-11  -8.8295195402516238e-11  -9.1806737726820289e-11  -9.5457935767515897e-11 
 -9.9254343698631459e-11  -1.0320173658629189e-10  -1.0730611917369753e-10  -1.1157373501548658e-10 
 -1.1601107597537333e-10  -1.2062489210151442e-10  -1.2542220189462002e-10  -1.3041030298443333e-10 
 -1.3559678323081822e-10  -1.4098953226634214e-10  -1.4659675349791178e-10  -1.5242697658572018e-10 
 -1.5848907041848417e-10  -1.6479225660471668e-10  -1.7134612350054824e-10  -1.7816064079544398e-10 
 -1.8524617467799953e-10  -1.9261350360488671e-10  -2.0027383469693694e-10  -2.0823882078730364e-10 
 -2.1652057814763760e-10  -2.2513170491923848e-10  -2.3408530027722215e-10  -2.4339498435685389e-10 
 -2.5307491897235778e-10  -2.6313982915972646e-10  -2.7360502557629328e-10  -2.8448642779114434e-10 
 -2.9580058850180158e-10  -3.0756471871400873e-10  -3.1979671392293430e-10  -3.3251518133560215e-10 
 -3.4573946817597747e-10  -3.5948969111574875e-10  -3.7378676687558879e-10  -3.8865244404343824e-10 
 -4.0410933615821095e-10  -4.2018095610925624e-10  -4.3689175190389248e-10  -4.5426714385743969e-10 
 -4.7233356326229921e-10  -4.9111849259493274e-10  -5.1065050732186627e-10  -5.3095931936835906e-10 
 -5.5207582231581611e-10  -5.7403213839672219e-10  -5.9686166735858901e-10  -6.2059913727122742e-10 
 -6.4528065735464622e-10  -6.7094377290793587e-10  -6.9762752242268744e-10  -7.2537249696783269e-10 
 -7.5422090193624120e-10  -7.8421662124698950e-10  -8.1540528410098637e-10  -8.4783433439148348e-10 
 -8.8155310287505469e-10  -9.1661288221285632e-10  -9.5306700499627696e-10  -9.9097092487571304e-10 
 -1.0303823009158312e-09  -1.0713610853056878e-09  -1.1139696145570930e-09  -1.1582727043299487e-09 
 -1.2043377480288347e-09  -1.2522348193207767e-09  -1.3020367787302090e-09  -1.3538193844732055e-09 
 -1.4076614076996431e-09  -1.4636447523185508e-09  -1.5218545795889535e-09  -1.5823794376657117e-09 
 -1.6453113962974314e-09  -1.7107461868813265e-09  -1.7787833480880971e-09  -1.8495263772783367e-09 
 -1.9230828879407920e-09  -1.9995647733919699e-09  -2.0790883769860921e-09  -2.1617746690943485e-09 
 -2.2477494311226185e-09  -2.3371434468476113e-09  -2.4300927013624598e-09  -2.5267385879343993e-09 
 -2.6272281230892269e-09  -2.7317141702496485e-09  -2.8403556722677544e-09  -2.9533178932053412e-09 
 -3.0707726697298439e-09  -3.1928986725082706e-09  -3.3198816779968332e-09  -3.4519148510396227e-09 
 -3.5891990387062161e-09  -3.7319430758152589e-09  -3.8803641026086994e-09  -4.0346878950598772e-09 
 -4.1951492083179770e-09  -4.3619921338113132e-09  -4.5354704705524562e-09  -4.7158481112102406e-09 
 -4.9033994435357912e-09  -5.0984097677531624e-09  -5.3011757305496515e-09  -5.5120057763257362e-09 
 -5.7312206163912449e-09  -5.9591537168212686e-09  -6.1961518057141282e-09  -6.4425754006227873e-09 
 -6.6987993569620929e-09  -6.9652134382261445e-09  -7.2422229088828580e-09  -7.5302491508479721e-09 
 -7.8297303044759435e-09  -8.1411219350427596e-09  -8.4648977257346994e-09  -8.8015501981968759e-09 
 -9.1515914617377618e-09  -9.5155539923292191e-09  -9.8939914425870775e-09  -1.0287479483964122e-08 
 -1.0696616682436889e-08  -1.1122025409017917e-08  -1.1564352786478587e-08  -1.2024271673722535e-08 
 -1.2502481689307254e-08  -1.2999710275670164e-08  -1.3516713805678460e-08  -1.4054278733185607e-08 
 -1.4613222789344651e-08  -1.5194396226498027e-08  -1.5798683111535895e-08  -1.6427002670690236e-08 
 -1.7080310687810140e-08  -1.7759600958245584e-08  -1.8465906800550586e-08  -1.9200302628305261e-08 
 -1.9963905584447895e-08  -2.0757877240602485e-08  -2.1583425363987030e-08  -2.2441805754589188e-08 
 -2.3334324155405035e-08  -2.4262338238644959e-08  -2.5227259670929111e-08  -2.6230556260612542e-08 
 -2.7273754190506816e-08  -2.8358440339393780e-08  -2.9486264695862529e-08  -3.0658942868141179e-08 
 -3.1878258693740728e-08  -3.3146066952880255e-08  -3.4464296189820373e-08  -3.5834951646396806e-08 
 -3.7260118312214838e-08  -3.8741964096144763e-08  -4.0282743123941671e-08  -4.1884799167004761e-08 
 -4.3550569207492211e-08  -4.5282587145212867e-08  -4.7083487651932724e-08  -4.8956010178959204e-08 
 -5.0903003124097633e-08  -5.2927428164317681e-08  -5.5032364760719512e-08  -5.7221014842651118e-08 
 -5.9496707678100355e-08  -6.1862904937770503e-08  -6.4323205960539441e-08  -6.6881353228310821e-08 
 -6.9541238058584759e-08  -7.2306906523404703e-08  -7.5182565603682237e-08  -7.8172589588259550e-08 
 -8.1281526727442020e-08  -8.4514106151117982e-08  -8.7875245061989669e-08  -9.1370056214851173e-08 
 -9.5003855693290629e-08  -9.8782170995641634e-08  -1.0271074944248127e-07  -1.0679556691845928e-07 
 -1.1104283696175551e-07  -1.1545902021498303e-07  -1.2005083425191451e-07  -1.2482526379497023e-07 
 -1.2978957133901086e-07  -1.3495130819758280e-07  -1.4031832598842240e-07  -1.4589878857567808e-07 
 -1.5170118448700897e-07  -1.5773433982445051e-07  -1.6400743168866825e-07  -1.7053000213701966e-07 
 -1.7731197269664518e-07  -1.8436365945465775e-07  -1.9169578874837399e-07  -1.9931951347944642e-07 
 -2.0724643007670312e-07  -2.1548859613347807e-07  -2.2405854874626587e-07  -2.3296932358256230e-07 
 -2.4223447470690230e-07  -2.5186809519522189e-07  -2.6188483856889844e-07  -2.7229994108104742e-07 
 -2.8312924488896550e-07  -2.9438922214794406e-07  -3.0609700006308224e-07  -3.1827038693719508e-07 
 -3.3092789925439789e-07  -3.4408878984055553e-07  -3.5777307714340098e-07  -3.7200157567682797e-07 
 -3.8679592767564609e-07  -4.0217863600891205e-07  -4.1817309840186807e-07  -4.3480364301850162e-07 
 -4.5209556545883254e-07  -4.7007516722713445e-07  -4.8876979572957870e-07  -5.0820788586209507e-07 
 -5.2841900325164639e-07  -5.4943388921664868e-07  -5.7128450751486533e-07  -5.9400409294981867e-07 
 -6.1762720190958539e-07  -6.4218976491480331e-07  -6.6772914125571207e-07  -6.9428417580127321e-07 
 -7.2189525806669842e-07  -7.5060438362914100e-07  -7.8045521798486115e-07  -8.1149316294490629e-07 
 -8.4376542567018434e-07  -8.7732109045081371e-07  -9.1221119333881982e-07  -9.4848879974755531e-07 
 -9.8620908513572835e-07  -1.0254294188986299e-06  -1.0662094515939833e-06  -1.1086112056349253e-06 
 -1.1526991695878917e-06  -1.1985403962186093e-06  -1.2462046044351441e-06  -1.2957642852828519e-06 
 -1.3472948121521642e-06  -1.4008745553666140e-06  -1.4565850013251360e-06  -1.5145108763795171e-06 
 -1.5747402756351585e-06  -1.6373647968706910e-06  -1.7024796797797841e-06  -1.7701839507465605e-06 
 -1.8405805733744414e-06  -1.9137766049968968e-06  -1.9898833594077224e-06  -2.0690165760578430e-06 
 -2.1512965959755029e-06  -2.2368485446768007e-06  -2.3258025223441959e-06  -2.4182938015616244e-06 
 -2.5144630329062244e-06  -2.6144564587087624e-06  -2.7184261353069547e-06  -2.8265301641290045e-06 
 -2.9389329319578580e-06  -3.0558053607407561e-06  -3.1773251673228966e-06  -3.3036771334992753e-06 
 -3.4350533867942239e-06  -3.5716536923944452e-06  -3.7136857566783549e-06  -3.8613655428018341e-06 
 -4.0149175988188996e-06  -4.1745753988348803e-06  -4.3405816977090483e-06  -4.5131888998444714e-06 
 -4.6926594426241100e-06  -4.8792661950740107e-06  -5.0732928723579254e-06  -5.2750344667313898e-06 
 -5.4847976956079420e-06  -5.7029014674164814e-06  -5.9296773659553034e-06  -6.1654701539763716e-06 
 -6.4106382967624009e-06  -6.6655545064896284e-06  -6.9306063082003722e-06  -7.2061966282420530e-06 
 -7.4927444060636458e-06  -7.7906852302950400e-06  -8.1004720000721518e-06  -8.4225756126082201e-06 
 -8.7574856780514779e-06  -9.1057112627104805e-06  -9.4677816617709860e-06  -9.8442472026729614e-06 
 -1.0235680080362206e-05  -1.0642675225679276e-05  -1.1065851208198030e-05  -1.1505851174878230e-05 
 -1.1963343825950171e-05  -1.2439024429505818e-05  -1.2933615876328421e-05  -1.3447869776553627e-05 
 -1.3982567599817844e-05  -1.4538521860614338e-05  -1.5116577350646838e-05  -1.5717612420038959e-05 
 -1.6342540309332869e-05  -1.6992310534285809e-05  -1.7667910325552503e-05  -1.8370366125423651e-05 
 -1.9100745143876493e-05  -1.9860156976281803e-05  -2.0649755285203871e-05  -2.1470739548827372e-05 
 -2.2324356878641956e-05  -2.3211903909121728e-05  -2.4134728762242575e-05  -2.5094233089792863e-05 
 -2.6091874196548658e-05  -2.7129167247506003e-05  -2.8207687562487477e-05  -2.9329073001570023e-05 
 -3.0495026444919143e-05  -3.1707318370750098e-05  -3.2967789535288274e-05  -3.4278353758748809e-05 
 -3.5641000821514026e-05  -3.7057799474852708e-05  -3.8530900570692515e-05  -4.0062540315135248e-05 
 -4.1655043650588075e-05  -4.3310827771574129e-05  -4.5032405779483005e-05  -4.6822390481728813e-05 
 -4.8683498340996312e-05  -5.0618553580476207e-05  -5.2630492451224041e-05  -5.4722367668012405e-05 
 -5.6897353020297931e-05  -5.9158748165179974e-05  -6.1509983609498711e-05  -6.3954625888494276e-05 
 -6.6496382948740964e-05  -6.9139109743369736e-05  -7.1886814047901728e-05  -7.4743662505340571e-05 
 -7.7713986909506489e-05  -8.0802290735942675e-05  -8.4013255930086839e-05  -8.7351749962777330e-05 
 -9.0822833163550242e-05  -9.4431766342590017e-05  -9.8184018712616953e-05  -1.0208527612242801e-04 
 -1.0614144961426308e-04  -1.1035868431763494e-04  -1.1474336869274892e-04  -1.1930214413714592e-04 
 -1.2404191496972612e-04  -1.2896985880684976e-04  -1.3409343734578576e-04  -1.3942040757135431e-04 
 -1.4495883340222653e-04  -1.5071709779396696e-04  -1.5670391531656365e-04  -1.6292834522486682e-04 
 -1.6939980504105930e-04  -1.7612808466901955e-04  -1.8312336106117834e-04  -1.9039621345927276e-04 
 -1.9795763923120721e-04  -2.0581907032706805e-04  -2.1399239037822712e-04  -2.2248995246436636e-04 
 -2.3132459757419779e-04  -2.4050967378662580e-04  -2.5005905620012302e-04  -2.5998716763910999e-04 
 -2.7030900016724208e-04  -2.8104013743861570e-04  -2.9219677791907512e-04  -3.0379575901100784e-04 
 -3.1585458211627013e-04  -3.2839143867317275e-04  -3.4142523720480454e-04  -3.5497563141737210e-04 
 -3.6906304938864090e-04  -3.8370872388809695e-04  -3.9893472387195943e-04  -4.1476398719778897e-04 
 -4.3122035460508760e-04  -4.4832860501000234e-04  -4.6611449216401490e-04  -4.8460478272833481e-04 
 -5.0382729581763296e-04  -5.2381094406867717e-04  -5.4458577629151901e-04  -5.6618302176294631e-04 
 -5.8863513622411381e-04  -6.1197584964651152e-04  -6.3624021583277954e-04  -6.6146466392124638e-04 
 -6.8768705186560922e-04  -7.1494672196375543e-04  -7.4328455851231884e-04  -7.7274304766643037e-04 
 -8.0336633958687958e-04  -8.3520031295994976e-04  -8.6829264197795626e-04  -9.0269286587250062e-04 
 -9.3845246109401247e-04  -9.7562491623686114e-04  -1.0142658098108131e-03  -1.0544328909632683e-03 
 -1.0961861632633862e-03  -1.1395879716574111e-03  -1.1847030927151741e-03  -1.2315988282858878e-03 
 -1.2803451026895390e-03  -1.3310145635725250e-03  -1.3836826865625640e-03  -1.4384278838588014e-03 
 -1.4953316169040254e-03  -1.5544785132833225e-03  -1.6159564880064772e-03  -1.6798568693294068e-03 
 -1.7462745292815163e-03  -1.8153080190676961e-03  -1.8870597095202082e-03  -1.9616359367842138e-03 
 -2.0391471534230770e-03  -2.1197080851389351e-03  -2.2034378933106407e-03  -2.2904603435559300e-03 
 -2.3809039805344320e-03  -2.4749023092134350e-03  -2.5725939828285895e-03  -2.6741229977762628e-03 
 -2.7796388956858732e-03  -2.8892969729271906e-03  -3.0032584978167162e-03  -3.1216909357970539e-03 
 -3.2447681828722793e-03  -3.3726708075924937e-03  -3.5055863018913355e-03  -3.6437093410898866e-03 
 -3.7872420533934955e-03  -3.9363942992175051e-03  -4.0913839606930569e-03  -4.2524372417122600e-03 
 -4.4197889788911487e-03  -4.5936829638373979e-03  -4.7743722771274172e-03  -4.9621196344125764e-03 
 -5.1571977450878704e-03  -5.3598896839766666e-03  -5.5704892764999805e-03  -5.7893014978182356e-03 
 -6.0166428864543049e-03  -6.2528419729245069e-03  -6.4982397239296075e-03  -6.7531900026770513e-03 
 -7.0180600459342933e-03  -7.2932309584352161e-03  -7.5790982252923658e-03  -7.8760722430939352e-03 
 -8.1845788703992870e-03  -8.5050599983767274e-03  -8.8379741423641033e-03  -9.1837970551717062e-03 
 -9.5430223629857404e-03  -9.9161622247750242e-03  -1.0303748016150173e-02  -1.0706331038674327e-02 
 -1.1124483255677926e-02  -1.1558798055688175e-02  -1.2009891044645853e-02  -1.2478400868148028e-02 
 -1.2964990065029422e-02  -1.3470345953669837e-02  -1.3995181552502145e-02  -1.4540236536283073e-02 
 -1.5106278229788512e-02  -1.5694102640699783e-02  -1.6304535533562457e-02  -1.6938433546821452e-02 
 -1.7596685355071293e-02  -1.8280212878803541e-02  -1.8989972544092622e-02  -1.9726956594825529e-02 
 -2.0492194460270334e-02  -2.1286754180973057e-02  -2.2111743896187707e-02  -2.2968313396278989e-02 
 -2.3857655743784914e-02  -2.4781008967105382e-02  -2.5739657831073931e-02  -2.6734935688969272e-02 
 -2.7768226420934985e-02  -2.8840966464029786e-02  -2.9954646939674447e-02  -3.1110815884575288e-02 
 -3.2311080591740211e-02  -3.3557110068707929e-02  -3.4850637620610997e-02  -3.6193463566339325e-02 
 -3.7587458096657339e-02  -3.9034564283860783e-02  -4.0536801253214065e-02  -4.2096267527300106e-02 
 -4.3715144555163642e-02  -4.5395700439114998e-02  -4.7140293872963257e-02  -4.8951378306561669e-02 
 -5.0831506352618669e-02  -5.2783334452909884e-02  -5.4809627822347280e-02  -5.6913265690664572e-02 
 -5.9097246862959772e-02  -6.1364695621828114e-02  -6.3718867995529213e-02  -6.6163158418174411e-02 
 -6.8701106810067608e-02  -7.1336406107843364e-02  -7.4072910276449189e-02  -7.6914642836976521e-02 
 -7.9865805946495796e-02  -8.2930790068724544e-02  -8.6114184276345346e-02  -8.9420787228841975e-02 
 -9.2855618871848206e-02  -9.6423932907216514e-02  -1.0013123008554820e-01  -1.0398327237576296e-01 
 -1.0798609806951383e-01  -1.1214603788095517e-01  -1.1646973210551338e-01  -1.2096414890432150e-01 
 -1.2563660378383115e-01  -1.3049478034332826e-01  -1.3554675236543437e-01  -1.4080100732788128e-01 
 -1.4626647141697049e-01  -1.5195253612552337e-01  -1.5786908652007117e-01  -1.6402653126365876e-01 
 -1.7043583448155233e-01  -1.7710854955797395e-01  -1.8405685495168783e-01  -1.9129359211748842e-01 
 -1.9883230561891227e-01  -2.0668728551471921e-01  -2.1487361209766867e-01  -2.2340720305903197e-01 
 -2.3230486314519841e-01  -2.4158433636440801e-01  -2.5126436079115827e-01  -2.6136472600309096e-01 
 -2.7190633317022939e-01  -2.8291125779883403e-01  -2.9440281511130012e-01  -3.0640562801984367e-01 
 -3.1894569762431468e-01  -3.3205047613324856e-01  -3.4574894207184720e-01  -3.6007167760091485e-01 
 -3.7505094772594721e-01  -3.9072078112608383e-01  -4.0711705227736761e-01  -4.2427756448413201e-01 
 -4.4224213336558238e-01  -4.6105267027211055e-01  -4.8075326502682014e-01  -5.0139026730267711e-01 
 -5.2301236585438615e-01  -5.4567066472679093e-01  -5.6941875545842247e-01  -5.9431278419081845e-01 
 -6.2041151248130344e-01  -6.4777637050076231e-01  -6.7647150117911159e-01  -7.0656379374184330e-01 
 -7.3812290496248412e-01  -7.7122126634062416e-01  -8.0593407530630290e-01  -8.4233926845163165e-01 
 -8.8051747470414898e-01  -9.2055194628705272e-01  -9.6252846526494629e-01  -1.0065352234552167e+00 
 -1.0526626735010902e+00  -1.1010033489599595e+00  -1.1516516513672626e+00  -1.2047036024005791e+00 
 -1.2602565594993582e+00  -1.3184088936023961e+00  -1.3792596280578324e+00  -1.4429080382479933e+00 
 -1.5094532120647948e+00  -1.5789935720792281e+00  -1.6516263610789412e+00  -1.7274470936089656e+00 
 -1.8065489772464074e+00  -1.8890223085740032e+00  -1.9749538501880808e+00  -2.0644261965791419e+00 
 -2.1575171383477190e+00  -2.2542990359474890e+00  -2.3548382159581207e+00  -2.4591944047496574e+00 
 -2.5674202162663091e+00  -2.6795607124772132e+00  -2.7956530567515165e+00  -2.9157262819367902e+00 
 -3.0398011961651825e+00  -3.1678904502760958e+00  -3.2999987911135098e+00  -3.4361235247019852e+00 
 -3.5762552122903277e+00  -3.7203786203311751e+00  -3.8684739424880492e+00  -4.0205183075802484e+00 
 -4.1764875818462643e+00  -4.3363584668979573e+00  -4.5001108861403472e+00  -4.6677306421652434e+00 
 -4.8392123156520102e+00  -5.0145623626366476e+00  -5.1938023517171938e+00  -5.3769721295409383e+00 
 -5.5641335648855845e+00  -5.7553731515440640e+00  -5.9508050032451809e+00  -6.1505734161078918e+00 
 -6.3548546551962817e+00  -6.5638580262633530e+00  -6.7778259718551626e+00  -6.9970329837970899e+00 
 -7.2217831178993128e+00  -7.4524059000274780e+00  -7.6892504214395778e+00  -7.9326774425100615e+00 
 -8.1830493533524322e+00  -8.4407178850373032e+00  -8.7060095215946394e+00  -8.9792086368648505e+00 
 -9.2605384680191882e+00  -9.5501401424166463e+00  -9.8480500936803459e+00  -1.0154176334127760e+01 
 -1.0468274196048069e+01  -1.0789922297318901e+01  -1.1118499639753940e+01  -1.1453164881670745e+01 
 -1.1792838949941396e+01  -1.2136192243546372e+01  -1.2481637728495077e+01  -1.2827331213626080e+01 
 -1.3171180014371604e+01  -1.3510861050066026e+01  -1.3843849161220346e+01  -1.4167456079862426e+01 
 -1.4478880031597182e+01  -1.4775265404740603e+01  -1.5053771304210500e+01  -1.5311647142835199e+01 
 -1.5546312745709383e+01  -1.5755439799324575e+01  -1.5937030915863915e+01  -1.6089492160896807e+01 
 -1.6211694659087559e+01  -1.6303020901247411e+01  -1.6363391657908355e+01  -1.6393269988513168e+01 
 -1.6393639721989356e+01  -1.6365956958913962e+01  -1.6312074570769315e+01  -1.6234141287634252e+01 
 -1.6134478697363363e+01  -1.6015441232094126e+01  -1.5879265888362635e+01  -1.5727919900781604e+01 
 -1.5562955749394799e+01  -1.5385383607580678e+01  -1.5195571513720900e+01  -1.4993183076156035e+01 
 -1.4777161299368922e+01  -1.4545765106628551e+01  -1.4296662304611656e+01  -1.4027079149940425e+01 
 -1.3734002461634821e+01  -1.3414425601767805e+01  -1.3065624946420945e+01  -1.2685449104609162e+01 
 -1.2272599600233644e+01  -1.1826879521105639e+01  -1.1349386228312344e+01  -1.0842625971589838e+01 
 -1.0310532349540683e+01  -9.7583769229793074e+00  -9.1925686020526420e+00  -8.6203480750771444e+00 
 -8.0493937082007037e+00  -7.4873650499069102e+00  -6.9414183153610738e+00  -6.4177340679663955e+00 
 -5.9210999650074223e+00  -5.4545903435214438e+00  -5.0193792914672439e+00  -4.6147146790863260e+00 
 -4.2380677256232149e+00  -3.8854566982449197e+00  -3.5519253337519330e+00  -3.2321380314112305e+00 
 -2.9210367531275789e+00  -2.6144912523432255e+00  -2.3098672968427727e+00  -2.0064393187667200e+00 
 -1.7055860271942016e+00  -1.4107301905076850e+00  -1.1270153819150894e+00  -8.6074923753878163e-01 
 -6.1867921895359523e-01  -4.0719627331422875e-01  -2.3158086822631785e-01  -9.5384053692205803e-02 
 -2.1910511140512082e-04  5.5696605968967798e-02  6.4060375347506235e-02  7.7844309967357098e-03 
 -7.6910292850154119e-04  7.5996613674360672e-05  -7.5102224818078325e-06  7.4226236813627028e-07 
 -7.3368354825723278e-08  7.2529299511720220e-09  -7.1787533454992173e-10  7.1963596846946117e-11 
 -7.5063895968788570e-12  2.5732591717076246e-13  3.9006485293789167e-13  -5.9102470487035819e-13 
 1.3710778444633107e-13  -2.0597348558768865e-13  4.5965005644787334e-14  -1.1924635726899383e-13 
 2.9907369161441910e-13  2.4161084410778514e-14  -1.3828787253238805e-13  1.6825632290088132e-13 
 -2.7927073069913295e-13  9.9636185813119632e-14  -2.9834218344989397e-13  3.4956811216923092e-13 
 -3.2354692949137955e-13  -1.6171398600580925e-13  -1.0390341121296901e-13  1.6776375455190022e-13 
 1.3013257027321651e-13  -3.2781470282783714e-14  -4.7982911825880899e-14  1.3791615584560580e-13 
 -2.5061948536228092e-14  4.8406614379404940e-14  1.8415751099660187e-14  -3.3240606105582239e-14 
 1.2956680923286809e-13  -6.4522310503181113e-14  1.6608926424303690e-13  -1.0610801107290559e-13 
 2.2787951884369128e-14  1.3460992863419603e-15  -9.9795750730580123e-14  2.0958014435354206e-14 
 5.3840433349736071e-15  3.8705480352197058e-15  -5.4934449606273072e-14  5.8555014410883687e-14 
 -3.0170264857396998e-14  -3.4008235776912560e-12  0.0000000000000000e+00  0.0000000000000000e+00 
 0.0000000000000000e+00  0.0000000000000000e+00  0.0000000000000000e+00  0.0000000000000000e+00 
 0.0000000000000000e+00  0.0000000000000000e+00  0.0000000000000000e+00  0.0000000000000000e+00 
 0.0000000000000000e+00  0.0000000000000000e+00  0.0000000000000000e+00  0.0000000000000000e+00 
 0.0000000000000000e+00  0.0000000000000000e+00  0.0000000000000000e+00  0.0000000000000000e+00 
 0.0000000000000000e+00  0.0000000000000000e+00  0.0000000000000000e+00  0.0000000000000000e+00 
 0.0000000000000000e+00  0.0000000000000000e+00  0.0000000000000000e+00  0.0000000000000000e+00 
 0.0000000000000000e+00  0.0000000000000000e+00  0.0000000000000000e+00  0.0000000000000000e+00 
 0.0000000000000000e+00  0.0000000000000000e+00  0.0000000000000000e+00  0.0000000000000000e+00 
 0.0000000000000000e+00  0.0000000000000000e+00  0.0000000000000000e+00  0.0000000000000000e+00 
 0.0000000000000000e+00  0.0000000000000000e+00  0.0000000000000000e+00  0.0000000000000000e+00 
 0.0000000000000000e+00  0.0000000000000000e+00  0.0000000000000000e+00  0.0000000000000000e+00 
 0.0000000000000000e+00  0.0000000000000000e+00  0.0000000000000000e+00  0.0000000000000000e+00 
 0.0000000000000000e+00  0.0000000000000000e+00  0.0000000000000000e+00  0.0000000000000000e+00 
 0.0000000000000000e+00  0.0000000000000000e+00  0.0000000000000000e+00  0.0000000000000000e+00 
 0.0000000000000000e+00  0.0000000000000000e+00  0.0000000000000000e+00  0.0000000000000000e+00 
 0.0000000000000000e+00  0.0000000000000000e+00  0.0000000000000000e+00  0.0000000000000000e+00 
 0.0000000000000000e+00  0.0000000000000000e+00  0.0000000000000000e+00  0.0000000000000000e+00 
 0.0000000000000000e+00  0.0000000000000000e+00  0.0000000000000000e+00  0.0000000000000000e+00 
 0.0000000000000000e+00  0.0000000000000000e+00  0.0000000000000000e+00  0.0000000000000000e+00 
 0.0000000000000000e+00  0.0000000000000000e+00  0.0000000000000000e+00  0.0000000000000000e+00 
 0.0000000000000000e+00  0.0000000000000000e+00  0.0000000000000000e+00  0.0000000000000000e+00 
 0.0000000000000000e+00  0.0000000000000000e+00  0.0000000000000000e+00  0.0000000000000000e+00 
 0.0000000000000000e+00  0.0000000000000000e+00  0.0000000000000000e+00  0.0000000000000000e+00 
 0.0000000000000000e+00  0.0000000000000000e+00  0.0000000000000000e+00  0.0000000000000000e+00 
 0.0000000000000000e+00  0.0000000000000000e+00  0.0000000000000000e+00  0.0000000000000000e+00 
 0.0000000000000000e+00  0.0000000000000000e+00  0.0000000000000000e+00  0.0000000000000000e+00 
 0.0000000000000000e+00  0.0000000000000000e+00  0.0000000000000000e+00  0.0000000000000000e+00 
 0.0000000000000000e+00  0.0000000000000000e+00  0.0000000000000000e+00  0.0000000000000000e+00 
 0.0000000000000000e+00  0.0000000000000000e+00  0.0000000000000000e+00  0.0000000000000000e+00 
 0.0000000000000000e+00  0.0000000000000000e+00  0.0000000000000000e+00  0.0000000000000000e+00 
 0.0000000000000000e+00  0.0000000000000000e+00  0.0000000000000000e+00  0.0000000000000000e+00 
 0.0000000000000000e+00  0.0000000000000000e+00  0.0000000000000000e+00  0.0000000000000000e+00 
 0.0000000000000000e+00  0.0000000000000000e+00  0.0000000000000000e+00  0.0000000000000000e+00 
 0.0000000000000000e+00  0.0000000000000000e+00  0.0000000000000000e+00  0.0000000000000000e+00 
 0.0000000000000000e+00  0.0000000000000000e+00  0.0000000000000000e+00  0.0000000000000000e+00 
 0.0000000000000000e+00  0.0000000000000000e+00  0.0000000000000000e+00  0.0000000000000000e+00 
 0.0000000000000000e+00  0.0000000000000000e+00  0.0000000000000000e+00  0.0000000000000000e+00 
 0.0000000000000000e+00  0.0000000000000000e+00  0.0000000000000000e+00  0.0000000000000000e+00 
 0.0000000000000000e+00  0.0000000000000000e+00  0.0000000000000000e+00  0.0000000000000000e+00 
 0.0000000000000000e+00  0.0000000000000000e+00  0.0000000000000000e+00  0.0000000000000000e+00 
 0.0000000000000000e+00  0.0000000000000000e+00  0.0000000000000000e+00  0.0000000000000000e+00 
 0.0000000000000000e+00  0.0000000000000000e+00  0.0000000000000000e+00  0.0000000000000000e+00 
 0.0000000000000000e+00  0.0000000000000000e+00  0.0000000000000000e+00  0.0000000000000000e+00 
 0.0000000000000000e+00  0.0000000000000000e+00  0.0000000000000000e+00  0.0000000000000000e+00 
 0.0000000000000000e+00  0.0000000000000000e+00  0.0000000000000000e+00  0.0000000000000000e+00 
 0.0000000000000000e+00  0.0000000000000000e+00  0.0000000000000000e+00  0.0000000000000000e+00 
 0.0000000000000000e+00  0.0000000000000000e+00  0.0000000000000000e+00  0.0000000000000000e+00 
 0.0000000000000000e+00  0.0000000000000000e+00  0.0000000000000000e+00  0.0000000000000000e+00 
 0.0000000000000000e+00  0.0000000000000000e+00  0.0000000000000000e+00  0.0000000000000000e+00 
 0.0000000000000000e+00  0.0000000000000000e+00  0.0000000000000000e+00  0.0000000000000000e+00 
 0.0000000000000000e+00  0.0000000000000000e+00  0.0000000000000000e+00  0.0000000000000000e+00 
 0.0000000000000000e+00  0.0000000000000000e+00  0.0000000000000000e+00  0.0000000000000000e+00 
 0.0000000000000000e+00  0.0000000000000000e+00  0.0000000000000000e+00  0.0000000000000000e+00 
 0.0000000000000000e+00  0.0000000000000000e+00  0.0000000000000000e+00  0.0000000000000000e+00 
 0.0000000000000000e+00  0.0000000000000000e+00  0.0000000000000000e+00  0.0000000000000000e+00 
 0.0000000000000000e+00  0.0000000000000000e+00  0.0000000000000000e+00  0.0000000000000000e+00 
 0.0000000000000000e+00  0.0000000000000000e+00  0.0000000000000000e+00  0.0000000000000000e+00 
 0.0000000000000000e+00  0.0000000000000000e+00  0.0000000000000000e+00  0.0000000000000000e+00 
 0.0000000000000000e+00  0.0000000000000000e+00  0.0000000000000000e+00  0.0000000000000000e+00 
 0.0000000000000000e+00  0.0000000000000000e+00  0.0000000000000000e+00  0.0000000000000000e+00 
 0.0000000000000000e+00  0.0000000000000000e+00  0.0000000000000000e+00  0.0000000000000000e+00 
 0.0000000000000000e+00  0.0000000000000000e+00  0.0000000000000000e+00  0.0000000000000000e+00 
 0.0000000000000000e+00  0.0000000000000000e+00  0.0000000000000000e+00  0.0000000000000000e+00 
 0.0000000000000000e+00  0.0000000000000000e+00  0.0000000000000000e+00  0.0000000000000000e+00 
 0.0000000000000000e+00  0.0000000000000000e+00  0.0000000000000000e+00  0.0000000000000000e+00 
 0.0000000000000000e+00  0.0000000000000000e+00  0.0000000000000000e+00  0.0000000000000000e+00 
 0.0000000000000000e+00  0.0000000000000000e+00  0.0000000000000000e+00  0.0000000000000000e+00 
 0.0000000000000000e+00  0.0000000000000000e+00  0.0000000000000000e+00  0.0000000000000000e+00 
 0.0000000000000000e+00 
  </PP_BETA>
  <PP_DIJ>
 2   Number of nonzero Dij
 1 1 9.1532015679722658e+00 
 2 2 -1.1512490633387558e-01 
  </PP_DIJ>
</PP_NONLOCAL>
<PP_PSWFC>
S    0   2.00          Wavefunction
 5.9640429391391523e-06  6.0420816498936943e-06  6.1211414868261041e-06  6.2012358112369342e-06 
 6.2823781592575593e-06  6.3645822441378533e-06  6.4478619585637411e-06  6.5322313770050937e-06 
 6.6177047580943483e-06  6.7042965470362697e-06  6.7920213780491827e-06  6.8808940768382439e-06 
 6.9709296631009665e-06  7.0621433530656278e-06  7.1545505620628211e-06  7.2481669071307080e-06 
 7.3430082096542943e-06  7.4390904980393291e-06  7.5364300104211115e-06  7.6350431974087871e-06 
 7.7349467248655329e-06  7.8361574767251288e-06  7.9386925578453947e-06  8.0425692968989310e-06 
 8.1478052493017174e-06  8.2544182001800361e-06  8.3624261673761626e-06  8.4718474044934394e-06 
 8.5827004039812071e-06  8.6950039002600255e-06  8.8087768728878627e-06  8.9240385497676884e-06 
 9.0408084103970159e-06  9.1591061891600058e-06  9.2789518786625870e-06  9.4003657331113068e-06 
 9.5233682717362876e-06  9.6479802822590744e-06  9.7742228244057552e-06  9.9021172334661559e-06 
 1.0031685123899515e-05  1.0162948392987404e-05  1.0295929224534418e-05  1.0430650092617262e-05 
 1.0567133765382960e-05  1.0705403308896703e-05  1.0845482091040088e-05  1.0987393785460300e-05 
 1.1131162375571091e-05  1.1276812158605953e-05  1.1424367749724467e-05  1.1573854086172279e-05 
 1.1725296431495580e-05  1.1878720379810709e-05  1.2034151860129605e-05  1.2191617140741860e-05 
 1.2351142833654139e-05  1.2512755899087701e-05  1.2676483650034657e-05  1.2842353756874011e-05 
 1.3010394252047979e-05  1.3180633534799555e-05  1.3353100375972022e-05  1.3527823922871336e-05 
 1.3704833704192045e-05  1.3884159635007735e-05  1.4065832021826739e-05  1.4249881567713991e-05 
 1.4436339377479975e-05  1.4625236962937419e-05  1.4816606248226948e-05  1.5010479575212282e-05 
 1.5206889708946141e-05  1.5405869843207543e-05  1.5607453606111702e-05  1.5811675065793211e-05 
 1.6018568736163658e-05  1.6228169582744543e-05  1.6440513028576573e-05  1.6655634960206154e-05 
 1.6873571733750386e-05  1.7094360181041289e-05  1.7318037615850484e-05  1.7544641840195284e-05 
 1.7774211150727372e-05  1.8006784345204948e-05  1.8242400729049718e-05  1.8481100121989524e-05 
 1.8722922864788062e-05  1.8967909826062502e-05  1.9216102409190330e-05  1.9467542559306776e-05 
 1.9722272770393443e-05  1.9980336092460054e-05  2.0241776138819868e-05  2.0506637093460564e-05 
 2.0774963718511312e-05  2.1046801361807734e-05  2.1322195964555784e-05  2.1601194069095960e-05 
 2.1883842826768989e-05  2.2170190005884544e-05  2.2460283999794214e-05  2.2754173835070110e-05 
 2.3051909179790356e-05  2.3353540351933281e-05  2.3659118327881102e-05  2.3968694751035156e-05 
 2.4282321940543701e-05  2.4600052900144028e-05  2.4921941327120128e-05  2.5248041621377744e-05 
 2.5578408894637965e-05  2.5913098979751381e-05  2.6252168440133818e-05  2.6595674579325747e-05 
 2.6943675450676737e-05  2.7296229867156547e-05  2.7653397411294663e-05  2.8015238445249919e-05 
 2.8381814121011770e-05  2.8753186390735146e-05  2.9129418017210556e-05  2.9510572584470997e-05 
 2.9896714508537957e-05  3.0287909048307803e-05  3.0684222316580597e-05  3.1085721291233445e-05 
 3.1492473826539795e-05  3.1904548664636990e-05  3.2322015447143896e-05  3.2744944726930369e-05 
 3.3173407980040975e-05  3.3607477617774498e-05  3.4047226998921621e-05  3.4492730442162777e-05 
 3.4944063238628123e-05  3.5401301664621805e-05  3.5864522994513102e-05  3.6333805513795591e-05 
 3.6809228532317825e-05  3.7290872397686830e-05  3.7778818508846831e-05  3.8273149329836112e-05 
 3.8773948403723397e-05  3.9281300366726966e-05  3.9795290962518172e-05  4.0316007056712492e-05 
 4.0843536651549867e-05  4.1377968900767249e-05  4.1919394124665930e-05  4.2467903825375591e-05 
 4.3023590702318566e-05  4.3586548667876153e-05  4.4156872863259985e-05  4.4734659674591152e-05 
 4.5320006749189437e-05  4.5913013012076258e-05  4.6513778682692856e-05  4.7122405291837743e-05 
 4.7738995698825639e-05  4.8363654108870635e-05  4.8996486090697550e-05  4.9637598594382692e-05 
 5.0287099969429085e-05  5.0945099983077387e-05  5.1611709838857030e-05  5.2287042195379694e-05 
 5.2971211185378739e-05  5.3664332434998054e-05  5.4366523083332929e-05  5.5077901802226740e-05 
 5.5798588816326863e-05  5.6528705923402732e-05  5.7268376514929872e-05  5.8017725596943258e-05 
 5.8776879811163798e-05  5.9545967456400453e-05  6.0325118510233625e-05  6.1114464650980992e-05 
 6.1914139279951725e-05  6.2724277543991442e-05  6.3545016358322102e-05  6.4376494429680989e-05 
 6.5218852279762523e-05  6.6072232268966376e-05  6.6936778620456749e-05  6.7812637444536223e-05 
 6.8699956763338695e-05  6.9598886535845230e-05  7.0509578683227475e-05  7.1432187114522488e-05 
 7.2366867752643360e-05  7.3313778560730813e-05  7.4273079568848918e-05  7.5244932901030270e-05 
 7.6229502802675476e-05  7.7226955668310542e-05  7.8237460069707947e-05  7.9261186784375184e-05 
 8.0298308824416759e-05  8.1349001465773083e-05  8.2413442277842400e-05  8.3491811153490274e-05 
 8.4584290339451634e-05  8.5691064467130476e-05  8.6812320583802907e-05  8.7948248184228369e-05 
 8.9099039242674060e-05  9.0264888245359306e-05  9.1445992223323282e-05  9.2642550785723750e-05 
 9.3854766153571019e-05  9.5082843193903570e-05  9.6326989454410399e-05  9.7587415198507072e-05 
 9.8864333440869988e-05  1.0015795998343604e-04  1.0146851345187360e-04  1.0279621533252965e-04 
 1.0414129000986155e-04  1.0550396480435797e-04  1.0688447001095579e-04  1.0828303893796053e-04 
 1.0969990794647478e-04  1.1113531649034372e-04  1.1258950715662268e-04  1.1406272570657413e-04 
 1.1555522111720148e-04  1.1706724562332631e-04  1.1859905476021522e-04  1.2015090740676608e-04 
 1.2172306582925791e-04  1.2331579572567362e-04  1.2492936627060336e-04  1.2656405016073412e-04 
 1.2822012366093600e-04  1.2989786665094997e-04  1.3159756267268767e-04  1.3331949897814988e-04 
 1.3506396657797127e-04  1.3683126029060110e-04  1.3862167879212717e-04  1.4043552466675151e-04 
 1.4227310445792676e-04  1.4413472872016155e-04  1.4602071207150318e-04  1.4793137324670832e-04 
 1.4986703515110762e-04  1.5182802491517687e-04  1.5381467394982057e-04  1.5582731800238033e-04 
 1.5786629721337449e-04  1.5993195617398172e-04  1.6202464398427588e-04  1.6414471431222216e-04 
 1.6629252545344710e-04  1.6846844039178851e-04  1.7067282686063876e-04  1.7290605740509098e-04 
 1.7516850944489644e-04  1.7746056533824906e-04  1.7978261244640066e-04  1.8213504319912477e-04 
 1.8451825516103428e-04  1.8693265109876912e-04  1.8937863904906172e-04  1.9185663238769312e-04 
 1.9436704989935115e-04  1.9691031584840362e-04  1.9948686005059584e-04  2.0209711794568798e-04 
 2.0474153067104076e-04  2.0742054513616618e-04  2.1013461409825137e-04  2.1288419623867271e-04 
 2.1566975624050881e-04  2.1849176486706987e-04  2.2135069904145169e-04  2.2424704192713419e-04 
 2.2718128300963056e-04  2.3015391817920764e-04  2.3316544981468568e-04  2.3621638686833858e-04 
 2.3930724495189963e-04  2.4243854642369740e-04  2.4561082047692810e-04  2.4882460322908439e-04 
 2.5208043781255391e-04  2.5537887446640343e-04  2.5872047062936256e-04  2.6210579103402523e-04 
 2.6553540780228322e-04  2.6900990054200768e-04  2.7252985644499590e-04  2.7609587038620004e-04 
 2.7970854502425157e-04  2.8336849090330470e-04  2.8707632655620887e-04  2.9083267860903191e-04 
 2.9463818188695104e-04  2.9849347952152887e-04  3.0239922305939242e-04  3.0635607257233435e-04 
 3.1036469676885419e-04  3.1442577310715822e-04  3.1853998790963914e-04  3.2270803647885146e-04 
 3.2693062321500485e-04  3.3120846173499458e-04  3.3554227499298865e-04  3.3993279540259208e-04 
 3.4438076496061106e-04  3.4888693537243171e-04  3.5345206817904534e-04  3.5807693488572865e-04 
 3.6276231709241134e-04  3.6750900662574761e-04  3.7231780567291553e-04  3.7718952691716647e-04 
 3.8212499367514555e-04  3.8712504003601242e-04  3.9219051100237848e-04  3.9732226263308686e-04 
 4.0252116218786321e-04  4.0778808827385580e-04  4.1312393099409263e-04  4.1852959209788039e-04 
 4.2400598513317109e-04  4.2955403560092099e-04  4.3517468111146685e-04  4.4086887154295100e-04 
 4.4663756920181388e-04  4.5248174898538870e-04  4.5840239854662155e-04  4.6440051846094395e-04 
 4.7047712239533141e-04  4.7663323727956943e-04  4.8286990347975832e-04  4.8918817497409369e-04 
 4.9558911953093577e-04  5.0207381888921481e-04  5.0864336894119273e-04  5.1529887991761357e-04 
 5.2204147657527674e-04  5.2887229838706213e-04  5.3579249973443948e-04  5.4280325010249483e-04 
 5.4990573427750745e-04  5.5710115254711020e-04  5.6439072090306555e-04  5.7177567124669327e-04 
 5.7925725159698491e-04  5.8683672630143564e-04  5.9451537624963713e-04  6.0229449908965932e-04 
 6.1017540944725964e-04  6.1815943914796220e-04  6.2624793744203678e-04  6.3444227123241742e-04 
 6.4274382530560444e-04  6.5115400256557843e-04  6.5967422427077856e-04  6.6830593027417161e-04 
 6.7705057926646347e-04  6.8590964902248361e-04  6.9488463665079783e-04  7.0397705884657448e-04 
 7.1318845214775979e-04  7.2252037319459896e-04  7.3197439899254813e-04  7.4155212717862487e-04 
 7.5125517629123296e-04  7.6108518604351858e-04  7.7104381760028956e-04  7.8113275385856631e-04 
 7.9135369973178105e-04  8.0170838243770178e-04  8.1219855179011163e-04  8.2282598049429980e-04 
 8.3359246444641218e-04  8.4449982303670896e-04  8.5554989945678904e-04  8.6674456101081649e-04 
 8.7808569943082372e-04  8.8957523119612093e-04  9.0121509785688180e-04  9.1300726636195167e-04 
 9.2495372939094061e-04  9.3705650569064194e-04  9.4931764041585346e-04  9.6173920547463956e-04 
 9.7432329987810274e-04  9.8707205009472185e-04  9.9998761040931308e-04  1.0130721632866748e-03 
 1.0263279197399759e-03  1.0397571197039554e-03  1.0533620324129904e-03  1.0671449567840907e-03 
 1.0811082218048966e-03  1.0952541869267299e-03  1.1095852424627846e-03  1.1241038099914940e-03 
 1.1388123427651699e-03  1.1537133261239655e-03  1.1688092779152358e-03  1.1841027489183649e-03 
 1.1995963232751350e-03  1.2152926189257004e-03  1.2311942880502396e-03  1.2473040175163775e-03 
 1.2636245293324202e-03  1.2801585811065073e-03  1.2969089665117392e-03  1.3138785157573642e-03 
 1.3310700960661029e-03  1.3484866121576901e-03  1.3661310067387079e-03  1.3840062609987980e-03 
 1.4021153951133429e-03  1.4204614687526687e-03  1.4390475815978950e-03  1.4578768738634817e-03 
 1.4769525268265888e-03  1.4962777633633062e-03  1.5158558484918670e-03  1.5356900899229210e-03 
 1.5557838386169648e-03  1.5761404893490148e-03  1.5967634812806221e-03  1.6176562985393164e-03 
 1.6388224708055821e-03  1.6602655739074519e-03  1.6819892304228319e-03  1.7039971102896388e-03 
 1.7262929314238618e-03  1.7488804603456413e-03  1.7717635128134766e-03  1.7949459544666605e-03 
 1.8184317014760408e-03  1.8422247212032206e-03  1.8663290328683095e-03  1.8907487082263261e-03 
 1.9154878722523543e-03  1.9405507038355984e-03  1.9659414364823829e-03  1.9916643590283129e-03 
 2.0177238163595910e-03  2.0441242101437089e-03  2.0708699995695659e-03  2.0979657020971619e-03 
 2.1254158942169907e-03  2.1532252122192282e-03  2.1813983529728768e-03  2.2099400747149335e-03 
 2.2388551978497944e-03  2.2681486057589272e-03  2.2978252456210086e-03  2.3278901292426353e-03 
 2.3583483338997240e-03  2.3892050031897680e-03  2.4204653478950514e-03  2.4521346468569820e-03 
 2.4842182478616629e-03  2.5167215685368530e-03  2.5496500972604619e-03  2.5830093940806959e-03 
 2.6168050916480275e-03  2.6510428961591236e-03  2.6857285883128655e-03  2.7208680242786411e-03 
 2.7564671366770133e-03  2.7925319355729551e-03  2.8290685094817985e-03  2.8660830263880248e-03 
 2.9035817347770779e-03  2.9415709646803492e-03  2.9800571287334973e-03  3.0190467232482478e-03 
 3.0585463292978608e-03  3.0985626138164005e-03  3.1391023307119790e-03  3.1801723219941820e-03 
 3.2217795189157590e-03  3.2639309431288246e-03  3.3066337078557144e-03  3.3498950190746523e-03 
 3.3937221767204105e-03  3.4381225759001622e-03  3.4831037081246704e-03  3.5286731625549777e-03 
 3.5748386272648454e-03  3.6216078905190368e-03  3.6689888420676714e-03  3.7169894744568362e-03 
 3.7656178843555950e-03  3.8148822738996524e-03  3.8647909520517741e-03  3.9153523359792049e-03 
 3.9665749524482596e-03  4.0184674392362641e-03  4.0710385465610515e-03  4.1242971385281749e-03 
 4.1782521945960662e-03  4.2329128110593023e-03  4.2882882025501680e-03  4.3443877035587320e-03 
 4.4012207699716194e-03  4.4587969806296115e-03  4.5171260389044307e-03  4.5762177742946697e-03 
 4.6360821440412552e-03  4.6967292347625377e-03  4.7581692641092349e-03  4.8204125824393923e-03 
 4.8834696745135766e-03  4.9473511612104937e-03  5.0120678012631524e-03  5.0776304930159185e-03 
 5.1440502762024392e-03  5.2113383337447769e-03  5.2795059935738780e-03  5.3485647304715583e-03 
 5.4185261679341795e-03  5.4894020800582135e-03  5.5612043934478326e-03  5.6339451891447160e-03 
 5.7076367045802712e-03  5.7822913355503403e-03  5.8579216382126601e-03  5.9345403311071177e-03 
 6.0121602971990543e-03  6.0907945859456887e-03  6.1704564153858268e-03  6.2511591742529732e-03 
 6.3329164241119609e-03  6.4157419015192889e-03  6.4996495202071227e-03  6.5846533732912618e-03 
 6.6707677355029417e-03  6.7580070654447598e-03  6.8463860078706341e-03  6.9359193959899626e-03 
 7.0266222537959623e-03  7.1185097984182303e-03  7.2115974424996282e-03  7.3059007965973633e-03 
 7.4014356716083579e-03  7.4982180812188347e-03  7.5962642443781056e-03  7.6955905877964369e-03 
 7.7962137484670173e-03  7.8981505762117966e-03  8.0014181362511455e-03  8.1060337117972031e-03 
 8.2120148066706401e-03  8.3193791479407465e-03  8.4281446885884868e-03  8.5383296101924026e-03 
 8.6499523256369278e-03  8.7630314818428531e-03  8.8775859625195765e-03  8.9936348909386583e-03 
 9.1111976327284058e-03  9.2302937986886817e-03  9.3509432476257762e-03  9.4731660892064321e-03 
 9.5969826868305148e-03  9.7224136605217216e-03  9.8494798898353386e-03  9.9782025167824435e-03 
 1.0108602948769547e-02  1.0240702861552785e-02  1.0374524202205564e-02  1.0510089192098596e-02 
 1.0647420329891199e-02  1.0786540394532362e-02  1.0927472448270581e-02  1.1070239839670534e-02 
 1.1214866206635511e-02  1.1361375479433463e-02  1.1509791883725338e-02  1.1660139943593301e-02 
 1.1812444484567270e-02  1.1966730636647252e-02  1.2123023837319304e-02  1.2281349834562683e-02 
 1.2441734689845406e-02  1.2604204781105664e-02  1.2768786805715849e-02  1.2935507783426279e-02 
 1.3104395059285135e-02  1.3275476306531081e-02  1.3448779529454726e-02  1.3624333066225196e-02 
 1.3802165591677152e-02  1.3982306120054156e-02  1.4164784007703329e-02  1.4349628955716441e-02 
 1.4536871012512064e-02  1.4726540576353088e-02  1.4918668397793610e-02  1.5113285582049007e-02 
 1.5310423591282464e-02  1.5510114246800828e-02  1.5712389731152493e-02  1.5917282590119358e-02 
 1.6124825734594617e-02  1.6335052442337680e-02  1.6547996359597014e-02  1.6763691502590970e-02 
 1.6982172258836851e-02  1.7203473388316987e-02  1.7427630024470658e-02  1.7654677675000164e-02 
 1.7884652222478075e-02  1.8117589924742872e-02  1.8353527415068963e-02  1.8592501702096580e-02 
 1.8834550169506262e-02  1.9079710575421936e-02  1.9328021051526052e-02  1.9579520101868780e-02 
 1.9834246601353155e-02  2.0092239793876959e-02  2.0353539290110838e-02  2.0618185064892238e-02 
 2.0886217454212326e-02  2.1157677151773750e-02  2.1432605205094907e-02  2.1711043011135710e-02 
 2.1993032311419101e-02  2.2278615186621269e-02  2.2567834050602358e-02  2.2860731643848713e-02 
 2.3157351026296284e-02  2.3457735569504014e-02  2.3761928948144707e-02  2.4069975130779825e-02 
 2.4381918369884108e-02  2.4697803191083847e-02  2.5017674381572465e-02  2.5341576977665696e-02 
 2.5669556251458139e-02  2.6001657696541048e-02  2.6337927012741746e-02  2.6678410089843164e-02 
 2.7023152990241970e-02  2.7372201930503000e-02  2.7725603261767377e-02  2.8083403448971204e-02 
 2.8445649048831775e-02  2.8812386686558628e-02  2.9183663031246115e-02  2.9559524769905799e-02 
 2.9940018580097327e-02  3.0325191101116651e-02  3.0715088903704349e-02  3.1109758458235146e-02 
 3.1509246101355068e-02  3.1913598001033716e-02  3.2322860120002551e-02  3.2737078177553919e-02 
 3.3156297609680294e-02  3.3580563527537084e-02  3.4009920674219360e-02  3.4444413379848486e-02 
 3.4884085514972171e-02  3.5328980442289562e-02  3.5779140966722973e-02  3.6234609283866591e-02 
 3.6695426926855859e-02  3.7161634711712035e-02  3.7633272681231934e-02  3.8110380047506713e-02 
 3.8592995133172617e-02  3.9081155311511608e-02  3.9574896945543760e-02  4.0074255326272457e-02 
 4.0579264610267743e-02  4.1089957756799571e-02  4.1606366464759952e-02  4.2128521109641714e-02 
 4.2656450680876076e-02  4.3190182719862469e-02  4.3729743259063057e-02  4.4275156762571793e-02 
 4.4826446068610047e-02  4.5383632334443959e-02  4.5946734984265235e-02  4.6515771660625642e-02 
 4.7090758180065868e-02  4.7671708493632829e-02  4.8258634653035849e-02  4.8851546783246630e-02 
 4.9450453062410270e-02  5.0055359709992801e-02  5.0666270984153612e-02  5.1283189189393279e-02 
 5.1906114695591074e-02  5.2535045969608771e-02  5.3169979620700032e-02  5.3810910461026436e-02 
 5.4457831582638526e-02  5.5110734452339098e-02  5.5769609025895214e-02  5.6434443883115450e-02 
 5.7105226385348686e-02  5.7781942856995373e-02  5.8464578792647638e-02  5.9153119091488800e-02 
 5.9847548320588591e-02  6.0547851008716444e-02  6.1254011972273405e-02  6.1966016674898358e-02 
 6.2683851622242978e-02  6.3407504793326908e-02  6.4136966109778482e-02  6.4872227944134400e-02 
 6.5613285668213311e-02  6.6360138242390856e-02  6.7112788846384844e-02  6.7871245551906489e-02 
 6.8635522037252511e-02  6.9405638343588719e-02  7.0181621672324640e-02  7.0963507222587291e-02 
 7.1751339067377712e-02  7.2545171066536671e-02  7.3345067814159934e-02  7.4151105617584978e-02 
 7.4963373504536052e-02  7.5781974254460677e-02  7.6607025449524913e-02  7.7438660540175105e-02 
 7.8277029919619809e-02  7.9122302001060421e-02  7.9974664291009523e-02  8.0834324451607320e-02 
 8.1701511344493091e-02  8.2576476048534214e-02  8.3459492843586364e-02  8.4350860152480153e-02 
 8.5250901433633383e-02  8.6159966017102435e-02  8.7078429877547880e-02  8.8006696338531532e-02 
 8.8945196703818633e-02  8.9894390812966699e-02  9.0854767520474680e-02  9.1826845100178550e-02 
 9.2811171579428642e-02  9.3808325010914267e-02  9.4818913693803755e-02  9.5843576360173169e-02 
 9.6882982347483007e-02  9.7937831783123222e-02  9.9008855812740063e-02  1.0009681691013406e-01 
 1.0120250931289541e-01  1.0232675963452530e-01  1.0347042771043377e-01  1.0463440774176093e-01 
 1.0581962980722458e-01  1.0702706181892860e-01  1.0825771200300280e-01  1.0951263198976710e-01 
 1.1079292060049274e-01  1.1209972841837730e-01  1.1343426322966196e-01  1.1479779641646372e-01 
 1.1619167037543869e-01  1.1761730702538750e-01  1.1907621745194712e-01  1.2057001271818946e-01 
 1.2210041584594776e-01  1.2366927494377365e-01  1.2527857742347098e-01  1.2693046520818579e-01 
 1.2862725079127818e-01  1.3037143395710174e-01  1.3216571892308365e-01  1.3401303160814509e-01 
 1.3591653667688172e-01  1.3787965395373669e-01  1.3990607374875397e-01  1.4199977058886024e-01 
 1.4416501480884211e-01  1.4640638142743545e-01  1.4872875571969052e-01  1.5113733490062456e-01 
 1.5363762536082073e-01  1.5623543494560022e-01  1.5893685984892070e-01  1.6174826580383717e-01 
 1.6467626339496608e-01  1.6772767749542647e-01  1.7090951104018870e-01  1.7422890358666851e-01 
 1.7769308537654691e-01  1.8130932789233620e-01  1.8508489218749635e-01  1.8902697654622336e-01 
 1.9314266528177063e-01  1.9743888069078153e-01  2.0192234032380613e-01  2.0659952178540228e-01 
 2.1147663721688387e-01  2.1655961941756607e-01  2.2185412120552506e-01  2.2736552909044436e-01 
 2.3309899162017400e-01  2.3905946187016086e-01  2.4525175248439784e-01  2.5168060047668900e-01 
 2.5835073770792671e-01  2.6526696163387442e-01  2.7243419965332138e-01  2.7985755928179673e-01 
 2.8754235555073221e-01  2.9549410661641923e-01  3.0371848869168927e-01  3.1222124221375991e-01 
 3.2100802274323054e-01  3.3008419252693416e-01  3.3945455197602498e-01  3.4912301446752442e-01 
 3.5909223274605057e-01  3.6936319055897598e-01  3.7993477867409331e-01  3.9080337966992085e-01 
 4.0196249032611392e-01  4.1340241347480666e-01  4.2511005217020831e-01  4.3706883738256713e-01 
 4.4925881560475422e-01  4.6165691443072482e-01  4.7423739224447786e-01  4.8697246291774365e-01 
 4.9983306855542942e-01  5.1278975402958404e-01  5.2581357797356088e-01  5.3887697817664482e-01 
 5.5195449735630631e-01  5.6502327064551083e-01  5.7806318121738287e-01  5.9105660717795971e-01 
 6.0398771219151814e-01  6.1684127396553834e-01  6.2960109676765441e-01  6.4224811274640881e-01 
 6.5475833623305757e-01  6.6710088797659872e-01  6.7923634384226939e-01  6.9111567609923430e-01 
 7.0268003726878769e-01  7.1386158132714383e-01  7.2458542362709011e-01  7.3477271341629558e-01 
 7.4434464182706328e-01  7.5322705070810148e-01  7.6135516620204835e-01  7.6868395067165418e-01 
 7.7520469633964084e-01  7.8091740631849971e-01  7.8582348215397424e-01  7.8992570002556073e-01 
 7.9322818544554918e-01  7.9573638653917755e-01  7.9745704599135803e-01  7.9839817173722682e-01 
 7.9856900646542395e-01  7.9797999599477898e-01  7.9664275657700689e-01  7.9457004117003371e-01 
 7.9177570471868719e-01  7.8827466847149763e-01  7.8408288335415954e-01  7.7921729241153537e-01 
 7.7369579232071650e-01  7.6753719396725761e-01  7.6076118206499488e-01  7.5338827378655215e-01 
 7.4543977635648651e-01  7.3693774354194586e-01  7.2790493095674802e-01  7.1836475007428513e-01 
 7.0834122082325135e-01  6.9785892261900218e-01  6.8694294366388331e-01  6.7561882833425480e-01 
 6.6391252246270849e-01  6.5185031632411761e-01  6.3945878514691856e-01  6.2676472699954922e-01 
 6.1379509794905862e-01  6.0057694445652909e-01  5.8713733306276350e-01  5.7350327752668007e-01 
 5.5970166370497165e-01  5.4575917259966000e-01  5.3170220214304853e-01  5.1755678842852149e-01 
 5.0334852722101009e-01  4.8910249668308009e-01  4.7484318232279010e-01  4.6059440520078160e-01 
 4.4637925442223836e-01  4.3222002488303723e-01  4.1813816114044772e-01  4.0415420814180752e-01 
 3.9028776937677506e-01  3.7655747282875290e-01  3.6298094489849886e-01  3.4957479226756727e-01 
 3.3635459147031355e-01  3.2333488575909580e-01  3.1052918868510015e-01  2.9794999368259290e-01 
 2.8560878884161428e-01  2.7351607598600092e-01  2.6168139314159516e-01  2.5011333948363762e-01 
 2.3881960189134233e-01  2.2780698230884561e-01  2.1708142521107845e-01  2.0664804459527136e-01 
 1.9651115005732425e-01  1.8667427165977493e-01  1.7714018344678836e-01  1.6791092560361537e-01 
 1.5898782538607639e-01  1.5037151705360052e-01  1.4206196112251437e-01  1.3405846331179183e-01 
 1.2635969358046562e-01  1.1896370565541420e-01  1.1186795742299033e-01  1.0506933251198373e-01 
 9.8564163333588015e-02  9.2348255771639992e-02  8.6416915638611549e-02  8.0764976934439639e-02 
 7.5386831870350515e-02  7.0276462551601165e-02  6.5427474153837262e-02  6.0833129378984947e-02 
 5.6486383938900125e-02  5.2379922788360657e-02  4.8506196812867261e-02  4.4857459670195873e-02 
 4.1425804486565708e-02  3.8203200117375442e-02  3.5181526697406658e-02  3.2352610224933513e-02 
 2.9708255947133080e-02  2.7240280339501644e-02  2.4940541498724350e-02  2.2800967795832929e-02 
 2.0813584663863086e-02  1.8970539421063384e-02  1.7264124056591064e-02  1.5686795930239028e-02 
 1.4231196360835485e-02  1.2890167099376871e-02  1.1656764702589063e-02  1.0524272840398799e-02 
 9.4862125867155814e-03  8.5363507569801069e-03  7.6687063681599894e-03  6.8775553073165780e-03 
 6.1574333035916548e-03  5.5031373055447995e-03  4.9097253712937841e-03  4.3725151829613253e-03 
 3.8870812996055657e-03  3.4492512642060654e-03  3.0551006804912526e-03  2.7009473745280722e-03 
 2.3833447541510492e-03  2.0990744765872144e-03  1.8451385311357917e-03  1.6187508395854432e-03 
 1.4173284722946162e-03  1.2384825726157894e-03  1.0800090767036589e-03  9.3987930979791000e-04 
 8.1623053389679519e-04  7.0735651541736148e-04  6.1169817504601244e-04  5.2783437558830181e-04 
 4.5447289729291779e-04  3.9044164390966511e-04  3.3468011669684719e-04  2.8623118776581577e-04 
 2.4423319857949259e-04  2.0791240414131320e-04  1.7657577844922096e-04  1.4960419216812596e-04 
 1.2644596921008357e-04  1.0661082501536314e-04  8.9664185805455644e-05  7.5221884932025407e-05 
 6.2945229670503686e-05  5.2536429396111034e-05  4.3734374022634287e-05  3.6310749866156896e-05 
 3.0066478700332625e-05  2.4828464677633625e-05  2.0446632981422831e-05  1.6791243524466230e-05 
 1.3750462697439200e-05  1.1228176072400741e-05  9.1420250572487156e-06  7.4216507541667201e-06 
 6.0071286748687357e-06  4.8475784856615189e-06  3.8999335746160273e-06  3.1278559313240609e-06 
 2.5007825880508035e-06  1.9930906723111292e-06  1.5833689493176137e-06  1.2537845743234566e-06 
 9.8953461721977510e-07  7.7837275408688428e-07  6.1020233358745006e-07  4.7672781250782427e-07 
 3.7115730824223101e-07  2.8794974426569815e-07  2.2260079919642557e-07  1.7146199233668350e-07 
 1.3158901400562462e-07  1.0061465618188099e-07  7.6642853417116534e-08  5.8160692106691233e-08 
 4.3965635153875153e-08  3.3105575602828768e-08  2.4829660412538108e-08  1.8548116639523586e-08 
 1.3799569481458074e-08  1.0224567575914597e-08  7.5442283357008452e-09  5.5430875891732656e-09 
 4.0553859603487404e-09  2.9541517413337047e-09  2.1425488171028689e-09  1.5470506872579479e-09 
 1.1120798155333343e-09  7.9581728118169526e-10  5.6694269280187725e-10  4.0211007365665439e-10 
 2.8400329672323145e-10  1.9984584545420768e-10  1.4026527176659536e-10  0.0000000000000000e+00 
 0.0000000000000000e+00  0.0000000000000000e+00  0.0000000000000000e+00  0.0000000000000000e+00 
 0.0000000000000000e+00  0.0000000000000000e+00  0.0000000000000000e+00  0.0000000000000000e+00 
 0.0000000000000000e+00  0.0000000000000000e+00  0.0000000000000000e+00  0.0000000000000000e+00 
 0.0000000000000000e+00  0.0000000000000000e+00  0.0000000000000000e+00  0.0000000000000000e+00 
 0.0000000000000000e+00  0.0000000000000000e+00  0.0000000000000000e+00  0.0000000000000000e+00 
 0.0000000000000000e+00  0.0000000000000000e+00  0.0000000000000000e+00  0.0000000000000000e+00 
 0.0000000000000000e+00  0.0000000000000000e+00  0.0000000000000000e+00  0.0000000000000000e+00 
 0.0000000000000000e+00  0.0000000000000000e+00  0.0000000000000000e+00  0.0000000000000000e+00 
 0.0000000000000000e+00  0.0000000000000000e+00  0.0000000000000000e+00  0.0000000000000000e+00 
 0.0000000000000000e+00  0.0000000000000000e+00  0.0000000000000000e+00  0.0000000000000000e+00 
 0.0000000000000000e+00  0.0000000000000000e+00  0.0000000000000000e+00  0.0000000000000000e+00 
 0.0000000000000000e+00  0.0000000000000000e+00  0.0000000000000000e+00  0.0000000000000000e+00 
 0.0000000000000000e+00  0.0000000000000000e+00  0.0000000000000000e+00  0.0000000000000000e+00 
 0.0000000000000000e+00  0.0000000000000000e+00  0.0000000000000000e+00  0.0000000000000000e+00 
 0.0000000000000000e+00  0.0000000000000000e+00  0.0000000000000000e+00  0.0000000000000000e+00 
 0.0000000000000000e+00  0.0000000000000000e+00  0.0000000000000000e+00  0.0000000000000000e+00 
 0.0000000000000000e+00  0.0000000000000000e+00  0.0000000000000000e+00  0.0000000000000000e+00 
 0.0000000000000000e+00  0.0000000000000000e+00  0.0000000000000000e+00  0.0000000000000000e+00 
 0.0000000000000000e+00  0.0000000000000000e+00  0.0000000000000000e+00  0.0000000000000000e+00 
 0.0000000000000000e+00  0.0000000000000000e+00  0.0000000000000000e+00  0.0000000000000000e+00 
 0.0000000000000000e+00  0.0000000000000000e+00  0.0000000000000000e+00  0.0000000000000000e+00 
 0.0000000000000000e+00  0.0000000000000000e+00  0.0000000000000000e+00  0.0000000000000000e+00 
 0.0000000000000000e+00  0.0000000000000000e+00  0.0000000000000000e+00  0.0000000000000000e+00 
 0.0000000000000000e+00  0.0000000000000000e+00  0.0000000000000000e+00  0.0000000000000000e+00 
 0.0000000000000000e+00  0.0000000000000000e+00  0.0000000000000000e+00  0.0000000000000000e+00 
 0.0000000000000000e+00  0.0000000000000000e+00  0.0000000000000000e+00  0.0000000000000000e+00 
 0.0000000000000000e+00  0.0000000000000000e+00  0.0000000000000000e+00  0.0000000000000000e+00 
 0.0000000000000000e+00  0.0000000000000000e+00  0.0000000000000000e+00  0.0000000000000000e+00 
 0.0000000000000000e+00  0.0000000000000000e+00  0.0000000000000000e+00  0.0000000000000000e+00 
 0.0000000000000000e+00  0.0000000000000000e+00  0.0000000000000000e+00  0.0000000000000000e+00 
 0.0000000000000000e+00  0.0000000000000000e+00  0.0000000000000000e+00  0.0000000000000000e+00 
 0.0000000000000000e+00  0.0000000000000000e+00  0.0000000000000000e+00  0.0000000000000000e+00 
 0.0000000000000000e+00  0.0000000000000000e+00  0.0000000000000000e+00  0.0000000000000000e+00 
 0.0000000000000000e+00 
P    1   0.00          Wavefunction
 2.1742759295735666e-10  2.2315484198856928e-10  2.2903295219185687e-10  2.3506589739360392e-10 
 2.4125775609455184e-10  2.4761271422702141e-10  2.5413506798476249e-10  2.6082922672734454e-10 
 2.6769971596105182e-10  2.7475118039829816e-10  2.8198838709762939e-10  2.8941622868643716e-10 
 2.9703972666856010e-10  3.0486403481901371e-10  3.1289444266813747e-10  3.2113637907751897e-10 
 3.2959541591011201e-10  3.3827727179702748e-10  3.4718781600354679e-10  3.5633307239696776e-10 
 3.6571922351896994e-10  3.7535261476524761e-10  3.8523975867523930e-10  3.9538733933485260e-10 
 4.0580221689516159e-10  4.1649143221012970e-10  4.2746221159649608e-10  4.3872197171904096e-10 
 4.5027832460453426e-10  4.6213908278775418e-10  4.7431226459306162e-10  4.8680609955509046e-10 
 4.9962903398222777e-10  5.1278973666664145e-10  5.2629710474471207e-10  5.4016026971183808e-10 
 5.5438860359567508e-10  5.6899172529198199e-10  5.8397950706736429e-10  5.9936208123329998e-10 
 6.1514984699597123e-10  6.3135347748652205e-10  6.4798392697650380e-10  6.6505243828337990e-10 
 6.8257055037109982e-10  7.0055010615087839e-10  7.1900326048745572e-10  7.3794248841624967e-10 
 7.5738059357695651e-10  7.7733071686929865e-10  7.9780634533677564e-10  8.1882132128441903e-10 
 8.4038985163671920e-10  8.6252651754205041e-10  8.8524628423007974e-10  9.0856451112883833e-10 
 9.3249696224827788e-10  9.5705981683734382e-10  9.8226968032176600e-10  1.0081435955299599e-09 
 1.0346990542146294e-09  1.0619540088778603e-09  1.0899268849076979e-09  1.1186365930344094e-09 
 1.1481025421148658e-09  1.1783446522536653e-09  1.2093833682698876e-09  1.2412396735185723e-09 
 1.2739351040762687e-09  1.3074917633002455e-09  1.3419323367712080e-09  1.3772801076296133e-09 
 1.4135589723159672e-09  1.4507934567257282e-09  1.4890087327897540e-09  1.5282306354914864e-09 
 1.5684856803323887e-09  1.6098010812574388e-09  1.6522047690528003e-09  1.6957254102280923e-09 
 1.7403924263960614e-09  1.7862360141627021e-09  1.8332871655413331e-09  1.8815776889043694e-09 
 1.9311402304870117e-09  1.9820082964573469e-09  2.0342162755677951e-09  2.0877994624032329e-09 
 2.1427940812414759e-09  2.1992373105422853e-09  2.2571673080814213e-09  2.3166232367467753e-09 
 2.3776452910139670e-09  2.4402747241193655e-09  2.5045538759488452e-09  2.5705262016611820e-09 
 2.6382363010654031e-09  2.7077299487719640e-09  2.7790541251381519e-09  2.8522570480285979e-09 
 2.9273882054124148e-09  3.0044983888189505e-09  3.0836397276748302e-09  3.1648657245454294e-09 
 3.2482312913046804e-09  3.3337927862575993e-09  3.4216080522406676e-09  3.5117364557258156e-09 
 3.6042389269544330e-09  3.6991780011285670e-09  3.7966178606871088e-09  3.8966243786956021e-09 
 3.9992651633789723e-09  4.1046096038272735e-09  4.2127289169054118e-09  4.3236961953984549e-09 
 4.4375864574252069e-09  4.5544766971533129e-09  4.6744459368503165e-09  4.7975752803057342e-09 
 4.9239479676603614e-09  5.0536494316798164e-09  5.1867673555103843e-09  5.3233917319562087e-09 
 5.4636149243179088e-09  5.6075317288337403e-09  5.7552394387655120e-09  5.9068379101725969e-09 
 6.0624296294184903e-09  6.2221197824555624e-09  6.3860163259348290e-09  6.5542300601888278e-09 
 6.7268747041369546e-09  6.9040669721638355e-09  7.0859266530228037e-09  7.2725766908177268e-09 
 7.4641432681180050e-09  7.6607558912628931e-09  7.8625474779128106e-09  8.0696544469068544e-09 
 8.2822168104872363e-09  8.5003782689530246e-09  8.7242863078071287e-09  8.9540922974622628e-09 
 9.1899515955732133e-09  9.4320236520647402e-09  9.6804721169258967e-09  9.9354649508438295e-09 
 1.0197174538751798e-08  1.0465777806368096e-08  1.0741456339804800e-08  1.1024396508327072e-08 
 1.1314789590346091e-08  1.1612831902730803e-08  1.1918724933525777e-08  1.2232675478165109e-08 
 1.2554895779274180e-08  1.2885603670154130e-08  1.3225022722045700e-08  1.3573382395272198e-08 
 1.3930918194363779e-08  1.4297871827267745e-08  1.4674491368752768e-08  1.5061031428117174e-08 
 1.5457753321314986e-08  1.5864925247615791e-08  1.6282822470918195e-08  1.6711727505839103e-08 
 1.7151930308704845e-08  1.7603728473573242e-08  1.8067427433418996e-08  1.8543340666618674e-08 
 1.9031789908874525e-08  1.9533105370720798e-08  2.0047625960759172e-08  2.0575699514774717e-08 
 2.1117683030886791e-08  2.1673942910894124e-08  2.2244855207977282e-08  2.2830805880925679e-08 
 2.3432191055061425e-08  2.4049417290036058e-08  2.4682901854681365e-08  2.5333073009099959e-08 
 2.6000370294186729e-08  2.6685244828776200e-08  2.7388159614617428e-08  2.8109589849382067e-08 
 2.8850023247917370e-08  2.9609960371961640e-08  3.0389914968544398e-08  3.1190414317300623e-08 
 3.2011999586933487e-08  3.2855226201066819e-08  3.3720664213734616e-08  3.4608898694761017e-08 
 3.5520530125292121e-08  3.6456174803746058e-08  3.7416465262456760e-08  3.8402050695292115e-08 
 3.9413597396536494e-08  4.0451789211333502e-08  4.1517327997994483e-08  4.2610934102484345e-08 
 4.3733346845405912e-08  4.4885325021812312e-08  4.6067647414184602e-08  4.7281113318922382e-08 
 4.8526543086702218e-08  4.9804778677070205e-08  5.1116684227642797e-08  5.2463146638301502e-08 
 5.3845076170775694e-08  5.5263407064019197e-08  5.6719098165796732e-08  5.8213133580907073e-08 
 5.9746523336481313e-08  6.1320304064805988e-08  6.2935539704132226e-08  6.4593322217945579e-08 
 6.6294772333182282e-08  6.8041040297890787e-08  6.9833306658851369e-08  7.1672783059679337e-08 
 7.3560713059950766e-08  7.5498372975905998e-08  7.7487072743297769e-08  7.9528156802968076e-08 
 8.1623005009752215e-08  8.3773033565325134e-08  8.5979695975619641e-08  8.8244484033464685e-08 
 9.0568928827107780e-08  9.2954601775302805e-08  9.5403115689664566e-08  9.7916125865006171e-08 
 1.0049533119839834e-07  1.0314247533770588e-07  1.0585934786037856e-07  1.0864778548329334e-07 
 1.1150967330446513e-07  1.1444694607746678e-07  1.1746158951941831e-07  1.2055564165343208e-07 
 1.2373119418641901e-07  1.2699039392318838e-07  1.3033544421779804e-07  1.3376860646313497e-07 
 1.3729220161973443e-07  1.4090861178487026e-07  1.4462028180297757e-07  1.4842972091849728e-07 
 1.5233950447225941e-07  1.5635227564255174e-07  1.6047074723205144e-07  1.6469770350182728e-07 
 1.6903600205365471e-07  1.7348857576191142e-07  1.7805843475636567e-07  1.8274866845719337e-07 
 1.8756244766360119e-07  1.9250302669747001e-07  1.9757374560346369e-07  2.0277803240709539e-07 
 2.0811940543227339e-07  2.1360147567989864e-07  2.1922794926911791e-07  2.2500262994288438e-07 
 2.3092942163952156e-07  2.3701233113202643e-07  2.4325547073689818e-07  2.4966306109432407e-07 
 2.5623943402160133e-07  2.6298903544172344e-07  2.6991642838911548e-07  2.7702629609454481e-07 
 2.8432344515129660e-07  2.9181280876475528e-07  2.9949945008758608e-07  3.0738856564277623e-07 
 3.1548548883684591e-07  3.2379569356560765e-07  3.3232479791490891e-07  3.4107856795886721e-07 
 3.5006292165815504e-07  3.5928393286098103e-07  3.6874783540946748e-07  3.7846102735419925e-07 
 3.8843007527980082e-07  3.9866171874445941e-07  4.0916287483639844e-07  4.1994064285038337e-07 
 4.3100230908742311e-07  4.4235535178090881e-07  4.5400744615252509e-07  4.6596646960135076e-07 
 4.7824050702965538e-07  4.9083785630900273e-07  5.0376703389034418e-07  5.1703678056190556e-07 
 5.3065606735875598e-07  5.4463410162806178e-07  5.5898033325411654e-07  5.7370446104736745e-07 
 5.8881643930175242e-07  6.0432648452478235e-07  6.2024508234492649e-07  6.3658299460096565e-07 
 6.5335126661810620e-07  6.7056123467578562e-07  6.8822453367220999e-07  7.0635310499080711e-07 
 7.2495920457393086e-07  7.4405541120925413e-07  7.6365463503446976e-07  7.8377012626605090e-07 
 8.0441548415796956e-07  8.2560466619643178e-07  8.4735199753685781e-07  8.6967218068948079e-07 
 8.9258030546011185e-07  9.1609185915281534e-07  9.4022273704137281e-07  9.6498925311662622e-07 
 9.9040815111698002e-07  1.0164966158495067e-06  1.0432722848093276e-06  1.0707532601051230e-06 
 1.0989581206988417e-06  1.1279059349678774e-06  1.1576162735982390e-06  1.1881092228174013e-06 
 1.2194053979758160e-06  1.2515259574862548e-06  1.2844926171304257e-06  1.3183276647425350e-06 
 1.3530539752797308e-06  1.3886950262896293e-06  1.4252749137853737e-06  1.4628183685389981e-06 
 1.5013507728040813e-06  1.5408981774790333e-06  1.5814873197226242e-06  1.6231456410336626e-06 
 1.6659013058070744e-06  1.7097832203789253e-06  1.7548210525732899e-06  1.8010452517641645e-06 
 1.8484870694660589e-06  1.8971785804671347e-06  1.9471527045192390e-06  1.9984432285994955e-06 
 2.0510848297585270e-06  2.1051130985707692e-06  2.1605645632027522e-06  2.2174767141156458e-06 
 2.2758880294187627e-06  2.3358380008912471e-06  2.3973671606894857e-06  2.4605171087583666e-06 
 2.5253305409649548e-06  2.5918512779735838e-06  2.6601242948819802e-06  2.7301957516384139e-06 
 2.8021130242605427e-06  2.8759247368770177e-06  2.9516807946136322e-06  3.0294324173462115e-06 
 3.1092321743431257e-06  3.1911340198209139e-06  3.2751933294370714e-06  3.3614669377447204e-06 
 3.4500131766345623e-06  3.5408919147901212e-06  3.6341645981829993e-06  3.7298942916356658e-06 
 3.8281457214797992e-06  3.9289853193391992e-06  4.0324812670669002e-06  4.1387035428669181e-06 
 4.2477239686319151e-06  4.3596162585288654e-06  4.4744560688656139e-06  4.5923210492721581e-06 
 4.7132908952313924e-06  4.8374474019948215e-06  4.9648745199198677e-06  5.0956584112662963e-06 
 5.2298875084902463e-06  5.3676525740753770e-06  5.5090467619417802e-06  5.6541656804742190e-06 
 5.8031074572124738e-06  5.9559728052477780e-06  6.1128650913701907e-06  6.2738904060133216e-06 
 6.4391576350437593e-06  6.6087785334439978e-06  6.7828678009387928e-06  6.9615431596163407e-06 
 7.1449254335969281e-06  7.3331386308031167e-06  7.5263100268871459e-06  7.7245702513722535e-06 
 7.9280533760666749e-06  8.1368970058102616e-06  8.3512423716153333e-06  8.5712344262651056e-06 
 8.7970219424346355e-06  9.0287576134009093e-06  9.2665981564105255e-06  9.5107044187753909e-06 
 9.7612414867682654e-06  1.0018378797392485e-05  1.0282290253101633e-05  1.0553154339547379e-05 
 1.0831154246435440e-05  1.1116477991571945e-05  1.1409318548184608e-05  1.1709873975605322e-05 
 1.2018347553403245e-05  1.2334947919059516e-05  1.2659889209277484e-05  1.2993391205024603e-05 
 1.3335679480404906e-05  1.3686985555463372e-05  1.4047547053026345e-05  1.4417607859684988e-05 
 1.4797418291031306e-05  1.5187235261259786e-05  1.5587322457249902e-05  1.5997950517248521e-05 
 1.6419397214274053e-05  1.6851947644367496e-05  1.7295894419818970e-05  1.7751537867501596e-05 
 1.8219186232448262e-05  1.8699155886810169e-05  1.9191771544340450e-05  1.9697366480548851e-05 
 2.0216282758678411e-05  2.0748871461658623e-05  2.1295492930193772e-05  2.1856517007149297e-05 
 2.2432323288403722e-05  2.3023301380337736e-05  2.3629851164136650e-05  2.4252383067088145e-05 
 2.4891318341060245e-05  2.5547089348351147e-05  2.6220139855106899e-05  2.6910925332508277e-05 
 2.7619913265933409e-05  2.8347583472308969e-05  2.9094428425867529e-05  2.9860953592535013e-05 
 3.0647677773178971e-05  3.1455133455952360e-05  3.2283867177976883e-05  3.3134439896613817e-05 
 3.4007427370578693e-05  3.4903420551162323e-05  3.5823025983827908e-05  3.6766866220461374e-05 
 3.7735580242559272e-05  3.8729823895647217e-05  3.9750270335227854e-05  4.0797610484567896e-05 
 4.1872553504639944e-05  4.2975827276545053e-05  4.4108178896749857e-05  4.5270375185481314e-05 
 4.6463203208631886e-05  4.7687470813536926e-05  4.8944007178996971e-05  5.0233663379926063e-05 
 5.1557312967019347e-05  5.2915852561843101e-05  5.4310202467761456e-05  5.5741307297125274e-05 
 5.7210136615160742e-05  5.8717685601006909e-05  6.0264975726363276e-05  6.1853055452222694e-05 
 6.3483000944175797e-05  6.5155916806788346e-05  6.6872936837565741e-05  6.8635224801032996e-05 
 7.0443975223474515e-05  7.2300414208890652e-05  7.4205800276745315e-05  7.6161425222093883e-05 
 7.8168614998698453e-05  8.0228730625751108e-05  8.2343169118846769e-05  8.4513364445862576e-05 
 8.6740788508420531e-05  8.9026952149627383e-05  9.1373406188807057e-05  9.3781742483958880e-05 
 9.6253595022696291e-05  9.8790641042444178e-05  1.0139460218068840e-04  1.0406724565610100e-04 
 1.0681038548138270e-04  1.0962588370868954e-04  1.1251565170853423e-04  1.1548165148308032e-04 
 1.1852589701476950e-04  1.2165045565125062e-04  1.2485744952761012e-04  1.2814905702692345e-04 
 1.3152751428018467e-04  1.3499511670669664e-04  1.3855422059603606e-04  1.4220724473274030e-04 
 1.4595667206489360e-04  1.4980505141782804e-04  1.5375499925418182e-04  1.5780920148160540e-04 
 1.6197041530942809e-04  1.6624147115564737e-04  1.7062527460563772e-04  1.7512480842401558e-04 
 1.7974313462113976e-04  1.8448339657576955e-04  1.8934882121544679e-04  1.9434272125621013e-04 
 1.9946849750330736e-04  2.0472964121460210e-04  2.1012973652843992e-04  2.1567246295777669e-04 
 2.2136159795243133e-04  2.2720101953137628e-04  2.3319470898704032e-04  2.3934675366364772e-04 
 2.4566134981168569e-04  2.5214280552065009e-04  2.5879554373228080e-04  2.6562410533656803e-04 
 2.7263315235287184e-04  2.7982747119857703e-04  2.8721197604776214e-04  2.9479171228245061e-04 
 3.0257186003907648e-04  3.1055773785288056e-04  3.1875480640303693e-04  3.2716867236138236e-04 
 3.3580509234771926e-04  3.4466997699474187e-04  3.5376939512573354e-04  3.6310957804827030e-04 
 3.7269692396726934e-04  3.8253800252081334e-04  3.9263955944228933e-04  4.0300852135249227e-04 
 4.1365200068543302e-04  4.2457730075172624e-04  4.3579192094353176e-04  4.4730356208515421e-04 
 4.5912013193351585e-04  4.7124975083286005e-04  4.8370075752814990e-04  4.9648171514178456e-04 
 5.0960141731838183e-04  5.2306889454250454e-04  5.3689342063438267e-04  5.5108451942880137e-04 
 5.6565197164250704e-04  5.8060582193561103e-04  5.9595638617266754e-04  6.1171425888923586e-04 
 6.2789032096992477e-04  6.4449574754410098e-04  6.6154201610559460e-04  6.7904091486294777e-04 
 6.9700455132692897e-04  7.1544536114222202e-04  7.3437611717041423e-04  7.5380993883159280e-04 
 7.7376030171207965e-04  7.9424104744602541e-04  8.1526639387884462e-04  8.3685094552061979e-04 
 8.5900970429791013e-04  8.8175808061255912e-04  9.0511190471637463e-04  9.2908743841076601e-04 
 9.5370138708066867e-04  9.7897091207233369e-04  1.0049136434247949e-03  1.0315476929650994e-03 
 1.0588916677775925e-03  1.0869646840578526e-03  1.1157863813620844e-03  1.1453769372630571e-03 
 1.1757570824239209e-03  1.2069481161014770e-03  1.2389719220907676e-03  1.2718509851230217e-03 
 1.3056084077293798e-03  1.3402679275828808e-03  1.3758539353315956e-03  1.4123914929359354e-03 
 1.4499063525233958e-03  1.4884249757742415e-03  1.5279745538518067e-03  1.5685830278912923e-03 
 1.6102791100611087e-03  1.6530923052109989e-03  1.6970529331212527e-03  1.7421921513675056e-03 
 1.7885419788156770e-03  1.8361353197616699e-03  1.8850059887304885e-03  1.9351887359494336e-03 
 1.9867192735100029e-03  2.0396343022330314e-03  2.0939715392514842e-03  2.1497697463251616e-03 
 2.2070687589013133e-03  2.2659095159348504e-03  2.3263340904816029e-03  2.3883857210774294e-03 
 2.4521088439156810e-03  2.5175491258347996e-03  2.5847534981272044e-03  2.6537701911797567e-03 
 2.7246487699552902e-03  2.7974401703235756e-03  2.8721967362490175e-03  2.9489722578410148e-03 
 3.0278220102715825e-03  3.1088027935631448e-03  3.1919729732476708e-03  3.2773925218964168e-03 
 3.3651230615173206e-03  3.4552279068148042e-03  3.5477721093040990e-03  3.6428225022693880e-03 
 3.7404477465521509e-03  3.8407183771523900e-03  3.9437068506221846e-03  4.0494875932267924e-03 
 4.1581370498444481e-03  4.2697337335712319e-03  4.3843582759926225e-03  4.5020934780777956e-03 
 4.6230243616472086e-03  4.7472382213577550e-03  4.8748246771431200e-03  5.0058757270401832e-03 
 5.1404858003245369e-03  5.2787518108703300e-03  5.4207732106412694e-03  5.5666520432102939e-03 
 5.7164929971962267e-03  5.8704034594952272e-03  6.0284935681747922e-03  6.1908762648860078e-03 
 6.3576673466387715e-03  6.5289855167716482e-03  6.7049524349356762e-03  6.8856927658973392e-03 
 7.0713342269522706e-03  7.2620076337264038e-03  7.4578469441261754e-03  7.6589893001839772e-03 
 7.8655750675285085e-03  8.0777478721937770e-03  8.2956546344632627e-03  8.5194455994289722e-03 
 8.7492743639276064e-03  8.9852978994990687e-03  9.2276765709949811e-03  9.4765741504476732e-03 
 9.7321578257940494e-03  9.9945982040311326e-03  1.0264069308365802e-02  1.0540748568905581e-02 
 1.0824816806424310e-02  1.1116458208723973e-02  1.1415860299103981e-02  1.1723213896440194e-02 
 1.2038713066370650e-02  1.2362555063081261e-02  1.2694940261184950e-02  1.3036072077191681e-02 
 1.3386156880074442e-02  1.3745403890449039e-02  1.4114025067903855e-02  1.4492234986039515e-02 
 1.4880250694808880e-02  1.5278291569785876e-02  1.5686579148038182e-02  1.6105336950331964e-02 
 1.6534790289462947e-02  1.6975166064581784e-02  1.7426692541467621e-02  1.7889599118802068e-02 
 1.8364116080605994e-02  1.8850474335126495e-02  1.9348905140599493e-02  1.9859639818468045e-02 
 2.0382909454805448e-02  2.0918944590878789e-02  2.1467974903990918e-02  2.2030228879959243e-02 
 2.2605933478826463e-02  2.3195313795652810e-02  2.3798592718510574e-02  2.4415990586088229e-02 
 2.5047724847615738e-02  2.5694009728135934e-02  2.6355055902477994e-02  2.7031070181624896e-02 
 2.7722255215512411e-02  2.8428809216644091e-02  2.9150925709253719e-02  2.9888793309086784e-02 
 3.0642595539200679e-02  3.1412510687492699e-02  3.2198711711946645e-02  3.3001366199836651e-02 
 3.3820636387325895e-02  3.4656679246044111e-02  3.5509646643300558e-02  3.6379685582582526e-02 
 3.7266938530883940e-02  3.8171543839188769e-02  3.9093636262088338e-02  4.0033347582010166e-02 
 4.0990807342876537e-02  4.1966143697159584e-02  4.2959484369244405e-02  4.3970957736732368e-02 
 4.5000694029791531e-02  4.6048826646875499e-02  4.7115493583065382e-02  4.8200838964932054e-02 
 4.9305014683153001e-02  5.0428182111144387e-02  5.1570513894682035e-02  5.2732195793890047e-02 
 5.3913428555083562e-02  5.5114429785784409e-02  5.6335435801817511e-02  5.7576703410782797e-02 
 5.8838511591447137e-02  6.0121163023770754e-02  6.1424985419486676e-02  6.2750332598475178e-02 
 6.4097585251762582e-02  6.5467151327971207e-02  6.6859465976625343e-02  6.8274990979076966e-02 
 6.9714213596169208e-02  7.1177644761346789e-02  7.2665816549011275e-02  7.4179278850779101e-02 
 7.5718595197226513e-02  7.7284337669990155e-02  7.8877080859036303e-02  8.0497394832802396e-02 
 8.2145837105022351e-02  8.3822943601602654e-02  8.5529218654119332e-02  8.7265124073452410e-02 
 8.9031067387832799e-02  9.0827389364037364e-02  9.2654350968448748e-02  9.4512119965818611e-02 
 9.6400757397293091e-02  9.8320204224815494e-02  1.0027026847542134e-01  1.0225061326493645e-01 
 1.0426074612465511e-01  1.0630001009490762e-01  1.0836757708393369e-01  1.1046244401678723e-01 
 1.1258343231449343e-01  1.1472919124552411e-01  1.1689820567687324e-01  1.1908880871755620e-01 
 1.2129919969023149e-01  1.2352746778403105e-01  1.2577162163116351e-01  1.2802962490951381e-01 
 1.3029943790222256e-01  1.3257906474304085e-01  1.3486660584439916e-01  1.3716031474649110e-01 
 1.3945865834504045e-01  1.4176037915974188e-01  1.4406455800398285e-01  1.4637067512127144e-01 
 1.4867866757933054e-01  1.5098898047620452e-01  1.5330260933340306e-01  1.5562113095053973e-01 
 1.5794671999679441e-01  1.6028214874001653e-01  1.6263076758661779e-01  1.6499646454461966e-01 
 1.6738360234409896e-01  1.6979693276339922e-01  1.7224148871690537e-01  1.7472245585086416e-01 
 1.7724502674433149e-01  1.7981424228357748e-01  1.8243482631350214e-01  1.8511102119316056e-01 
 1.8784643329973630e-01  1.9064389872362084e-01  1.9350538024869843e-01  1.9643190707810088e-01 
 1.9942356850449655e-01  2.0247957169923944e-01  2.0559837188793528e-01  2.0877788030460848e-01 
 2.1201575143400445e-01  2.1530974618793872e-01  2.1865816192532220e-01  2.2206031382194247e-01 
 2.2551704533969433e-01  2.2903123886452548e-01  2.3260829151834744e-01  2.3625651634051142e-01 
 2.3998742618678864e-01  2.4381585754215856e-01  2.4775989468851284e-01  2.5184056190051102e-01 
 2.5608126295385225e-01  2.6050696331389389e-01  2.6514313062492945e-01  2.7001447274952778e-01 
 2.7514353826534593e-01  2.8054927008117275e-01  2.8624562619349764e-01  2.9224039961831499e-01 
 2.9853437897236595e-01  3.0512098881607286e-01  3.1198653184878017e-01  3.1911112132244435e-01 
 3.2647034087903942e-01  3.3403760148938427e-01  3.4178708457842344e-01  3.4969707257872484e-01 
 3.5775338143049695e-01  3.6595253458255173e-01  3.7430426706157349e-01  3.8283293381881667e-01 
 3.9157743033685005e-01  4.0058932379208273e-01  4.0992904309562583e-01  4.1966018174831782e-01 
 4.2984221557243285e-01  4.4052220519857360e-01  4.5172630857965029e-01  4.6345213247843547e-01 
 4.7566306131793196e-01  4.8828567706549264e-01  5.0121119485599996e-01  5.1430147352735667e-01 
 5.2739963096592701e-01  5.4034464436213636e-01  5.5298862018081674e-01  5.6521478062043384e-01 
 5.7695610655493057e-01  5.8819317132386517e-01  5.9891460836978527e-01  6.0910980248569835e-01 
 6.1876890059912981e-01  6.2788282255253747e-01  6.3644327191069572e-01  6.4444274681645242e-01 
 6.5187455090641055e-01  6.5873280428737058e-01  6.6501245456265223e-01  6.7070928788438799e-01 
 6.7581993999322176e-01  6.8034190719014542e-01  6.8427355716601479e-01  6.8761413959211681e-01 
 6.9036379634953449e-01  6.9252357124555963e-01  6.9409541903175798e-01  6.9508221350044408e-01 
 6.9548775439457378e-01  6.9531677282117377e-01  6.9457493481176702e-01  6.9326884262689825e-01 
 6.9140603335872874e-01  6.8899497434934742e-01  6.8604505491746903e-01  6.8256657387735076e-01 
 6.7857072234621707e-01  6.7406956137498675e-01  6.6907599400549966e-01  6.6360373145807727e-01 
 6.5766725328623854e-01  6.5128176149827921e-01  6.4446312883277790e-01  6.3722784157874113e-01 
 6.2959293754043089e-01  6.2157593994970384e-01  6.1319478831211272e-01  6.0446776732477647e-01 
 5.9541343511354028e-01  5.8605055209623247e-01  5.7639801178315586e-01  5.6647477477412034e-01 
 5.5629980710560134e-01  5.4589202394718817e-01  5.3527023945103824e-01  5.2445312333090266e-01 
 5.1345916449876283e-01  5.0230664182793316e-01  4.9101360185233900e-01  4.7959784296284214e-01 
 4.6807690543265762e-01  4.5646806640404908e-01  4.4478833880556745e-01  4.3305447305002365e-01 
 4.2128296029353846e-01  4.0949003601900869e-01  3.9769168274459898e-01  3.8590363074821632e-01 
 3.7414135583844377e-01  3.6242007338427606e-01  3.5075472803087365e-01  3.3915997876489501e-01 
 3.2765017923801115e-01  3.1623935349771870e-01  3.0494116749800854e-01  2.9376889695786879e-01 
 2.8273539229445338e-01  2.7185304147443112e-01  2.6113373169905146e-01  2.5058881086638995e-01 
 2.4022904974123524e-01  2.3006460571443280e-01  2.2010498895581476e-01  2.1035903166548561e-01 
 2.0083486101454620e-01  1.9153987624529159e-01  1.8248073027857323e-01  1.7366331605743077e-01 
 1.6509275774515442e-01  1.5677340679536741e-01  1.4870884282324612e-01  1.4090187913140695e-01 
 1.3335457268138212e-01  1.2606823825149871e-01  1.1904346648351019e-01  1.1228014549239616e-01 
 1.0577748569510592e-01  9.9534047503407469e-02  9.3547771522165063e-02  8.7816010896151861e-02 
 8.2335565454846132e-02  7.7102717314636221e-02  7.2113267610650025e-02  6.7362574045359322e-02 
 6.2845588957602630e-02  5.8556897633262002e-02  5.4490756597135856e-02  5.0641131644265973e-02 
 4.7001735387866027e-02  4.3566064119869623e-02  4.0327433798822296e-02  3.7279014998271534e-02 
 3.4413866666871872e-02  3.1724968569050743e-02  2.9205252292219340e-02  2.6847630723117317e-02 
 2.4645025911913882e-02  2.2590395258118519e-02  2.0676755967154653e-02  1.8897207740593117e-02 
 1.7244953676506140e-02  1.5713319369163752e-02  1.4295770209334709e-02  1.2985926897750773e-02 
 1.1777579194833437e-02  1.0664697939547123e-02  9.6414453792220654e-03  8.7021838603719686e-03 
 7.8414829379094449e-03  7.0541249667319698e-03  6.3351092454119488e-03  5.6796547866805004e-03 
 5.0832017935520243e-03  4.5414119233077596e-03  4.0501674241563493e-03  3.6055692312382034e-03 
 3.2039341097617352e-03  2.8417909334817562e-03  2.5158761864855911e-03  2.2231287753764059e-03 
 1.9606842374754645e-03  1.7258684286478730e-03  1.5161907718354193e-03  1.3293371444031276e-03 
 1.1631624790227749e-03  1.0156831490782650e-03  8.8506920553663724e-04  7.6963652793737175e-04 
 6.6783894766401066e-04  5.7826039702814087e-04  4.9960713296728757e-04  4.3070007938450793e-04 
 3.7046732738547282e-04  3.1793682794322591e-04  2.7222930688305410e-04  2.3255142756819697e-04 
 1.9818922231602134e-04  1.6850180941440013e-04  1.4291540866594516e-04  1.2091766468578881e-04 
 1.0205228373494005e-04  8.5913986699697468e-05  7.2143777937926266e-05  6.0424527110837308e-05 
 5.0476858806110851e-05  4.2055342732965390e-05  3.4944975526971773e-05  2.8957943733895380e-05 
 2.3930656336779952e-05  1.9721035089307649e-05  1.6206054314823093e-05  1.3279486608656443e-05 
 1.0849891215848701e-05  8.8387951417737850e-06  7.1790604551864682e-06  5.8134249723334409e-06 
 4.6932026227000369e-06  3.7771302188962447e-06  3.0303478616634092e-06  2.4235007890338910e-06 
 1.9319511103403719e-06  1.5350885362518481e-06  1.2157299117823883e-06  9.5959806809602778e-07 
 7.5487122012729938e-07  5.9179484116959687e-07  4.6234863466949397e-07  3.5996189089140130e-07 
 2.7927115659826281e-07  2.1591475542087791e-07  1.6635927237420960e-07  1.2775365641447288e-07 
 9.7807099557889448e-08  7.4687320602231090e-08  5.6936317830764792e-08  0.0000000000000000e+00 
 0.0000000000000000e+00  0.0000000000000000e+00  0.0000000000000000e+00  0.0000000000000000e+00 
 0.0000000000000000e+00  0.0000000000000000e+00  0.0000000000000000e+00  0.0000000000000000e+00 
 0.0000000000000000e+00  0.0000000000000000e+00  0.0000000000000000e+00  0.0000000000000000e+00 
 0.0000000000000000e+00  0.0000000000000000e+00  0.0000000000000000e+00  0.0000000000000000e+00 
 0.0000000000000000e+00  0.0000000000000000e+00  0.0000000000000000e+00  0.0000000000000000e+00 
 0.0000000000000000e+00  0.0000000000000000e+00  0.0000000000000000e+00  0.0000000000000000e+00 
 0.0000000000000000e+00  0.0000000000000000e+00  0.0000000000000000e+00  0.0000000000000000e+00 
 0.0000000000000000e+00  0.0000000000000000e+00  0.0000000000000000e+00  0.0000000000000000e+00 
 0.0000000000000000e+00  0.0000000000000000e+00  0.0000000000000000e+00  0.0000000000000000e+00 
 0.0000000000000000e+00  0.0000000000000000e+00  0.0000000000000000e+00  0.0000000000000000e+00 
 0.0000000000000000e+00  0.0000000000000000e+00  0.0000000000000000e+00  0.0000000000000000e+00 
 0.0000000000000000e+00  0.0000000000000000e+00  0.0000000000000000e+00  0.0000000000000000e+00 
 0.0000000000000000e+00  0.0000000000000000e+00  0.0000000000000000e+00  0.0000000000000000e+00 
 0.0000000000000000e+00  0.0000000000000000e+00  0.0000000000000000e+00  0.0000000000000000e+00 
 0.0000000000000000e+00  0.0000000000000000e+00  0.0000000000000000e+00  0.0000000000000000e+00 
 0.0000000000000000e+00  0.0000000000000000e+00  0.0000000000000000e+00  0.0000000000000000e+00 
 0.0000000000000000e+00  0.0000000000000000e+00  0.0000000000000000e+00  0.0000000000000000e+00 
 0.0000000000000000e+00  0.0000000000000000e+00  0.0000000000000000e+00  0.0000000000000000e+00 
 0.0000000000000000e+00  0.0000000000000000e+00  0.0000000000000000e+00  0.0000000000000000e+00 
 0.0000000000000000e+00  0.0000000000000000e+00  0.0000000000000000e+00  0.0000000000000000e+00 
 0.0000000000000000e+00  0.0000000000000000e+00  0.0000000000000000e+00  0.0000000000000000e+00 
 0.0000000000000000e+00  0.0000000000000000e+00  0.0000000000000000e+00  0.0000000000000000e+00 
 0.0000000000000000e+00  0.0000000000000000e+00  0.0000000000000000e+00  0.0000000000000000e+00 
 0.0000000000000000e+00  0.0000000000000000e+00  0.0000000000000000e+00  0.0000000000000000e+00 
 0.0000000000000000e+00  0.0000000000000000e+00  0.0000000000000000e+00  0.0000000000000000e+00 
 0.0000000000000000e+00  0.0000000000000000e+00  0.0000000000000000e+00  0.0000000000000000e+00 
 0.0000000000000000e+00  0.0000000000000000e+00  0.0000000000000000e+00  0.0000000000000000e+00 
 0.0000000000000000e+00  0.0000000000000000e+00  0.0000000000000000e+00  0.0000000000000000e+00 
 0.0000000000000000e+00  0.0000000000000000e+00  0.0000000000000000e+00  0.0000000000000000e+00 
 0.0000000000000000e+00  0.0000000000000000e+00  0.0000000000000000e+00  0.0000000000000000e+00 
 0.0000000000000000e+00  0.0000000000000000e+00  0.0000000000000000e+00  0.0000000000000000e+00 
 0.0000000000000000e+00  0.0000000000000000e+00  0.0000000000000000e+00  0.0000000000000000e+00 
 0.0000000000000000e+00  0.0000000000000000e+00  0.0000000000000000e+00  0.0000000000000000e+00 
 0.0000000000000000e+00 
D    2  10.00          Wavefunction
 4.3793266267438483e-14  4.5534945646847428e-14  4.7345892457494135e-14  4.9228861498617167e-14 
 5.1186717129152899e-14  5.3222437624977762e-14  5.5339119709439975e-14  5.7539983264072927e-14 
 5.9828376226655349e-14  6.2207779684070752e-14  6.4681813167711012e-14  6.7254240159481912e-14 
 6.9928973816784411e-14  7.2710082925181571e-14  7.5601798087805828e-14  7.8608518160921763e-14 
 8.1734816945434876e-14  8.4985450144524150e-14  8.8365362597983762e-14  9.1879695804277299e-14 
 9.5533795741748519e-14  9.9333221000884962e-14  1.0328375124000540e-13  1.0739139597723485e-13 
 1.1166240373213961e-13  1.1610327153093068e-13  1.2072075478969287e-13  1.2552187759067493e-13 
 1.3051394336727311e-13  1.3570454601396071e-13  1.4110158143806641e-13  1.4671325957097054e-13 
 1.5254811685699438e-13  1.5861502923897696e-13  1.6492322566029540e-13  1.7148230210386705e-13 
 1.7830223618948950e-13  1.8539340235172335e-13  1.9276658762140776e-13  2.0043300803481323e-13 
 2.0840432569539553e-13  2.1669266651410289e-13  2.2531063865522418e-13  2.3427135171583764e-13 
 2.4358843666803501e-13  2.5327606659425747e-13  2.6334897824728727e-13  2.7382249446768815e-13 
 2.8471254749280104e-13  2.9603570319274779e-13  3.0780918627031263e-13  3.2005090646303602e-13 
 3.3277948578737821e-13  3.4601428686639587e-13  3.5977544238402330e-13  3.7408388571076707e-13 
 3.8896138274739778e-13  4.0443056503507961e-13  4.2051496418230814e-13  4.3723904766102249e-13 
 4.5462825602634660e-13  4.7270904161657889e-13  4.9150890879229576e-13  5.1105645577578693e-13 
 5.3138141815446471e-13  5.5251471411442334e-13  5.7448849147296054e-13  5.9733617658160353e-13 
 6.2109252517403425e-13  6.4579367523625762e-13  6.7147720197944803e-13  6.9818217499908255e-13 
 7.2594921770733218e-13  7.5482056912909776e-13  7.8484014815571136e-13  8.1605362035403418e-13 
 8.4850846743258503e-13  8.8225405947037187e-13  9.1734173001830080e-13  9.5382485418739328e-13 
 9.9175892984262751e-13  1.0312016620258785e-12  1.0722130507364196e-12  1.1148554822024738e-12 
 1.1591938237827012e-12  1.2052955226419492e-12  1.2532307083513874e-12  1.3030722995691077e-12 
 1.3548961149634521e-12  1.4087809885478243e-12  1.4648088896024088e-12  1.5230650473652594e-12 
 1.5836380806823768e-12  1.6466201328140691e-12  1.7121070116025972e-12  1.7801983352143738e-12 
 1.8509976836783912e-12  1.9246127564514019e-12  2.0011555362495559e-12  2.0807424593956837e-12 
 2.1634945929413907e-12  2.2495378188333605e-12  2.3390030254040678e-12  2.4320263064781477e-12 
 2.5287491683973232e-12  2.6293187452788291e-12  2.7338880228347472e-12  2.8426160710927631e-12 
 2.9556682863723100e-12  3.0732166428842690e-12  3.1954399543368582e-12  3.3225241459457348e-12 
 3.4546625372620967e-12  3.5920561362489294e-12  3.7349139450528890e-12  3.8834532779367935e-12 
 4.0379000918565192e-12  4.1984893301850317e-12  4.3654652801065596e-12  4.5390819442244178e-12 
 4.7196034269479301e-12  4.9073043362461242e-12  5.1024702013793139e-12  5.3053979072441392e-12 
 5.5163961459926763e-12  5.7357858866126608e-12  5.9639008631831411e-12  6.2010880825483122e-12 
 6.4477083521817321e-12  6.7041368290440330e-12  6.9707635902688632e-12  7.2479942265453613e-12 
 7.5362504590997277e-12  7.8359707812143868e-12  8.1476111252607450e-12  8.4716455562601295e-12 
 8.8085669930279561e-12  9.1588879579981951e-12  9.5231413568686757e-12  9.9018812892532450e-12 
 1.0295683891573992e-11  1.0705148213475695e-11  1.1130897129095600e-11  1.1573578284575010e-11 
 1.2033865083253618e-11  1.2512457710045769e-11  1.3010084196556386e-11  1.3527501528557236e-11 
 1.4065496797508039e-11  1.4624888397873986e-11  1.5206527272061342e-11  1.5811298204864531e-11 
 1.6440121169394155e-11  1.7093952726533110e-11  1.7773787480049805e-11  1.8480659589581860e-11 
 1.9215644343791829e-11  1.9979859796088303e-11  2.0774468465400183e-11  2.1600679104591595e-11 
 2.2459748539207595e-11  2.3352983579347509e-11  2.4281743007574574e-11  2.5247439645885481e-11 
 2.6251542504884487e-11  2.7295579018430844e-11  2.8381137367159641e-11  2.9509868894409902e-11 
 3.0683490618235245e-11  3.1903787843318618e-11  3.3172616876763710e-11  3.4491907851895171e-11 
 3.5863667664362313e-11  3.7289983025013158e-11  3.8773023634182489e-11  4.0315045482223393e-11 
 4.1918394281301882e-11  4.3585509033675841e-11  4.5318925741886089e-11  4.7121281266503316e-11 
 4.8995317337299803e-11  5.0943884723946734e-11  5.2969947572582634e-11  5.5076587914848516e-11 
 5.7267010356250184e-11  5.9544546950978243e-11  6.1912662270602296e-11  6.4374958674349365e-11 
 6.6935181788983306e-11  6.9597226206622581e-11  7.2365141409161566e-11  7.5243137928309955e-11 
 7.8235593750618664e-11  8.1347060977237591e-11  8.4582272748534438e-11  8.7946150444108325e-11 
 9.1443811169152586e-11  9.5080575538551666e-11  9.8861975770557351e-11  1.0279376410235185e-10 
 1.0688192154030364e-10  1.1113266695822319e-10  1.1555246655746194e-10  1.2014804370324262e-10 
 1.2492638915218529e-10  1.2989477168658635e-10  1.3506074917162766e-10  1.4043218005233628e-10 
 1.4601723530778273e-10  1.5182441088070351e-10  1.5786254060145422e-10  1.6414080962595560e-10 
 1.7066876840807136e-10  1.7745634722767398e-10  1.8451387129649796e-10  1.9185207646475910e-10 
 1.9948212555243399e-10  2.0741562533004061e-10  2.1566464417475152e-10  2.2424173042869920e-10 
 2.3315993148739916e-10  2.4243281364732658e-10  2.5207448274284100e-10  2.6209960560384950e-10 
 2.7252343236684904e-10  2.8336181967329156e-10  2.9463125479055477e-10  3.0634888069221576e-10 
 3.1853252213577506e-10  3.3120071277750733e-10  3.4437272336567563e-10  3.5806859105500524e-10 
 3.7230914988700373e-10  3.8711606248249592e-10  4.0251185299458708e-10  4.1851994137217333e-10 
 4.3516467898613086e-10  4.5247138567236798e-10  4.7046638824809803e-10  4.8917706055991979e-10 
 5.0863186512462041e-10  5.2886039642605718e-10  5.4989342593396312e-10  5.7176294891317940e-10 
 5.9450223309450156e-10  6.1814586928118190e-10  6.4272982396807736e-10  6.6829149405347751e-10 
 6.9486976372684350e-10  7.2250506361899049e-10  7.5123943230469872e-10  7.8111658025129835e-10 
 8.1218195631052407e-10  8.4448281685476381e-10  8.7806829766288547e-10  9.1298948866498206e-10 
 9.4929951165975476e-10  9.8705360112272659e-10  1.0263091882282361e-09  1.0671259882130098e-09 
 1.1095660912142121e-09  1.1536940567201592e-09  1.1995770117773636e-09  1.2472847531033059e-09 
 1.2968898532602544e-09  1.3484677710516681e-09  1.4020969663090863e-09  1.4578590192441244e-09 
 1.5158387545471428e-09  1.5761243704213455e-09  1.6388075727486153e-09  1.7039837145911435e-09 
 1.7717519412410989e-09  1.8422153410389318e-09  1.9154811021897969e-09  1.9916606758165782e-09 
 2.0708699454975818e-09  2.1532294035467878e-09  2.2388643343048021e-09  2.3279050047193422e-09 
 2.4204868625051399e-09  2.5167507421847176e-09  2.6168430793234286e-09  2.7209161332847091e-09 
 2.8291282188443014e-09  2.9416439470158547e-09  3.0586344754541879e-09  3.1802777688171209e-09 
 3.3067588694819752e-09  3.4382701790284854e-09  3.5750117509163161e-09  3.7171915948024306e-09 
 3.8650259929611994e-09  4.0187398292885432e-09  4.1785669313906454e-09  4.3447504262775503e-09 
 4.5175431102026957e-09  4.6972078332110682e-09  4.8840178989808093e-09  5.0782574805665390e-09 
 5.2802220526768280e-09  5.4902188411433947e-09  5.7085672902656420e-09  5.9355995487415224e-09 
 6.1716609749238841e-09  6.4171106621708123e-09  6.6723219850891912e-09  6.9376831675023284e-09 
 7.2135978730056094e-09  7.5004858190085149e-09  7.7987834151970826e-09  8.1089444273878149e-09 
 8.4314406677832369e-09  8.7667627126785534e-09  9.1154206487115936e-09  9.4779448487908707e-09 
 9.8548867788822592e-09  1.0246819836881341e-08  1.0654340224847561e-08  1.1078067855926985e-08 
 1.1518647297342952e-08  1.1976748750889509e-08  1.2453069072418565e-08  1.2948332831871768e-08 
 1.3463293415469552e-08  1.3998734171733804e-08  1.4555469603087486e-08  1.5134346604843579e-08 
 1.5736245753468293e-08  1.6362082646077621e-08  1.7012809293205448e-08  1.7689415566961011e-08 
 1.8392930706779011e-08  1.9124424885052503e-08  1.9885010835030158e-08  2.0675845543454009e-08 
 2.1498132010512269e-08  2.2353121079784469e-08  2.3242113340961933e-08  2.4166461108238639e-08 
 2.5127570477380523e-08  2.6126903464603304e-08  2.7165980230511530e-08  2.8246381392481801e-08 
 2.9369750429007428e-08  3.0537796179661736e-08  3.1752295444482435e-08  3.3015095686730601e-08 
 3.4328117843136386e-08  3.5693359245904344e-08  3.7112896660924049e-08  3.8588889446806680e-08 
 4.0123582839552807e-08  4.1719311367847167e-08  4.3378502404175417e-08  4.5103679857164068e-08 
 4.6897468010759016e-08  4.8762595516084083e-08  5.0701899542048376e-08  5.2718330091017543e-08 
 5.4814954486112377e-08  5.6994962036959842e-08  5.9261668890993095e-08  6.1618523077678937e-08 
 6.4069109753345361e-08  6.6617156654585292e-08  6.9266539768532703e-08  7.2021289228633406e-08 
 7.4885595444878274e-08  7.7863815477823348e-08  8.0960479666090095e-08  8.4180298517426367e-08 
 8.7528169873808802e-08  9.1009186361483716e-08  9.4628643137276759e-08  9.8392045942955302e-08 
 1.0230511947988887e-07  1.0637381611674840e-07  1.1060432494348530e-07  1.1500308118536095e-07 
 1.1957677599134371e-07  1.2433236661176061e-07  1.2927708698068061e-07  1.3441845871912459e-07 
 1.3976430257583723e-07  1.4532275032301620e-07  1.5110225712509245e-07  1.5711161439937091e-07 
 1.6335996318809036e-07  1.6985680806223617e-07  1.7661203157825274e-07  1.8363590930963811e-07 
 1.9093912547627923e-07  1.9853278919530105e-07  2.0642845137813363e-07  2.1463812229949813e-07 
 2.2317428986502591e-07  2.3204993860529258e-07  2.4127856942514452e-07  2.5087422013835503e-07 
 2.6085148681883226e-07  2.7122554600084197e-07  2.8201217776201665e-07  2.9322778972422748e-07 
 3.0488944200883451e-07  3.1701487318424909e-07  3.2962252724526450e-07  3.4273158166517732e-07 
 3.5636197656335332e-07  3.7053444503258430e-07  3.8527054467234132e-07  4.0059269037588567e-07 
 4.1652418842106328e-07  4.3308927191663245e-07  4.5031313765800538e-07  4.6822198444844173e-07 
 4.8684305294395167e-07  5.0620466708248556e-07  5.2633627716039356e-07  5.4726850462163539e-07 
 5.6903318862784939e-07  5.9166343448004481e-07  6.1519366396555683e-07  6.3965966770677520e-07 
 6.6509865959123916e-07  6.9154933336582780e-07  7.1905192148106877e-07  7.4764825627502194e-07 
 7.7738183358972045e-07  8.0829787891688424e-07  8.4044341617341886e-07  8.7386733921124770e-07 
 9.0862048617015871e-07  9.4475571678665974e-07  9.8232799277635165e-07  1.0213944614119642e-06 
 1.0620145424240789e-06  1.1042500183565851e-06  1.1481651285142117e-06  1.1938266666448448e-06 
 1.2413040825051032e-06  1.2906695874634866e-06  1.3419982643015582e-06  1.3953681813799890e-06 
 1.4508605113429378e-06  1.5085596545411052e-06  1.5685533673609553e-06  1.6309328956551316e-06 
 1.6957931134766814e-06  1.7632326673279042e-06  1.8333541261429213e-06  1.9062641372317996e-06 
 1.9820735884230853e-06  2.0608977766510439e-06  2.1428565832436490e-06  2.2280746561775011e-06 
 2.3166815995765872e-06  2.4088121707424854e-06  2.5046064850153633e-06  2.6042102287767866e-06 
 2.7077748809177383e-06  2.8154579431082008e-06  2.9274231792178179e-06  3.0438408642511846e-06 
 3.1648880431756313e-06  3.2907488000344896e-06  3.4216145377542317e-06  3.5576842690702735e-06 
 3.6991649190129727e-06  3.8462716394128973e-06  3.9992281359026676e-06  4.1582670079115878e-06 
 4.3236301021689692e-06  4.4955688802524958e-06  4.6743448007393761e-06  4.8602297165398906e-06 
 5.0535062880161571e-06  5.2544684125127993e-06  5.4634216709509335e-06  5.6806837921628397e-06 
 5.9065851356714772e-06  6.1414691936469501e-06  6.3856931128009197e-06  6.6396282370104267e-06 
 6.9036606714935329e-06  7.1781918693921155e-06  7.4636392416508545e-06  7.7604367911167529e-06 
 8.0690357718201630e-06  8.3899053744362399e-06  8.7235334389653964e-06  9.0704271957123811e-06 
 9.4311140356866976e-06  9.8061423115907503e-06  1.0196082170609145e-05  1.0601526420260077e-05 
 1.1023091428619798e-05  1.1461418060282951e-05  1.1917172649475655e-05  1.2391048011794006e-05 
 1.2883764496099057e-05  1.3396071078160210e-05  1.3928746497700997e-05  1.4482600440567615e-05 
 1.5058474767808113e-05  1.5657244793520672e-05  1.6279820613403030e-05  1.6927148486011700e-05 
 1.7600212268818324e-05  1.8300034911233275e-05  1.9027680006853119e-05  1.9784253407275655e-05 
 2.0570904899920862e-05  2.1388829952391107e-05  2.2239271526004207e-05  2.3123521961236842e-05 
 2.4042924937923728e-05  2.4998877513170394e-05  2.5992832240053210e-05  2.7026299370303038e-05 
 2.8100849144292619e-05  2.9218114171780476e-05  3.0379791906999308e-05  3.1587647221817821e-05 
 3.2843515080852391e-05  3.4149303322556790e-05  3.5506995550477392e-05  3.6918654139024585e-05 
 3.8386423358284879e-05  3.9912532622571854e-05  4.1499299867602764e-05  4.3149135061377185e-05 
 4.4864543854033662e-05  4.6648131372167876e-05  4.8502606163311119e-05  5.0430784296490000e-05 
 5.2435593625021916e-05  5.4520078217942038e-05  5.6687402966705727e-05  5.8940858374073800e-05 
 6.1283865532355222e-05  6.3719981298465599e-05  6.6252903673546937e-05  6.8886477395203790e-05 
 7.1624699750716102e-05  7.4471726619925089e-05  7.7431878756822312e-05  8.0509648319221575e-05 
 8.3709705656270526e-05  8.7036906363920777e-05  9.0496298618889919e-05  9.4093130802039767e-05 
 9.7832859422533554e-05  1.0172115735456828e-04  1.0576392239894220e-04  1.0996728618218670e-04 
 1.1433762340649353e-04  1.1888156146417106e-04  1.2360599043090691e-04  1.2851807345265484e-04 
 1.3362525754154572e-04  1.3893528479681330e-04  1.4445620406734004e-04  1.5019638307307642e-04 
 1.5616452100324541e-04  1.6236966160993054e-04  1.6882120681637521e-04  1.7552893086004366e-04 
 1.8250299499128196e-04  1.8975396274920100e-04  1.9729281583724626e-04  2.0513097062176315e-04 
 2.1328029527776873e-04  2.2175312760706444e-04  2.3056229355477044e-04  2.3972112645136994e-04 
 2.4924348700837234e-04  2.5914378409677604e-04  2.6943699633861454e-04  2.8013869454301618e-04 
 2.9126506501940162e-04  3.0283293380165926e-04  3.1485979181844660e-04  3.2736382104603314e-04 
 3.4036392168153160e-04  3.5387974037573075e-04  3.6793169956624049e-04  3.8254102795317040e-04 
 3.9772979216112954e-04  4.1352092963298269e-04  4.2993828280245928e-04  4.4700663459448233e-04 
 4.6475174530386681e-04  4.8320039090491503e-04  5.0238040284637082e-04  5.2232070938818063e-04 
 5.4305137853858569e-04  5.6460366265219549e-04  5.8701004475190748e-04  6.1030428663979338e-04 
 6.3452147886448212e-04  6.5969809261492475e-04  6.8587203361299793e-04  7.1308269807998062e-04 
 7.4137103085459156e-04  7.7077958574306470e-04  8.0135258818457068e-04  8.3313600031822966e-04 
 8.6617758854098557e-04  9.0052699364875726e-04  9.3623580365643567e-04  9.7335762939566601e-04 
 1.0119481829927322e-03  1.0520653593323493e-03  1.0937693206168140e-03  1.1371225841336284e-03 
 1.1821901133485422e-03  1.2290394124448707e-03  1.2777406244339439e-03  1.3283666329656793e-03 
 1.3809931679724986e-03  1.4356989152840794e-03  1.4925656303550279e-03  1.5516782562518434e-03 
 1.6131250460504403e-03  1.6769976898000786e-03  1.7433914462144733e-03  1.8124052792557583e-03 
 1.8841419997820165e-03  1.9587084124343210e-03  2.0362154679444025e-03  2.1167784210488153e-03 
 2.2005169942026889e-03  2.2875555472884456e-03  2.3780232535241200e-03  2.4720542817783671e-03 
 2.5697879855065831e-03  2.6713690985282509e-03  2.7769479378701432e-03  2.8866806139071569e-03 
 3.0007292480373074e-03  3.1192621981341330e-03  3.2424542920237299e-03  3.3704870692418073e-03 
 3.5035490313293305e-03  3.6418359009327988e-03  3.7855508899788479e-03  3.9349049771999732e-03 
 4.0901171952922467e-03  4.2514149279904928e-03  4.4190342173525627e-03  4.5932200815473655e-03 
 4.7742268434466219e-03  4.9623184703229094e-03  5.1577689249632883e-03  5.3608625285023271e-03 
 5.5718943352978893e-03  5.7911705201515199e-03  6.0190087781990713e-03  6.2557387377866480e-03 
 6.5017023866423586e-03  6.7572545116731508e-03  7.0227631526863562e-03  7.2986100703645584e-03 
 7.5851912287860958e-03  7.8829172928091811e-03  8.1922141406143602e-03  8.5135233916895821e-03 
 8.8473029505516890e-03  9.1940275664698177e-03  9.5541894094538192e-03  9.9282986627563935e-03 
 1.0316884132114918e-02  1.0720493871959771e-02  1.1139695828766182e-02  1.1575078501737663e-02 
 1.2027251620960923e-02  1.2496846843152967e-02  1.2984518465091280e-02  1.3490944154787727e-02 
 1.4016825700417937e-02  1.4562889776995555e-02  1.5129888730723627e-02  1.5718601380913397e-02 
 1.6329833839309891e-02  1.6964420346607754e-02  1.7623224125876163e-02  1.8307138252559436e-02 
 1.9017086540633749e-02  1.9754024444438439e-02  2.0518939975619564e-02  2.1312854634530240e-02 
 2.2136824355347123e-02  2.2991940464071114e-02  2.3879330648463617e-02  2.4800159938871257e-02 
 2.5755631698773405e-02  2.6746988623769178e-02  2.7775513747571701e-02  2.8842531453474922e-02 
 2.9949408489582961e-02  3.1097554985962065e-02  3.2288425471699266e-02  3.3523519889717669e-02 
 3.4804384606974548e-02  3.6132613417544535e-02  3.7509848535862707e-02  3.8937781577213858e-02 
 4.0418154522360743e-02  4.1952760662985457e-02  4.3543445524382975e-02  4.5192107761648052e-02 
 4.6900700025325939e-02  4.8671229792286837e-02  5.0505760157279263e-02  5.2406410580412267e-02 
 5.4375357585505740e-02  5.6414835403967044e-02  5.8527136558578816e-02  6.0714612381250740e-02 
 6.2979673458505719e-02  6.5324789998106786e-02  6.7752492109900794e-02  7.0265369993612353e-02 
 7.2866074025917188e-02  7.5557314738737641e-02  7.8341862680285701e-02  8.1222548149941093e-02 
 8.4202260797558867e-02  8.7283949077309561e-02  9.0470619545623035e-02  9.3765335992214954e-02 
 9.7171218392526973e-02  1.0069144166928434e-01  1.0432923425009225e-01  1.0808787640722654e-01 
 1.1197069836487315e-01  1.1598107815816991e-01  1.2012243922734567e-01  1.2439824772914672e-01 
 1.2881200954652683e-01  1.3336726697628459e-01  1.3806759507288313e-01  1.4291659762519066e-01 
 1.4791790274123956e-01  1.5307515801435023e-01  1.5839202524214296e-01  1.6387217466799706e-01 
 1.6951927871251585e-01  1.7533700516045847e-01  1.8132900976646518e-01  1.8749892824077935e-01 
 1.9385036757404928e-01  2.0038689665826473e-01  2.0711203615898421e-01  2.1402924759232606e-01 
 2.2114192155877585e-01  2.2845336508484926e-01  2.3596678802309590e-01  2.4368528846098625e-01 
 2.5161183709001811e-01  2.5974926048803099e-01  2.6810022327040772e-01  2.7666720906970388e-01 
 2.8545250030846214e-01  2.9445815673666897e-01  3.0368599271373786e-01  3.1313755322503800e-01 
 3.2281408863518596e-01  3.3271652819447095e-01  3.4284545233107905e-01  3.5320106378020311e-01 
 3.6378315762161978e-01  3.7459109031977716e-01  3.8562374788465914e-01  3.9687951329738902e-01 
 4.0835623337126969e-01  4.2005118524623980e-01  4.3196104274186176e-01  4.4408184282019375e-01 
 4.5640895243430063e-01  4.6893703605971992e-01  4.8166002422375476e-01  4.9457108335983591e-01 
 5.0766258732016190e-01  5.2092609087802666e-01  5.3435230554076474e-01  5.4793107797382024e-01 
 5.6165137130555465e-01  5.7550124954047510e-01  5.8946786525580719e-01  6.0353745069327769e-01 
 6.1769531228604069e-01  6.3192582858201884e-01  6.4621245144260397e-01  6.6053771031371677e-01 
 6.7488321928975381e-01  6.8922968662586559e-01  7.0355692630730482e-01  7.1784387126367089e-01 
 7.3206858782873008e-01  7.4620829110085984e-01  7.6023936096238143e-01  7.7413735867388589e-01 
 7.8787704417622439e-01  8.0143239450892045e-01  8.1477662408655271e-01  8.2788220795642742e-01 
 8.4072090957826318e-01  8.5326381509997407e-01  8.6548137652649471e-01  8.7734346655783135e-01 
 8.8881944816880920e-01  8.9987826217211353e-01  9.1048853600110202e-01  9.2061871672261864e-01 
 9.3023723079971132e-01  9.3931267233572424e-01  9.4781402042487517e-01  9.5571088481087729e-01 
 9.6297377734128065e-01  9.6957440475981294e-01  9.7548597629698253e-01  9.8068351743318394e-01 
 9.8514417928827902e-01  9.8884753153813965e-01  9.9177582579451851e-01  9.9391421623776555e-01 
 9.9525092517437097e-01  9.9577734327213518e-01  9.9548805760031800e-01  9.9438080525937467e-01 
 9.9245635617622707e-01  9.8971833525500164e-01  9.8617300102129191e-01  9.8182900451721722e-01 
 9.7669715768245957e-01  9.7079024388329005e-01  9.6412290370229303e-01  9.5671162574705226e-01 
 9.4857486447878825e-01  9.3973329468529987e-01  9.3021019553761808e-01  9.2003193713705700e-01 
 9.0922852075853622e-01  8.9783410301377353e-01  8.8588741686759220e-01  8.7343199215205158e-01 
 8.6051607819823484e-01  8.4719218415142106e-01  8.3351618001715755e-01  8.1954594332857955e-01 
 8.0533959010412204e-01  7.9095338950345151e-01  7.7643952179760434e-01  7.6184388943057579e-01 
 7.4720422053344815e-01  7.3254870324432897e-01  7.1789535003046401e-01  7.0325221091945422e-01 
 6.8861843664845424e-01  6.7398604855760069e-01  6.5934212086932797e-01  6.4467094864107555e-01 
 6.2996145010169358e-01  6.1522512159931808e-01  6.0047876194094285e-01  5.8573869164922188e-01 
 5.7102074338862641e-01  5.5634025373075802e-01  5.4171205619360652e-01  5.2715047548919491e-01 
 5.1266932291407852e-01  4.9828189281762691e-01  4.8400096008390109e-01  4.6983877856407974e-01 
 4.5580708039777551e-01  4.4191707616303866e-01  4.2817945579628341e-01  4.1460439022467582e-01 
 4.0120153365456457e-01  3.8798002646022539e-01  3.7494849861742680e-01  3.6211507362608536e-01 
 3.4948737286551806e-01  3.3707252032461105e-01  3.2487714764771042e-01  3.1290739943543033e-01 
 3.0116893873820200e-01  2.8966695267966314e-01  2.7840615814746933e-01  2.6739080749139787e-01 
 2.5662469417339900e-01  2.4611115832216560e-01  2.3585309215644990e-01  2.2585294525712235e-01 
 2.1611272968798279e-01  2.0663402498932984e-01  1.9741798309556449e-01  1.8846533325742112e-01 
 1.7977638707913238e-01  1.7135104380883928e-01  1.6318879604458095e-01  1.5528873603591128e-01 
 1.4764956277050714e-01  1.4026959003446132e-01  1.3314675562338624e-01  1.2627863185891780e-01 
 1.1966243753252340e-01  1.1329505135730074e-01  1.0717302696100905e-01  1.0129260940261585e-01 
 9.5649753143096858e-02  9.0240141351908137e-02  8.5059206386005573e-02  8.0102151240580052e-02 
 7.5363971741333677e-02  7.0839479228068061e-02  6.6523323468967083e-02  6.2410015544104247e-02 
 5.8493950444844386e-02  5.4769429152066965e-02  5.1230679979384984e-02  4.7871878996458554e-02 
 4.4687169380663291e-02  4.1670679581246858e-02  3.8816540217129547e-02  3.6118899666121487e-02 
 3.3571938338056648e-02  3.1169881655817262e-02  2.8907011795290202e-02  2.6777678257059637e-02 
 2.4776307358530977e-02  2.2897410744983734e-02  2.1135593021917639e-02  1.9485558609477680e-02 
 1.7942117913500970e-02  1.6500192897807894e-02  1.5154822129871712e-02  1.3901165358073246e-02 
 1.2734507664449111e-02  1.1650263223105124e-02  1.0643978682041755e-02  9.7113361755682606e-03 
 8.8481559660965898e-03  8.0503987080420870e-03  7.3141673227816910e-03  6.6357084719680937e-03 
 6.0114136167126915e-03  5.4378196519146724e-03  4.9116091079893934e-03  4.4296099160961418e-03 
 3.9887947373656394e-03  3.5862798612964347e-03  3.2193236831837141e-03  2.8853247749657828e-03 
 2.5818195680682660e-03  2.3064796705813432e-03  2.0571088443451556e-03  1.8316396701992914e-03 
 1.6281299317562452e-03  1.4447587495902076e-03  1.2798224987114811e-03  1.1317305426560228e-03 
 9.9900081750009160e-04  8.8025529865843645e-04  7.7421538249066986e-04  6.7969721357534767e-04 
 5.9560698706544320e-04  5.2093625386149362e-04  4.5475725447660501e-04  3.9621830546479836e-04 
 3.4453926018175102e-04  2.9900706348226795e-04  2.5897141776577205e-04  2.2384057559011452e-04 
 1.9307727191198885e-04  1.6619480690265419e-04  1.4275328825076741e-04  1.2235603991692139e-04 
 1.0464618246108093e-04  8.9303388335765991e-05  7.6040813933211585e-05  6.4602208700027138e-05 
 5.4759200292083614e-05  4.6308753537367125e-05  3.9070799905433568e-05  3.2886033247275596e-05 
 2.7613866765803965e-05  2.3130545500405074e-05  1.9327408053719825e-05  1.6109290848540799e-05 
 1.3393067870442509e-05  1.1106318619768176e-05  9.1861168567986633e-06  7.5779326679565085e-06 
 6.2346404002444389e-06  5.1156250972672377e-06  4.1859802147247754e-06  3.4157895879800777e-06 
 2.7794868612797563e-06  2.2552858598806240e-06  1.8246756855901603e-06  1.4719746364133414e-06 
 1.1839373859838730e-06  9.4941020265771221e-07  7.5902933653320328e-07  6.0495805077203708e-07 
 4.8065811752639796e-07  3.8069193517741442e-07  3.0055174963610403e-07  2.3651277583370247e-07 
 1.8550731439249251e-07  1.4501724142167569e-07  1.1298251543079070e-07  8.7723593866951606e-08 
 6.7875882458971288e-08  5.2334553374154925e-08  4.0208263391163209e-08  3.0780481301300961e-08 
 2.3477295178056696e-08  1.7840715743924757e-08  1.3506622661729260e-08  1.0186617106800064e-08 
 7.6531474068535104e-09  5.7273658639536996e-09  4.2692550982457107e-09  3.1696323650444490e-09 
 2.3437012579606639e-09  1.7258730211655874e-09  1.2656254428717708e-09  9.2420311585954405e-10 
 6.7200314599685428e-10  4.8651057812294336e-10  3.5067556906532384e-10  2.5164354236066498e-10 
 1.7976602453803479e-10  1.2783363525494159e-10  9.0484082285181009e-11  6.3747364742281654e-11 
 4.4698034832163530e-11  3.1190588135225820e-11  2.1659084634282085e-11  1.4966152549347918e-11 
 1.0289768871769355e-11  7.0387915499892881e-12  4.7902621013923734e-12  3.2431069835048026e-12 
 2.1841266380321073e-12  1.4631429045529192e-12  9.7493587265212652e-13  6.4618682759937436e-13 
 4.2609239272159036e-13  2.7965649583370869e-13  1.8292550068677333e-13  0.0000000000000000e+00 
 0.0000000000000000e+00  0.0000000000000000e+00  0.0000000000000000e+00  0.0000000000000000e+00 
 0.0000000000000000e+00  0.0000000000000000e+00  0.0000000000000000e+00  0.0000000000000000e+00 
 0.0000000000000000e+00  0.0000000000000000e+00  0.0000000000000000e+00  0.0000000000000000e+00 
 0.0000000000000000e+00  0.0000000000000000e+00  0.0000000000000000e+00  0.0000000000000000e+00 
 0.0000000000000000e+00  0.0000000000000000e+00  0.0000000000000000e+00  0.0000000000000000e+00 
 0.0000000000000000e+00  0.0000000000000000e+00  0.0000000000000000e+00  0.0000000000000000e+00 
 0.0000000000000000e+00  0.0000000000000000e+00  0.0000000000000000e+00  0.0000000000000000e+00 
 0.0000000000000000e+00  0.0000000000000000e+00  0.0000000000000000e+00  0.0000000000000000e+00 
 0.0000000000000000e+00  0.0000000000000000e+00  0.0000000000000000e+00  0.0000000000000000e+00 
 0.0000000000000000e+00  0.0000000000000000e+00  0.0000000000000000e+00  0.0000000000000000e+00 
 0.0000000000000000e+00  0.0000000000000000e+00  0.0000000000000000e+00  0.0000000000000000e+00 
 0.0000000000000000e+00  0.0000000000000000e+00  0.0000000000000000e+00  0.0000000000000000e+00 
 0.0000000000000000e+00  0.0000000000000000e+00  0.0000000000000000e+00  0.0000000000000000e+00 
 0.0000000000000000e+00  0.0000000000000000e+00  0.0000000000000000e+00  0.0000000000000000e+00 
 0.0000000000000000e+00  0.0000000000000000e+00  0.0000000000000000e+00  0.0000000000000000e+00 
 0.0000000000000000e+00  0.0000000000000000e+00  0.0000000000000000e+00  0.0000000000000000e+00 
 0.0000000000000000e+00  0.0000000000000000e+00  0.0000000000000000e+00  0.0000000000000000e+00 
 0.0000000000000000e+00  0.0000000000000000e+00  0.0000000000000000e+00  0.0000000000000000e+00 
 0.0000000000000000e+00  0.0000000000000000e+00  0.0000000000000000e+00  0.0000000000000000e+00 
 0.0000000000000000e+00  0.0000000000000000e+00  0.0000000000000000e+00  0.0000000000000000e+00 
 0.0000000000000000e+00  0.0000000000000000e+00  0.0000000000000000e+00  0.0000000000000000e+00 
 0.0000000000000000e+00  0.0000000000000000e+00  0.0000000000000000e+00  0.0000000000000000e+00 
 0.0000000000000000e+00  0.0000000000000000e+00  0.0000000000000000e+00  0.0000000000000000e+00 
 0.0000000000000000e+00  0.0000000000000000e+00  0.0000000000000000e+00  0.0000000000000000e+00 
 0.0000000000000000e+00  0.0000000000000000e+00  0.0000000000000000e+00  0.0000000000000000e+00 
 0.0000000000000000e+00  0.0000000000000000e+00  0.0000000000000000e+00  0.0000000000000000e+00 
 0.0000000000000000e+00  0.0000000000000000e+00  0.0000000000000000e+00  0.0000000000000000e+00 
 0.0000000000000000e+00  0.0000000000000000e+00  0.0000000000000000e+00  0.0000000000000000e+00 
 0.0000000000000000e+00  0.0000000000000000e+00  0.0000000000000000e+00  0.0000000000000000e+00 
 0.0000000000000000e+00  0.0000000000000000e+00  0.0000000000000000e+00  0.0000000000000000e+00 
 0.0000000000000000e+00  0.0000000000000000e+00  0.0000000000000000e+00  0.0000000000000000e+00 
 0.0000000000000000e+00  0.0000000000000000e+00  0.0000000000000000e+00  0.0000000000000000e+00 
 0.0000000000000000e+00  0.0000000000000000e+00  0.0000000000000000e+00  0.0000000000000000e+00 
 0.0000000000000000e+00 
</PP_PSWFC>


<PP_RHOATOM>
 7.1139616359791175e-11  7.3013501327964240e-11  7.4936746203487397e-11  7.6910651173134825e-11 
 7.8936550671832823e-11  8.1015814284789686e-11  8.3149847673386916e-11  8.5340093525459771e-11 
 8.7588032530609188e-11  8.9895184381204938e-11  9.2263108799754274e-11  9.4693406593335296e-11 
 9.7187720735801962e-11  9.9747737478498106e-11  1.0237518749022692e-10  1.0507184702724953e-10 
 1.0783953913410079e-10  1.1068013487603815e-10  1.1359555460395198e-10  1.1658776925259646e-10 
 1.1965880167301617e-10  1.2281072800007038e-10  1.2604567905597982e-10  1.2936584179084284e-10 
 1.3277346076109736e-10  1.3627083964692698e-10  1.3986034280963531e-10  1.4354439689004461e-10 
 1.4732549244899853e-10  1.5120618565107430e-10  1.5518909999264836e-10  1.5927692807547979e-10 
 1.6347243342701106e-10  1.6777845236861851e-10  1.7219789593307218e-10  1.7673375183250685e-10 
 1.8138908647822711e-10  1.8616704705372010e-10  1.9107086364226920e-10  1.9610385141061528e-10 
 2.0126941285013412e-10  2.0657104007705099e-10  2.1201231719324432e-10  2.1759692270923355e-10 
 2.2332863203099392e-10  2.2921132001227359e-10  2.3524896357414321e-10  2.4144564439354402e-10 
 2.4780555166265973e-10  2.5433298492096703e-10  2.6103235696188989e-10  2.6790819681601453e-10 
 2.7496515281288706e-10  2.8220799572346174e-10  2.8964162198532293e-10  2.9727105701286285e-10 
 3.0510145859465349e-10  3.1313812038030980e-10  3.2138647545919373e-10  3.2985210003339395e-10 
 3.3854071718744825e-10  3.4745820075736745e-10  3.5661057930157074e-10  3.6600404017642272e-10 
 3.7564493371911937e-10  3.8553977754075931e-10  3.9569526093249628e-10  4.0611824938775343e-10 
 4.1681578924356171e-10  4.2779511244414608e-10  4.3906364143000018e-10  4.5062899415573505e-10 
 4.6249898924010940e-10  4.7468165125170890e-10  4.8718521613386458e-10  5.0001813677246014e-10 
 5.1318908871040675e-10  5.2670697601263813e-10  5.4058093728560047e-10  5.5482035185529204e-10 
 5.6943484610804983e-10  5.8443429999835065e-10  5.9982885372803605e-10  6.1562891460147431e-10 
 6.3184516406129591e-10  6.4848856490945063e-10  6.6557036871848310e-10  6.8310212343801934e-10 
 7.0109568120162561e-10  7.1956320633929666e-10  7.3851718360100238e-10  7.5797042659686437e-10 
 7.7793608645963044e-10  7.9842766073535087e-10  8.1945900250822397e-10  8.4104432976581708e-10 
 8.6319823501095701e-10  8.8593569512682074e-10  9.0927208150187789e-10  9.3322317042153607e-10 
 9.5780515373350382e-10  9.8303464979409644e-10  1.0089287147028787e-09  1.0355048538332376e-09 
 1.0627810336666697e-09  1.0907756939388211e-09  1.1195077601054336e-09  1.1489966561366814e-09 
 1.1792623176485072e-09  1.2103252053798636e-09  1.2422063190249385e-09  1.2749272114297563e-09 
 1.3085100031627084e-09  1.3429773974689132e-09  1.3783526956184557e-09  1.4146598126589383e-09 
 1.4519232935829635e-09  1.4901683299214743e-09  1.5294207767741874e-09  1.5697071702886242e-09 
 1.6110547455995489e-09  1.6534914552409546e-09  1.6970459880430422e-09  1.7417477885269439e-09 
 1.7876270768103525e-09  1.8347148690374603e-09  1.8830429983470411e-09  1.9326441363928733e-09 
 1.9835518154310039e-09  2.0358004509888296e-09  2.0894253651313032e-09  2.1444628103399751e-09 
 2.2009499940210603e-09  2.2589251036590420e-09  2.3184273326328585e-09  2.3794969067121233e-09 
 2.4421751112512586e-09  2.5065043190999479e-09  2.5725280192488252e-09  2.6402908462296264e-09 
 2.7098386102898615e-09  2.7812183283622691e-09  2.8544782558500150e-09  2.9296679192492084e-09 
 3.0068381496306562e-09  3.0860411170036138e-09  3.1673303655846541e-09  3.2507608499956130e-09 
 3.3363889724149729e-09  3.4242726207078618e-09  3.5144712075604653e-09  3.6070457106452017e-09 
 3.7020587138439680e-09  3.7995744495571954e-09  3.8996588421273712e-09  4.0023795524063994e-09 
 4.1078060234968450e-09  4.2160095276981594e-09  4.3270632146893801e-09  4.4410421609811015e-09 
 4.5580234206700294e-09  4.6780860775304128e-09  4.8013112984777331e-09  4.9277823884404997e-09 
 5.0575848466776007e-09  5.1908064245789534e-09  5.3275371849887981e-09  5.4678695630915414e-09 
 5.6118984289014027e-09  5.7597211513981466e-09  5.9114376643521483e-09  6.0671505338833600e-09 
 6.2269650277998965e-09  6.3909891867629999e-09  6.5593338973265754e-09  6.7321129669006630e-09 
 6.9094432006895608e-09  7.0914444806564003e-09  7.2782398465680014e-09  7.4699555791742151e-09 
 7.6667212855785268e-09  7.8686699868572911e-09  8.0759382079869044e-09  8.2886660701398288e-09 
 8.5069973854117655e-09  8.7310797540439391e-09  8.9610646642064034e-09  9.1971075944096743e-09 
 9.4393681186140148e-09  9.6880100141073556e-09  9.9432013722248597e-09  1.0205114711984920e-08 
 1.0473927096718354e-08  1.0749820253769919e-08  1.1032980697352665e-08  1.1323599854638440e-08 
 1.1621874195169837e-08  1.1928005363680807e-08  1.2242200316416027e-08  1.2564671461040888e-08 
 1.2895636800237050e-08  1.3235320079080207e-08  1.3583950936300046e-08  1.3941765059524522e-08 
 1.4309004344613368e-08  1.4685917059188550e-08  1.5072758010472352e-08  1.5469788717546469e-08 
 1.5877277588148354e-08  1.6295500100124914e-08  1.6724738987665412e-08  1.7165284432440230e-08 
 1.7617434259774276e-08  1.8081494139987815e-08  1.8557777795040637e-08  1.9046607210619691e-08 
 1.9548312853812977e-08  2.0063233896517364e-08  2.0591718444731221e-08  2.1134123773886450e-08 
 2.1690816570379814e-08  2.2262173179466148e-08  2.2848579859681233e-08  2.3450433043966715e-08 
 2.4068139607672771e-08  2.4702117143620669e-08  2.5352794244410453e-08  2.6020610792164830e-08 
 2.6706018255905283e-08  2.7409479996761365e-08  2.8131471581218984e-08  2.8872481102620682e-08 
 2.9633009511133850e-08  3.0413570952410714e-08  3.1214693115169293e-08  3.2036917587929236e-08 
 3.2880800225145120e-08  3.3746911522983267e-08  3.4635837004997300e-08  3.5548177617962755e-08 
 3.6484550138137747e-08  3.7445587588225399e-08  3.8431939665319187e-08  3.9444273180120673e-08 
 4.0483272507726610e-08  4.1549640050290168e-08  4.2644096711868689e-08  4.3767382385779998e-08 
 4.4920256454795094e-08  4.6103498304507272e-08  4.7317907850222828e-08  4.8564306077731356e-08 
 4.9843535598319371e-08  5.1156461218404332e-08  5.2503970524172729e-08  5.3886974481617557e-08 
 5.5306408052382400e-08  5.6763230825825940e-08  5.8258427667736261e-08  5.9793009386132811e-08 
 6.1368013414604924e-08  6.2984504513652034e-08  6.4643575490495246e-08  6.6346347937851283e-08 
 6.8093972992164332e-08  6.9887632111811948e-08  7.1728537875808372e-08  7.3617934803546358e-08 
 7.5557100196131390e-08  7.7547344999877822e-08  7.9590014692548919e-08  8.1686490192942232e-08 
 8.3838188794432499e-08  8.6046565123106286e-08  8.8313112121132713e-08  9.0639362056038546e-08 
 9.3026887556566004e-08  9.5477302675817862e-08  9.7992263982403777e-08  1.0057347168033118e-07 
 1.0322267075839127e-07  1.0594165216982315e-07  1.0873225404304810e-07  1.1159636292429905e-07 
 1.1453591505297664e-07  1.1755289767060324e-07  1.2064935036425208e-07  1.2382736644536420e-07 
 1.2708909436488427e-07  1.3043673916567112e-07  1.3387256397316481e-07  1.3739889152531933e-07 
 1.4101810574283398e-07  1.4473265334074440e-07  1.4854504548246437e-07  1.5245785947739531e-07 
 1.5647374052324948e-07  1.6059540349427016e-07  1.6482563477655045e-07  1.6916729415169587e-07 
 1.7362331673010354e-07  1.7819671493516377e-07  1.8289058053972575e-07  1.8770808675620422e-07 
 1.9265249038173959e-07  1.9772713399986137e-07  2.0293544824014490e-07  2.0828095409738592e-07 
 2.1376726531186289e-07  2.1939809081229560e-07  2.2517723722315106e-07  2.3110861143799086e-07 
 2.3719622326060318e-07  2.4344418811569598e-07  2.4985672983099796e-07  2.5643818349263109e-07 
 2.6319299837569827e-07  2.7012574095206075e-07  2.7724109797733946e-07  2.8454387965922755e-07 
 2.9203902290925240e-07  2.9973159468019351e-07  3.0762679539140284e-07  3.1572996244434454e-07 
 3.2404657383073884e-07  3.3258225183573759e-07  3.4134276683864058e-07  3.5033404121372074e-07 
 3.5956215333379610e-07  3.6903334167925209e-07  3.7875400905529051e-07  3.8873072692026429e-07 
 3.9897023982800917e-07  4.0947946998718891e-07  4.2026552194072786e-07  4.3133568736849297e-07 
 4.4269745001648006e-07  4.5435849075582489e-07  4.6632669277506060e-07  4.7861014690914748e-07 
 4.9121715710884430e-07  5.0415624605415100e-07  5.1743616091559741e-07  5.3106587926727488e-07 
 5.4505461515561286e-07  5.5941182532799732e-07  5.7414721562544129e-07  5.8927074754362860e-07 
 6.0479264496676594e-07  6.2072340107879600e-07  6.3707378545663503e-07  6.5385485135023723e-07 
 6.7107794315440431e-07  6.8875470407738153e-07  7.0689708401143989e-07  7.2551734761074666e-07 
 7.4462808258198696e-07  7.6424220819335362e-07  7.8437298400763664e-07  8.0503401884531990e-07 
 8.2623927998375507e-07  8.4800310259860358e-07  8.7034019945396093e-07  8.9326567084767581e-07 
 9.1679501481861570e-07  9.4094413762274898e-07  9.6572936448515795e-07  9.9116745063520781e-07 
 1.0172755926323590e-06  1.0440714399902628e-06  1.0715731071069968e-06  1.0997991855095133e-06 
 1.1287687564205481e-06  1.1585014036565148e-06  1.1890172268650582e-06  1.2203368551112821e-06 
 1.2524814608217305e-06  1.2854727740956401e-06  1.3193330973930761e-06  1.3540853206098984e-06 
 1.3897529365497396e-06  1.4263600568034393e-06  1.4639314280466958e-06  1.5024924487668864e-06 
 1.5420691864304406e-06  1.5826883951022816e-06  1.6243775335292990e-06  1.6671647837000413e-06 
 1.7110790698931943e-06  1.7561500782276644e-06  1.8024082767275444e-06  1.8498849359154539e-06 
 1.8986121499482068e-06  1.9486228583090781e-06  1.9999508680713117e-06  2.0526308767479214e-06 
 2.1066984957432094e-06  2.1621902744218710e-06  2.2191437248119322e-06  2.2775973469581805e-06 
 2.3375906549432729e-06  2.3991642035940324e-06  2.4623596158910775e-06  2.5272196111001521e-06 
 2.5937880336443081e-06  2.6621098827363456e-06  2.7322313427915746e-06  2.8041998146414273e-06 
 2.8780639475690281e-06  2.9538736721883246e-06  3.0316802341889987e-06  3.1115362289700275e-06 
 3.1934956371851565e-06  3.2776138612244264e-06  3.3639477626563145e-06  3.4525557006558157e-06 
 3.5434975714444312e-06  3.6368348487686988e-06  3.7326306254445975e-06  3.8309496559959069e-06 
 3.9318584004153886e-06  4.0354250690781741e-06  4.1417196688379420e-06  4.2508140503368209e-06 
 4.3627819565611612e-06  4.4776990726758005e-06  4.5956430771706534e-06  4.7166936943540897e-06 
 4.8409327482286281e-06  4.9684442177853151e-06  5.0993142937541809e-06  5.2336314368491093e-06 
 5.3714864375465048e-06  5.5129724774381257e-06  5.6581851921996346e-06  5.8072227362173372e-06 
 5.9601858489168636e-06  6.1171779228385946e-06  6.2783050735059241e-06  6.4436762111335610e-06 
 6.6134031142243504e-06  6.7876005051044075e-06  6.9663861274477332e-06  7.1498808258426582e-06 
 7.3382086274539372e-06  7.5314968258359856e-06  7.7298760669534937e-06  7.9334804374684224e-06 
 8.1424475553522615e-06  8.3569186628856760e-06  8.5770387221080254e-06  8.8029565127816844e-06 
 9.0348247329375204e-06  9.2728001020695390e-06  9.5170434670489220e-06  9.7677199108288278e-06 
 1.0024998864014422e-05  1.0289054219373070e-05  1.0560064449362946e-05  1.0838212726759742e-05 
 1.1123687048463266e-05  1.1416680362568332e-05  1.1717390698786127e-05  1.2026021302304899e-05 
 1.2342780771180998e-05  1.2667883197353845e-05  1.3001548311381014e-05  1.3344001630991831e-05 
 1.3695474613561065e-05  1.4056204812606750e-05  1.4426436038418865e-05  1.4806418522929004e-05 
 1.5196409088933349e-05  1.5596671323785242e-05  1.6007475757676291e-05  1.6429100046628054e-05 
 1.6861829160320160e-05  1.7305955574883942e-05  1.7761779470794220e-05  1.8229608935995430e-05 
 1.8709760174402487e-05  1.9202557719920014e-05  1.9708334656128067e-05  2.0227432841786991e-05 
 2.0760203142316788e-05  2.1307005667412775e-05  2.1868210014962555e-05  2.2444195521434218e-05 
 2.3035351518910712e-05  2.3642077598950653e-05  2.4264783883460265e-05  2.4903891302766620e-05 
 2.5559831881089151e-05  2.6233049029609848e-05  2.6923997847350442e-05  2.7633145430070209e-05 
 2.8360971187403853e-05  2.9107967168467094e-05  2.9874638396162091e-05  3.0661503210423942e-05 
 3.1469093620655736e-05  3.2297955667607427e-05  3.3148649794961811e-05  3.4021751230898592e-05 
 3.4917850379917014e-05  3.5837553225205171e-05  3.6781481741853947e-05  3.7750274321223305e-05 
 3.8744586206778222e-05  3.9765089941721005e-05  4.0812475828761296e-05  4.1887452402369751e-05 
 4.2990746913880341e-05  4.4123105829813511e-05  4.5285295343807710e-05  4.6478101902558939e-05 
 4.7702332746183185e-05  4.8958816463430828e-05  5.0248403562196299e-05  5.1571967055786691e-05 
 5.2930403065423082e-05  5.4324631439473127e-05  5.5755596389928129e-05  5.7224267146658683e-05 
 5.8731638630003586e-05  6.0278732142269040e-05  6.1866596078737171e-05  6.3496306658808146e-05 
 6.5168968677926294e-05  6.6885716280964548e-05  6.8647713757775210e-05  7.0456156361639407e-05 
 7.2312271151385546e-05  7.4217317857975778e-05  7.6172589776398551e-05  7.8179414683741824e-05 
 8.0239155784362138e-05  8.2353212683109584e-05  8.4523022387608454e-05  8.6750060340650724e-05 
 8.9035841483799962e-05  9.1381921353369356e-05  9.3789897209985363e-05  9.6261409203018738e-05 
 9.8798141571225105e-05  1.0140182388101024e-04  1.0407423230381246e-04  1.0681719093416882e-04 
 1.0963257315012393e-04  1.1252230301772814e-04  1.1548835674147173e-04  1.1853276416260353e-04 
 1.2165761030740018e-04  1.2486503698756499e-04  1.2815724445506960e-04  1.3153649311388823e-04 
 1.3500510529121810e-04  1.3856546707094420e-04  1.4222003019226869e-04  1.4597131401661653e-04 
 1.4982190756611386e-04  1.5377447163715362e-04  1.5783174099278470e-04  1.6199652663790077e-04 
 1.6627171818147315e-04  1.7066028629033470e-04  1.7516528523934559e-04  1.7978985556307007e-04 
 1.8453722681445716e-04  1.8941072043638900e-04  1.9441375275235142e-04  1.9954983808292924e-04 
 2.0482259199528248e-04  2.1023573469326594e-04  2.1579309455639035e-04  2.2149861183640658e-04 
 2.2735634252092174e-04  2.3337046237411669e-04  2.3954527116538504e-04  2.4588519709745998e-04 
 2.5239480144647795e-04  2.5907878342729313e-04  2.6594198529837886e-04  2.7298939772165857e-04 
 2.8022616539379177e-04  2.8765759296662787e-04  2.9528915127588116e-04  3.0312648389850034e-04 
 3.1117541406073049e-04  3.1944195192053898e-04  3.2793230224983759e-04  3.3665287254387857e-04 
 3.4561028158726321e-04  3.5481136850824287e-04  3.6426320235540178e-04  3.7397309223343226e-04 
 3.8394859803747995e-04  3.9419754182861056e-04  4.0472801989617236e-04  4.1554841555638055e-04 
 4.2666741274023071e-04  4.3809401042794560e-04  4.4983753799157579e-04  4.6190767151215101e-04 
 4.7431445114290123e-04  4.8706829959561053e-04  5.0018004183315372e-04  5.1366092605769622e-04 
 5.2752264609099635e-04  5.4177736525074503e-04  5.5643774183495415e-04  5.7151695633510886e-04 
 5.8702874050823878e-04  6.0298740844813255e-04  6.1940788980688799e-04  6.3630576532976580e-04 
 6.5369730487897023e-04  6.7159950813571725e-04  6.9003014818466452e-04  7.0900781820069426e-04 
 7.2855198147516386e-04  7.4868302503721415e-04  7.6942231714563947e-04  7.9079226894821495e-04 
 8.1281640062853063e-04  8.3551941238525361e-04  8.5892726061550921e-04  8.8306723970303213e-04 
 9.0796806984271298e-04  9.3365999136678769e-04  9.6017486607388302e-04  9.8754628610094866e-04 
 1.0158096909199975e-03  1.0450024930864052e-03  1.0751642134140687e-03  1.1063366263047193e-03 
 1.1385639160147508e-03  1.1718928447032638e-03  1.2063729331697672e-03  1.2420566552597925e-03 
 1.2789996469916498e-03  1.3172609315381088e-03  1.3569031612834055e-03  1.3979928782691742e-03 
 1.4406007944428342e-03  1.4848020932294148e-03  1.5306767540632191e-03  1.5783099016396223e-03 
 1.6277921817803001e-03  1.6792201659478684e-03  1.7326967865991792e-03  1.7883318057306751e-03 
 1.8462423191454712e-03  1.9065532991606408e-03  1.9693981786758118e-03  2.0349194797403525e-03 
 2.1032694899903934e-03  2.1746109905732094e-03  2.2491180394452991e-03  2.3269768142139113e-03 
 2.4083865189962281e-03  2.4935603600984377e-03  2.5827265956617947e-03  2.6761296647988234e-03 
 2.7740314021359172e-03  2.8767123441066082e-03  2.9844731337902056e-03  3.0976360315722274e-03 
 3.2165465394201885e-03  3.3415751471134259e-03  3.4731192093504634e-03  3.6116049632778455e-03 
 3.7574896966432818e-03  3.9112640774807122e-03  4.0734546569742222e-03  4.2446265579446901e-03 
 4.4253863622372418e-03  4.6163852111772066e-03  4.8183221342037817e-03  5.0319476217865634e-03 
 5.2580674597792242e-03  5.4975468434803627e-03  5.7513147908405809e-03  6.0203688754915802e-03 
 6.3057803015747300e-03  6.6086993437142047e-03  6.9303611769157784e-03  7.2720921226838630e-03 
 7.6353163392235430e-03  8.0215629852506895e-03  8.4324738886593920e-03  8.8698117530931000e-03 
 9.3354689373417767e-03  9.8314768444377164e-03  1.0360015959336923e-02  1.0923426576167416e-02 
 1.1524220258183896e-02  1.2165092075793920e-02  1.2848933670294818e-02  1.3578847193317110e-02 
 1.4358160174342750e-02  1.5190441371107154e-02  1.6079517660146092e-02  1.7029492027252170e-02 
 1.8044762720068112e-02  1.9130043627569662e-02  2.0290385953636043e-02  2.1531201254341163e-02 
 2.2858285910978150e-02  2.4277847113115557e-02  2.5796530428152484e-02  2.7421449035907812e-02 
 2.9160214708626456e-02  3.1020970618483346e-02  3.3012426056045006e-02  3.5143893144335032e-02 
 3.7425325633914909e-02  3.9867359864798481e-02  4.2481357980999085e-02  4.5279453482926724e-02 
 4.8274599201757230e-02  5.1480617778065972e-02  5.4912254724500578e-02  5.8585234148926760e-02 
 6.2516317210156783e-02  6.6723363373048669e-02  7.1225394523282026e-02  7.6042661994355387e-02 
 8.1196716550124795e-02  8.6710481355449828e-02  9.2608327955016112e-02  9.8916155265950101e-02 
 1.0566147157324288e-01  1.1287347949819640e-01  1.2058316388855453e-01  1.2882338255475176e-01 
 1.3762895974924819e-01  1.4703678225520919e-01  1.5708589791619287e-01  1.6781761639991699e-01 
 1.7927561194609387e-01  1.9150602780042403e-01  2.0455758198351351e-01  2.1848167398453305e-01 
 2.3333249190416222e-01  2.4916711949931941e-01  2.6604564250295454e-01  2.8403125350503039e-01 
 3.0319035458547827e-01  3.2359265678565519e-01  3.4531127539126727e-01  3.6842281987651360e-01 
 3.9300747722583246e-01  4.1914908720600735e-01  4.4693520800734982e-01  4.7645717050838876e-01 
 5.0781011924416319e-01  5.4109303797467290e-01  5.7640875755806265e-01  6.1386394363422259e-01 
 6.5356906142059157e-01  6.9563831471539361e-01  7.4018955599758485e-01  7.8734416431113063e-01 
 8.3722688742860185e-01  8.8996564461075267e-01  9.4569128612153464e-01  1.0045373055282873e+00 
 1.0666395007240312e+00  1.1321355795607695e+00  1.2011647059899344e+00  1.2738669826788227e+00 
 1.3503828662208317e+00  1.4308525112934030e+00  1.5154150404514384e+00  1.6042077366854526e+00 
 1.6973651564312155e+00  1.7950181613979461e+00  1.8972928683888626e+00  2.0043095172217256e+00 
 2.1161812579140018e+00  2.2330128594688130e+00  2.3548993438691910e+00  2.4819245502388294e+00 
 2.6141596355304864e+00  2.7516615195234251e+00  2.8944712833108919e+00  3.0426125317901045e+00 
 3.1960897318837671e+00  3.3548865392718334e+00  3.5189641272482399e+00  3.6882595318951328e+00 
 3.8626840280545172e+00  4.0421215505559926e+00  4.2264271748318682e+00  4.4154256704459742e+00 
 4.6089101402404760e+00  4.8066407568599088e+00  5.0083436074778165e+00  5.2137096567981622e+00 
 5.4223938380367844e+00  5.6340142818381977e+00  5.8481516941970151e+00  6.0643488966702188e+00 
 6.2821105457029338e+00  6.5009030528998757e+00  6.7201547346224819e+00  6.9392562273120078e+00 
 7.1575612141981448e+00  7.3743875191141894e+00  7.5890186333337128e+00  7.8007057507542816e+00 
 8.0086703942197506e+00  8.2121077199183325e+00  8.4101905860876371e+00  8.6020744651126240e+00 
 8.7869032630076145e+00  8.9638160859737326e+00  9.1319549594211491e+00  9.2904734604342281e+00 
 9.4385461709406702e+00  9.5753787977435270e+00  9.7002187402670987e+00  9.8123658218302268e+00 
 9.9111828411868039e+00  9.9961055546030373e+00  1.0066651672018478e+01  1.0122428450857100e+01 
 1.0163138503841502e+01  1.0188583506820930e+01  1.0198665600340805e+01  1.0193386421805689e+01 
 1.0172843876404285e+01  1.0137226942332907e+01  1.0086808992345725e+01  1.0021940278334595e+01 
 9.9430403450471250e+00  9.8505911894731710e+00  9.7451319428390946e+00  9.6272557076760261e+00 
 9.4976089280525873e+00  9.3568933150763289e+00  9.2058699163840512e+00  9.0453644487392406e+00 
 8.8762725639112645e+00  8.6995633580873726e+00  8.5162792366016724e+00  8.3275302749244577e+00 
 8.1344815213333952e+00  7.9383322834074104e+00  7.7402873056060129e+00  7.5415208089159620e+00 
 7.3431355116241166e+00  7.1461198331483207e+00  6.9513073316853520e+00  6.7593428741272765e+00 
 6.5706599413821074e+00  6.3854727408392602e+00  6.2037854082193240e+00  6.0254186023932963e+00 
 5.8500514045549297e+00  5.6772739163397343e+00  5.5066437017297325e+00  5.3377563522582072e+00 
 5.1703989285963550e+00  5.0046834934513829e+00  4.8407845256304700e+00  4.6788633720711665e+00 
 4.5190688021714722e+00  4.3615375729368964e+00  4.2063949986575775e+00  4.0537555193515358e+00 
 3.9037232627461460e+00  3.7563925951148249e+00  3.6118486568346047e+00  3.4701678790757615e+00 
 3.3314184785729895e+00  3.1956609279525883e+00  3.0629483995979592e+00  2.9333271815220812e+00 
 2.8068370641773095e+00  2.6835116975670354e+00  2.5633789184284814e+00  2.4464610476304141e+00 
 2.3327751582732339e+00  2.2223333152932430e+00  2.1151427876594182e+00  2.0112062345130197e+00 
 1.9105218668416968e+00  1.8130835865051309e+00  1.7188811046435393e+00  1.6279000417085205e+00 
 1.5401220115614986e+00  1.4555246922904850e+00  1.3740818866007345e+00  1.2957635748348060e+00 
 1.2205359638645001e+00  1.1483615352583916e+00  1.0791990962473148e+00  1.0130038370659964e+00 
 9.4972739822048680e-01  8.8931795109711853e-01  8.3172029507233280e-01  7.7687597389320007e-01 
 7.2472341357433911e-01  6.7519808340760323e-01  6.2823268092720630e-01  5.8375734084612452e-01 
 5.4169986711935736e-01  5.0198598644032077e-01  4.6453962068368182e-01  4.2928317511337194e-01 
 3.9613783861355117e-01  3.6502389179847761e-01  3.3586101862898504e-01  3.0856861711151323e-01 
 2.8306610477260846e-01  2.5927321487073396e-01  2.3711027970442133e-01  2.1649849787306763e-01 
 1.9736018291358676e-01  1.7961899134199247e-01  1.6320012874455375e-01  1.4803053316183040e-01 
 1.3403903556763938e-01  1.2115649774495484e-01  1.0931592828762646e-01  9.8452577801012034e-02 
 8.8504014631447206e-02  7.9410182623791431e-02  7.1113442492454132e-02  6.3558598402511754e-02 
 5.6692911305230992e-02  5.0466100470247507e-02  4.4830334519830907e-02  3.9740213114271970e-02 
 3.5152740275718047e-02  3.1027290183184758e-02  2.7325566133864446e-02  2.4011553252152561e-02 
 2.1051465441859561e-02  1.8413687019804836e-02  1.6068709438819405e-02  1.3989063501590140e-02 
 1.2149247478900699e-02  1.0525651571117659e-02  9.0964791845585605e-03  7.8416655293301347e-03 
 6.7427940776976555e-03  5.7830114482967420e-03  4.9469412987940718e-03  4.2205978162142711e-03 
 3.5912993892866932e-03  3.0475830308518735e-03  2.5791200912917505e-03  2.1766337673032581e-03 
 1.8318188656613380e-03  1.5372642306573298e-03  1.2863781884740134e-03  1.0733173036676985e-03 
 8.9291868386639920e-04  7.4063601029741432e-04  6.1247941516481353e-04  5.0495927332573241e-04 
 4.1503392605497276e-04  3.4006130960787841e-04  2.7775442124790430e-04  2.2614052065973250e-04 
 1.8352393531113401e-04  1.4845231429826215e-04  1.1968615632710615e-04  9.6171423466250833e-05 
 7.7015042794425156e-05  6.1463092647480648e-05  4.8881468395247910e-05  3.8738824083259762e-05 
 3.0591590388776345e-05  2.4070875705668388e-05  1.8871065348940295e-05  1.4739943444981686e-05 
 1.1470172669315429e-05  8.8919782682022614e-06  6.8668944520001466e-06  5.2824430150063734e-06 
 4.0476256969202666e-06  3.0891231718878939e-06  2.3481044855770836e-06  1.7775611457998006e-06 
 1.3400898253084904e-06  1.0060567011582471e-06  7.5208480172999406e-07  5.5981334862181372e-07 
 4.1488497141746082e-07  3.0612285773060152e-07  2.2486540845349812e-07  1.6443083633486019e-07 
 1.1968841798594332e-07  8.6716831792999409e-08  6.2533235373477407e-08  4.4879504813648655e-08 
 3.2054421731075072e-08  2.2782599164010530e-08  1.6112626845886386e-08  1.1338331038756184e-08 
 7.9382209538842183e-09  5.5291666247142248e-09  3.8311521976405180e-09  2.6406008541171654e-09 
 1.8102966051345512e-09  1.2343545799920925e-09  8.3703291409610894e-10  5.6445110112718381e-10 
 3.7849457842426496e-10  2.5235417582876053e-10  1.6728089478265744e-10  1.1023875412285623e-10 
 7.2217261187056271e-11  4.7025423404065573e-11  3.0435130817284024e-11  1.9576439834529613e-11 
 1.2513338939284926e-11  7.9480037674898134e-12  5.0159387478835920e-12  3.1449891893037080e-12 
 1.9589432240048839e-12  1.2120563158069983e-12  7.4487604122207838e-13  4.5463928013028589e-13 
 2.7557042427910260e-13  1.6585989682221380e-13  9.9118249683391204e-14  5.8806971146123470e-14 
 3.4635853096227241e-14  2.0248985002622500e-14  1.1749483693382617e-14  6.7659654573827905e-15 
 3.8662773072031077e-15  2.1921216863722475e-15  1.2331059460953941e-15  6.8810589901185922e-16 
 3.8087621489035674e-16  2.0909329275677039e-16  1.1383545352185504e-16  6.1453879899714674e-17 
 3.2893369368221694e-17  1.7454520467514762e-17  9.1812603334478054e-18  4.7868368353196425e-18 
 2.4734907363250194e-18  1.2666716979264422e-18  6.4285753884244537e-19  3.2338919824648165e-19 
 1.6131756064659907e-19  7.9877505968170739e-20  3.9349027544901718e-20  0.0000000000000000e+00 
 0.0000000000000000e+00  0.0000000000000000e+00  0.0000000000000000e+00  0.0000000000000000e+00 
 0.0000000000000000e+00  0.0000000000000000e+00  0.0000000000000000e+00  0.0000000000000000e+00 
 0.0000000000000000e+00  0.0000000000000000e+00  0.0000000000000000e+00  0.0000000000000000e+00 
 0.0000000000000000e+00  0.0000000000000000e+00  0.0000000000000000e+00  0.0000000000000000e+00 
 0.0000000000000000e+00  0.0000000000000000e+00  0.0000000000000000e+00  0.0000000000000000e+00 
 0.0000000000000000e+00  0.0000000000000000e+00  0.0000000000000000e+00  0.0000000000000000e+00 
 0.0000000000000000e+00  0.0000000000000000e+00  0.0000000000000000e+00  0.0000000000000000e+00 
 0.0000000000000000e+00  0.0000000000000000e+00  0.0000000000000000e+00  0.0000000000000000e+00 
 0.0000000000000000e+00  0.0000000000000000e+00  0.0000000000000000e+00  0.0000000000000000e+00 
 0.0000000000000000e+00  0.0000000000000000e+00  0.0000000000000000e+00  0.0000000000000000e+00 
 0.0000000000000000e+00  0.0000000000000000e+00  0.0000000000000000e+00  0.0000000000000000e+00 
 0.0000000000000000e+00  0.0000000000000000e+00  0.0000000000000000e+00  0.0000000000000000e+00 
 0.0000000000000000e+00  0.0000000000000000e+00  0.0000000000000000e+00  0.0000000000000000e+00 
 0.0000000000000000e+00  0.0000000000000000e+00  0.0000000000000000e+00  0.0000000000000000e+00 
 0.0000000000000000e+00  0.0000000000000000e+00  0.0000000000000000e+00  0.0000000000000000e+00 
 0.0000000000000000e+00  0.0000000000000000e+00  0.0000000000000000e+00  0.0000000000000000e+00 
 0.0000000000000000e+00  0.0000000000000000e+00  0.0000000000000000e+00  0.0000000000000000e+00 
 0.0000000000000000e+00  0.0000000000000000e+00  0.0000000000000000e+00  0.0000000000000000e+00 
 0.0000000000000000e+00  0.0000000000000000e+00  0.0000000000000000e+00  0.0000000000000000e+00 
 0.0000000000000000e+00  0.0000000000000000e+00  0.0000000000000000e+00  0.0000000000000000e+00 
 0.0000000000000000e+00  0.0000000000000000e+00  0.0000000000000000e+00  0.0000000000000000e+00 
 0.0000000000000000e+00  0.0000000000000000e+00  0.0000000000000000e+00  0.0000000000000000e+00 
 0.0000000000000000e+00  0.0000000000000000e+00  0.0000000000000000e+00  0.0000000000000000e+00 
 0.0000000000000000e+00  0.0000000000000000e+00  0.0000000000000000e+00  0.0000000000000000e+00 
 0.0000000000000000e+00  0.0000000000000000e+00  0.0000000000000000e+00  0.0000000000000000e+00 
 0.0000000000000000e+00  0.0000000000000000e+00  0.0000000000000000e+00  0.0000000000000000e+00 
 0.0000000000000000e+00  0.0000000000000000e+00  0.0000000000000000e+00  0.0000000000000000e+00 
 0.0000000000000000e+00  0.0000000000000000e+00  0.0000000000000000e+00  0.0000000000000000e+00 
 0.0000000000000000e+00  0.0000000000000000e+00  0.0000000000000000e+00  0.0000000000000000e+00 
 0.0000000000000000e+00  0.0000000000000000e+00  0.0000000000000000e+00  0.0000000000000000e+00 
 0.0000000000000000e+00  0.0000000000000000e+00  0.0000000000000000e+00  0.0000000000000000e+00 
 0.0000000000000000e+00  0.0000000000000000e+00  0.0000000000000000e+00  0.0000000000000000e+00 
 0.0000000000000000e+00  0.0000000000000000e+00  0.0000000000000000e+00  0.0000000000000000e+00 
 0.0000000000000000e+00 
</PP_RHOATOM>
