  <PP_INFO>

############################################################
#    Opium Parameter File                                  #
############################################################
#-----------------------------------------------------------
#Command line   : ./gopium cu cu.log all ke rpt upf 
 
#Opium version  : 4.1 
#Compile Host   : yang15.local 
#Compile OS     : Darwin 17.5.0 i386 
#Compile Date   : Tue Apr 10 00:25:10 EDT 2018 
#-----------------------------------------------------------
#Execution Host : Mac.lan 
#Execution Date : Sun Nov  2 22:03:23 2025
 
#-----------------------------------------------------------
############################################################
[Atom]
Cu
8                   # norb: number of orbitals
100  2.00  -        # nlm occ eigen(- means auto-generate)
200  2.00  -
210  6.00  -
300  2.00  -
310  6.00  -
400  1.50  -
410  0.00  -
320  9.50  -

[Pseudo]
3  1.88 1.86 1.97
opt

[Optinfo]
7.07 10
7.07 10
7.07 10

[Configs]
5
#
400  1.50  -
410  0.00  -
320  9.50  -
#
400  1.50  -
410  0.00  -
320  9.00  -
#
400  1.50  -
410  0.00  -
320  8.50  -
#
400  1.60  -
410  0.00  -
320  8.70  -
#
400  2.00  -
410  0.00  -
320  9.00  -

[XC]
pbesol               # lda[PZ] or gga[PBE]

[Relativity]
srl

[KBdesign]
0                 # local orb
1                # number of aug. operators
au 0.1 1.61 -3.05  # unit(gp or au)  left  right  height(Ry)
############################################################
  </PP_INFO>



<PP_HEADER>
   0         Version Number
   Cu        Element
   NC        Norm - Conserving pseudopotential
    F      Nonlinear Core Correction
SLA  PW   PSX  PSC     PBESOL  Exchange-Correlation functional
 11          Z valence
 0          Total energy
 0.000000   0.000000     Suggested cutoff for wfc and rho
 2           Max angular momentum component
 1163           Number of points in mesh
 3  3     Number of Wavefuncitons, Number of Projectors
 Wavefunctions         nl  l   occ
                       S  0  1.500000
                       P  1  0.000000
                       D  2  9.500000
</PP_HEADER>
<PP_MESH>
  <PP_R>
 3.2548726473766757e-05  3.2974622242406702e-05  3.3406090800688398e-05  3.3843205067825142e-05 
 3.4286038917168455e-05  3.4734667188692894e-05  3.5189165701644041e-05  3.5649611267352399e-05 
 3.6116081702214463e-05  3.6588655840843963e-05  3.7067413549395103e-05  3.7552435739060132e-05 
 3.8043804379743485e-05  3.8541602513914949e-05  3.9045914270644052e-05  3.9556824879817906e-05 
 4.0074420686545518e-05  4.0598789165750143e-05  4.1130018936952844e-05  4.1668199779249311e-05 
 4.2213422646482804e-05  4.2765779682615591e-05  4.3325364237301435e-05  4.3892270881661976e-05 
 4.4466595424269349e-05  4.5048434927338196e-05  4.5637887723129405e-05  4.6235053430568401e-05 
 4.6840032972081085e-05  4.7452928590649855e-05  4.8073843867092989e-05  4.8702883737570078e-05 
 4.9340154511316419e-05  4.9985763888609482e-05  5.0639820978970672e-05  5.1302436319604983e-05 
 5.1973721894082061e-05  5.2653791151261723e-05  5.3342759024467083e-05  5.4040741950908485e-05 
 5.4747857891361841e-05  5.5464226350104000e-05  5.6189968395109524e-05  5.6925206678511390e-05 
 5.7670065457329425e-05  5.8424670614470098e-05  5.9189149680000970e-05  5.9963631852703665e-05 
 6.0748248021908711e-05  6.1543130789616174e-05  6.2348414492905730e-05  6.3164235226639809e-05 
 6.3990730866464167e-05  6.4828041092109096e-05  6.5676307410995584e-05  6.6535673182150512e-05 
 6.7406283640434543e-05  6.8288285921087297e-05  6.9181829084593514e-05  7.0087064141874410e-05 
 7.1004144079809254e-05  7.1933223887090335e-05  7.2874460580416356e-05  7.3828013231028739e-05 
 7.4794042991594973e-05  7.5772713123443847e-05  7.6764189024156976e-05  7.7768638255521383e-05 
 7.8786230571847925e-05  7.9817137948659885e-05  8.0861534611757692e-05  8.1919597066663159e-05 
 8.2991504128449440e-05  8.4077436951961228e-05  8.5177579062430358e-05  8.6292116386491908e-05 
 8.7421237283606435e-05  8.8565132577892841e-05  8.9723995590378444e-05  9.0898022171670637e-05 
 9.2087410735055926e-05  9.3292362290032407e-05  9.4513080476280758e-05  9.5749771598079844e-05 
 9.7002644659172714e-05  9.8271911398088680e-05  9.9557786323927570e-05  1.0086048675261245e-04 
 1.0218023284361619e-04  1.0351724763716931e-04  1.0487175709195416e-04  1.0624399012329251e-04 
 1.0763417864183268e-04  1.0904255759274302e-04  1.1046936499541851e-04  1.1191484198370589e-04 
 1.1337923284665667e-04  1.1486278506981208e-04  1.1636574937702883e-04  1.1788837977285203e-04 
 1.1943093358544261e-04  1.2099367151006627e-04  1.2257685765315184e-04  1.2418075957692549e-04 
 1.2580564834462990e-04  1.2745179856633429e-04  1.2911948844534387e-04  1.3080899982521757e-04 
 1.3252061823739984e-04  1.3425463294947611e-04  1.3601133701405990e-04  1.3779102731831911e-04 
 1.3959400463415132e-04  1.4142057366901370e-04  1.4327104311742089e-04  1.4514572571311382e-04 
 1.4704493828191314e-04  1.4896900179526328e-04  1.5091824142447746e-04  1.5289298659569236e-04 
 1.5489357104554209e-04  1.5692033287756016e-04  1.5897361461932012e-04  1.6105376328032350e-04 
 1.6316113041064460e-04  1.6529607216034440e-04  1.6745894933965991e-04  1.6965012747998233e-04 
 1.7186997689563259e-04  1.7411887274644541e-04  1.7639719510117229e-04  1.7870532900171349e-04 
 1.8104366452819195e-04  1.8341259686487711e-04  1.8581252636697219e-04  1.8824385862827503e-04 
 1.9070700454972467e-04  1.9320238040884430e-04  1.9573040793009338e-04  1.9829151435613994e-04 
 2.0088613252006575e-04  2.0351470091851601e-04  2.0617766378580601e-04  2.0887547116899859e-04 
 2.1160857900396254e-04  2.1437744919242707e-04  2.1718254968004422e-04  2.2002435453547265e-04 
 2.2290334403049714e-04  2.2582000472119409e-04  2.2877482953016236e-04  2.3176831782982751e-04 
 2.3480097552683679e-04  2.3787331514755927e-04  2.4098585592470314e-04  2.4413912388506796e-04 
 2.4733365193844406e-04  2.5056997996767577e-04  2.5384865491990280e-04  2.5717023089899570e-04 
 2.6053526925920071e-04  2.6394433870000951e-04  2.6739801536227164e-04  2.7089688292556319e-04 
 2.7444153270683014e-04  2.7803256376032173e-04  2.8167058297883310e-04  2.8535620519627128e-04 
 2.8909005329156299e-04  2.9287275829392316e-04  2.9670495948950061e-04  3.0058730452941818e-04 
 3.0452044953922823e-04  3.0850505922979841e-04  3.1254180700965035e-04  3.1663137509876672e-04 
 3.2077445464388798e-04  3.2497174583531833e-04  3.2922395802525940e-04  3.3353180984769122e-04 
 3.3789602933982535e-04  3.4231735406514311e-04  3.4679653123804657e-04  3.5133431785013837e-04 
 3.5593148079815637e-04  3.6058879701358069e-04  3.6530705359393652e-04  3.7008704793581586e-04 
 3.7492958786963928e-04  3.7983549179618139e-04  3.8480558882488219e-04  3.8984071891396912e-04 
 3.9494173301241091e-04  4.0010949320373149e-04  4.0534487285170273e-04  4.1064875674794589e-04 
 4.1602204126146364e-04  4.2146563449012693e-04  4.2698045641414799e-04  4.3256743905155783e-04 
 4.3822752661572018e-04  4.4396167567490398e-04  4.4977085531394868e-04  4.5565604729803959e-04 
 4.6161824623862938e-04  4.6765845976152944e-04  4.7377770867720176e-04  4.7997702715327705e-04 
 4.8625746288933323e-04  4.9262007729395751e-04  4.9906594566412777e-04  5.0559615736694053e-04 
 5.1221181602371620e-04  5.1891403969651331e-04  5.2570396107708530e-04  5.3258272767830528e-04 
 5.3955150202810126e-04  5.4661146186592475e-04  5.5376380034179206e-04  5.6100972621792814e-04 
 5.6835046407305268e-04  5.7578725450933464e-04  5.8332135436205764e-04  5.9095403691202929e-04 
 5.9868659210076693e-04  6.0652032674850156e-04  6.1445656477503380e-04  6.2249664742347914e-04 
 6.3064193348694110e-04  6.3889379953815158e-04  6.4725364016211264e-04  6.5572286819178763e-04 
 6.6430291494687095e-04  6.7299523047568521e-04  6.8180128380024372e-04  6.9072256316451747e-04 
 6.9976057628595278e-04  7.0891685061027815e-04  7.1819293356964703e-04  7.2759039284415810e-04 
 7.3711081662679529e-04  7.4675581389183781e-04  7.5652701466677886e-04  7.6642607030780597e-04 
 7.7645465377888323e-04  7.8661445993448670e-04  7.9690720580603738e-04  8.0733463089208526e-04 
 8.1789849745228873e-04  8.2860059080523902e-04  8.3944271963018544e-04  8.5042671627270374e-04 
 8.6155443705436996e-04  8.7282776258648155e-04  8.8424859808788480e-04  8.9581887370696186e-04 
 9.0754054484783100e-04  9.1941559250081364e-04  9.3144602357722714e-04  9.4363387124855706e-04 
 9.5598119529006771e-04  9.6849008242890996e-04  9.8116264669678255e-04  9.9400102978720959e-04 
 1.0070074014174890e-03  1.0201839596953829e-03  1.0335329314906016e-03  1.0470565728111507e-03 
 1.0607571691846015e-03  1.0746370360443485e-03  1.0886985191209274e-03  1.1029439948384450e-03 
 1.1173758707162045e-03  1.1319965857755773e-03  1.1468086109522075e-03  1.1618144495136040e-03 
 1.1770166374821991e-03  1.1924177440639423e-03  1.2080203720825017e-03  1.2238271584191487e-03 
 1.2398407744583953e-03  1.2560639265394669e-03  1.2724993564136769e-03  1.2891498417077923e-03 
 1.3060181963934576e-03  1.3231072712627629e-03  1.3404199544100354e-03  1.3579591717199321e-03 
 1.3757278873619235e-03  1.3937291042912449e-03  1.4119658647564020e-03  1.4304412508133173e-03 
 1.4491583848462088e-03  1.4681204300952769e-03  1.4873305911912995e-03  1.5067921146972247e-03 
 1.5265082896568439e-03  1.5464824481506525e-03  1.5667179658589768e-03  1.5872182626324720e-03 
 1.6079868030700847e-03  1.6290270971045799e-03  1.6503427005957285e-03  1.6719372159312526e-03 
 1.6938142926356421e-03  1.7159776279869283e-03  1.7384309676415370e-03  1.7611781062673115e-03 
 1.7842228881848187e-03  1.8075692080170521e-03  1.8312210113476321e-03  1.8551822953876112e-03 
 1.8794571096510239e-03  1.9040495566392580e-03  1.9289637925343859e-03  1.9542040279015727e-03 
 1.9797745284006697e-03  2.0056796155071203e-03  2.0319236672423041e-03  2.0585111189134280e-03 
 2.0854464638631024e-03  2.1127342542287338e-03  2.1403791017118421e-03  2.1683856783574489e-03 
 2.1967587173436654e-03  2.2255030137816119e-03  2.2546234255257998e-03  2.2841248739951230e-03 
 2.3140123450045920e-03  2.3442908896079374e-03  2.3749656249512667e-03  2.4060417351378593e-03 
 2.4375244721043031e-03  2.4694191565080765e-03  2.5017311786267563e-03  2.5344659992689862e-03 
 2.5676291506973674e-03  2.6012262375634237e-03  2.6352629378547966e-03  2.6697450038548468e-03 
 2.7046782631148006e-03  2.7400686194386163e-03  2.7759220538807459e-03  2.8122446257569443e-03 
 2.8490424736683099e-03  2.8863218165387215e-03  2.9240889546658564e-03  2.9623502707859417e-03 
 3.0011122311524711e-03  3.0403813866290014e-03  3.0801643737962741e-03  3.1204679160738076e-03 
 3.1612988248561733e-03  3.2026640006641359e-03  3.2445704343108620e-03  3.2870252080833811e-03 
 3.3300354969395003e-03  3.3736085697204095e-03  3.4177517903791164e-03  3.4624726192249767e-03 
 3.5077786141845067e-03  3.5536774320786852e-03  3.6001768299169816e-03  3.6472846662083036e-03 
 3.6950089022891081e-03  3.7433576036688750e-03  3.7923389413932148e-03  3.8419611934247828e-03 
 3.8922327460422803e-03  3.9431620952577488e-03  3.9947578482524230e-03  4.0470287248313627e-03 
 4.0999835588971184e-03  4.1536312999426884e-03  4.2079810145639902e-03  4.2630418879921542e-03 
 4.3188232256458417e-03  4.3753344547038811e-03  4.4325851256984839e-03  4.4905849141293102e-03 
 4.5493436220986521e-03  4.6088711799680063e-03  4.6691776480363399e-03  4.7302732182402784e-03 
 4.7921682158766094e-03  4.8548731013472483e-03  4.9183984719270817e-03  4.9827550635549349e-03 
 5.0479537526479682e-03  5.1140055579398181e-03  5.1809216423427864e-03  5.2487133148344115e-03 
 5.3173920323686830e-03  5.3869694018123327e-03  5.4574571819063968e-03  5.5288672852534795e-03 
 5.6012117803310082e-03  5.6745028935308401e-03  5.7487530112255427e-03  5.8239746818617329e-03 
 5.9001806180807850e-03  5.9773836988672880e-03  6.0555969717256512e-03  6.1348336548851428e-03 
 6.2151071395338073e-03  6.2964309920816100e-03  6.3788189564531880e-03  6.4622849564106135e-03 
 6.5468430979065372e-03  6.6325076714681304e-03  6.7192931546122070e-03  6.8072142142919815e-03 
 6.8962857093757997e-03  6.9865226931583287e-03  7.0779404159046011e-03  7.1705543274273439e-03 
 7.2643800796980346e-03  7.3594335294921223e-03  7.4557307410688658e-03  7.5532879888862026e-03 
 7.6521217603512182e-03  7.7522487586065211e-03  7.8536859053531319e-03  7.9564503437102793e-03 
 8.0605594411126361e-03  8.1660307922454510e-03  8.2728822220181006e-03  8.3811317885765357e-03 
 8.4907977863551403e-03  8.6018987491685572e-03  8.7144534533439358e-03  8.8284809208941696e-03 
 8.9440004227326741e-03  9.0610314819302099e-03  9.1795938770143203e-03  9.2997076453119661e-03 
 9.4213930863358865e-03  9.5446707652152123e-03  9.6695615161711008e-03  9.7960864460377127e-03 
 9.9242669378293413e-03  1.0054124654354176e-02  1.0185681541875387e-02  1.0318959833820082e-02 
 1.0453982054536815e-02  1.0590771023102262e-02  1.0729349857177665e-02  1.0869741976915820e-02 
 1.1011971108919112e-02  1.1156061290249370e-02  1.1302036872490184e-02  1.1449922525862388e-02 
 1.1599743243393386e-02  1.1751524345141030e-02  1.1905291482472781e-02  1.2061070642400801e-02 
 1.2218888151973899e-02  1.2378770682726822e-02  1.2540745255187797e-02  1.2704839243445083e-02 
 1.2871080379773260e-02  1.3039496759320033e-02  1.3210116844854396e-02  1.3382969471576906e-02 
 1.3558083851992864e-02  1.3735489580849360e-02  1.3915216640136811e-02  1.4097295404156012e-02 
 1.4281756644651436e-02  1.4468631536011774e-02  1.4657951660538439e-02  1.4849749013783076e-02 
 1.5044056009954896e-02  1.5240905487398693e-02  1.5440330714144692e-02  1.5642365393530862e-02 
 1.5847043669898878e-02  1.6054400134364606e-02  1.6264469830664069e-02  1.6477288261075928e-02 
 1.6692891392421444e-02  1.6911315662142993e-02  1.7132597984461994e-02  1.7356775756617610e-02 
 1.7583886865186901e-02  1.7813969692487757e-02  1.8047063123065622e-02  1.8283206550265038e-02 
 1.8522439882887251e-02  1.8764803551934862e-02  1.9010338517444825e-02  1.9259086275410658e-02 
 1.9511088864795526e-02  1.9766388874636821e-02  2.0025029451243851e-02  2.0287054305489646e-02 
 2.0552507720198222e-02  2.0821434557628467e-02  2.1093880267055980e-02  2.1369890892454120e-02 
 2.1649513080275472e-02  2.1932794087335328e-02  2.2219781788798111e-02  2.2510524686268438e-02 
 2.2805071915987973e-02  2.3103473257139576e-02  2.3405779140260145e-02  2.3712040655763437e-02 
 2.4022309562574524e-02  2.4336638296877083e-02  2.4655079980975370e-02  2.4977688432271914e-02 
 2.5304518172362830e-02  2.5635624436252072e-02  2.5971063181686318e-02  2.6310891098611896e-02 
 2.6655165618755611e-02  2.7003944925330800e-02  2.7357287962870343e-02  2.7715254447188597e-02 
 2.8077904875473427e-02  2.8445300536510329e-02  2.8817503521040466e-02  2.9194576732254118e-02 
 2.9576583896421434e-02  2.9963589573662366e-02  3.0355659168857522e-02  3.0752858942701598e-02 
 3.1155256022901770e-02  3.1562918415522327e-02  3.1975915016477917e-02  3.2394315623177052e-02 
 3.2818190946318118e-02  3.3247612621839576e-02  3.3682653223026653e-02  3.4123386272776439e-02 
 3.4569886256023245e-02  3.5022228632326999e-02  3.5480489848625903e-02  3.5944747352156220e-02 
 3.6415079603541040e-02  3.6891566090050266e-02  3.7374287339034203e-02  3.7863324931532848e-02 
 3.8358761516063343e-02  3.8860680822587576e-02  3.9369167676663000e-02  3.9884308013778236e-02 
 4.0406188893876281e-02  4.0934898516068047e-02  4.1470526233538037e-02  4.2013162568645367e-02 
 4.2562899228222185e-02  4.3119829119072431e-02  4.3684046363673124e-02  4.4255646316081539e-02 
 4.4834725578050100e-02  4.5421382015352313e-02  4.6015714774322411e-02  4.6617824298611228e-02 
 4.7227812346161441e-02  4.7845782006404922e-02  4.8471837717685123e-02  4.9106085284907210e-02 
 4.9748631897419689e-02  5.0399586147129388e-02  5.1059058046853838e-02  5.1727159048913729e-02 
 5.2404002063968516e-02  5.3089701480098693e-02  5.3784373182137642e-02  5.4488134571256439e-02 
 5.5201104584804754e-02  5.5923403716411871e-02  5.6655154036350172e-02  5.7396479212165369e-02 
 5.8147504529576587e-02  5.8908356913649991e-02  5.9679164950249400e-02  6.0460058907767580e-02 
 6.1251170759142007e-02  6.2052634204158394e-02  6.2864584692046574e-02  6.3687159444371463e-02 
 6.4520497478224095e-02  6.5364739629715535e-02  6.6220028577778811e-02  6.7086508868281824e-02 
 6.7964326938455943e-02  6.8853631141644403e-02  6.9754571772374027e-02  7.0667301091755827e-02 
 7.1591973353217153e-02  7.2528744828570982e-02  7.3477773834426274e-02  7.4439220758943797e-02 
 7.5413248088942120e-02  7.6400020437358288e-02  7.7399704571067901e-02  7.8412469439068710e-02 
 7.9438486201034011e-02  8.0477928256238562e-02  8.1530971272863656e-02  8.2597793217685511e-02 
 8.3678574386151866e-02  8.4773497432852563e-02  8.5882747402388548e-02  8.7006511760644875e-02 
 8.8144980426472563e-02  8.9298345803785942e-02  9.0466802814078845e-02  9.1650548929367040e-02 
 9.2849784205561517e-02  9.4064711316278166e-02  9.5295535587090419e-02  9.6542465030229466e-02 
 9.7805710379739036e-02  9.9085485127089812e-02  1.0038200555726010e-01  1.0169549078528846e-01 
 1.0302616279330482e-01  1.0437424646804533e-01  1.0573996963885972e-01  1.0712356311621443e-01 
 1.0852526073070022e-01  1.0994529937255015e-01  1.1138391903167445e-01  1.1284136283821962e-01 
 1.1431787710365782e-01  1.1581371136241413e-01  1.1732911841403854e-01  1.1886435436592953e-01 
 1.2041967867661708e-01  1.2199535419961145e-01  1.2359164722782628e-01  1.2520882753858270e-01 
 1.2684716843920227e-01  1.2850694681319658e-01  1.3018844316706152e-01  1.3189194167768259e-01 
 1.3361773024036272e-01  1.3536610051747663e-01  1.3713734798776239e-01  1.3893177199625822e-01 
 1.4074967580489250e-01  1.4259136664373565e-01  1.4445715576292281e-01  1.4634735848525596e-01 
 1.4826229425949397e-01  1.5020228671434041e-01  1.5216766371313753e-01  1.5415875740927601e-01 
 1.5617590430232939e-01  1.5821944529492354e-01  1.6028972575035019e-01  1.6238709555093370e-01 
 1.6451190915716260e-01  1.6666452566759302e-01  1.6884530887953897e-01  1.7105462735055374e-01 
 1.7329285446071729e-01  1.7556036847573847e-01  1.7785755261088276e-01  1.8018479509573640e-01 
 1.8254248923981847e-01  1.8493103349905088e-01  1.8735083154309837e-01  1.8980229232358969e-01 
 1.9228583014323161e-01  1.9480186472582658e-01  1.9735082128720749e-01  1.9993313060710000e-01 
 2.0254922910192530e-01  2.0519955889855551e-01  2.0788456790903481e-01  2.1060470990627575e-01 
 2.1336044460075043e-01  2.1615223771818109e-01  2.1898056107824948e-01  2.2184589267433491e-01 
 2.2474871675429706e-01  2.2768952390231431e-01  2.3066881112179416e-01  2.3368708191936768e-01 
 2.3674484638998344e-01  2.3984262130311473e-01  2.4298093019009490e-01  2.4616030343259532e-01 
 2.4938127835226120e-01  2.5264439930152016e-01  2.5595021775557919e-01  2.5929929240562521e-01 
 2.6269218925324561e-01  2.6612948170608219e-01  2.6961175067474097e-01  2.7313958467096588e-01 
 2.7671357990709883e-01  2.8033434039684113e-01  2.8400247805733331e-01  2.8771861281257061e-01 
 2.9148337269817132e-01  2.9529739396751675e-01  2.9916132119927896e-01  3.0307580740635676e-01 
 3.0704151414623598e-01  3.1105911163279443e-01  3.1512927884956954e-01  3.1925270366450847e-01 
 3.2343008294621894e-01  3.2766212268174227e-01  3.3194953809586697e-01  3.3629305377200136e-01 
 3.4069340377463309e-01  3.4515133177338597e-01  3.4966759116870222e-01  3.5424294521916860e-01 
 3.5887816717050958e-01  3.6357404038626712e-01  3.6833135848019122e-01  3.7315092545036282e-01 
 3.7803355581507075e-01  3.8298007475046797e-01  3.8799131823002758e-01  3.9306813316582501e-01 
 3.9821137755166758e-01  4.0342192060809801e-01  4.0870064292929442e-01  4.1404843663189278e-01 
 4.1946620550575825e-01  4.2495486516672348e-01  4.3051534321133567e-01  4.3614857937361862e-01 
 4.4185552568389164e-01  4.4763714662966397e-01  4.5349441931863654e-01  4.5942833364383456e-01 
 4.6543989245090223e-01  4.7153011170758607e-01  4.7770002067543577e-01  4.8395066208375187e-01 
 4.9028309230580946e-01  4.9669838153738799e-01  5.0319761397763663e-01  5.0978188801230639e-01 
 5.1645231639938050e-01  5.2321002645713255e-01  5.3005616025464719e-01  5.3699187480482891e-01 
 5.4401834225994539e-01  5.5113675010971996e-01  5.5834830138202196e-01  5.6565421484618017e-01 
 5.7305572521895942e-01  5.8055408337322878e-01  5.8815055654936310e-01  5.9584642856940928e-01 
 6.0364300005405591e-01  6.1154158864244035e-01  6.1954352921483369e-01  6.2765017411823787e-01 
 6.3586289339493607e-01  6.4418307501403305e-01  6.5261212510602573e-01  6.6115146820044113e-01 
 6.6980254746658818e-01  6.7856682495745080e-01  6.8744578185678562e-01  6.9644091872944203e-01 
 7.0555375577496016e-01  7.1478583308449073e-01  7.2413871090107196e-01  7.3361396988331540e-01 
 7.4321321137254170e-01  7.5293805766340904e-01  7.6279015227808722e-01  7.7277116024401449e-01 
 7.8288276837529325e-01  7.9312668555776400e-01  8.0350464303781233e-01  8.1401839471495285e-01 
 8.2466971743824269e-01  8.3546041130657334e-01  8.4639229997289278e-01  8.5746723095240174e-01 
 8.6868707593479666e-01  8.8005373110058382e-01  8.9156911744154010e-01  9.0323518108536482e-01 
 9.1505389362457978e-01  9.2702725244973416e-01  9.3915728108696728e-01  9.5144602953998925e-01 
 9.6389557463653686e-01  9.7650802037936291e-01  9.8928549830181667e-01  1.0022301678280785e+00 
 1.0153442166381079e+00  1.0286298610373670e+00  1.0420893463313798e+00  1.0557249472051959e+00 
 1.0695389681078191e+00  1.0835337436416570e+00  1.0977116389570853e+00  1.1120750501521575e+00 
 1.1266264046775516e+00  1.1413681617468161e+00  1.1563028127519819e+00  1.1714328816846160e+00 
 1.1867609255623779e+00  1.2022895348611657e+00  1.2180213339529109e+00  1.2339589815491023e+00 
 1.2501051711501174e+00  1.2664626315004281e+00  1.2830341270497660e+00  1.2998224584203206e+00 
 1.3168304628800513e+00  1.3340610148221927e+00  1.3515170262510359e+00  1.3692014472740541e+00 
 1.3871172666004938e+00  1.4052675120464622e+00  1.4236552510466391e+00  1.4422835911726799e+00 
 1.4611556806584034e+00  1.4802747089318500e+00  1.4996439071543035e+00  1.5192665487663632e+00 
 1.5391459500411662e+00  1.5592854706448422e+00  1.5796885142043071e+00  1.6003585288824846e+00 
 1.6212990079610510e+00  1.6425134904308112e+00  1.6640055615897955e+00  1.6857788536491825e+00 
 1.7078370463471557e+00  1.7301838675707768e+00  1.7528230939860217e+00  1.7757585516760390e+00 
 1.7989941167877666e+00  1.8225337161870114e+00  1.8463813281220984e+00  1.8705409828962039e+00 
 1.8950167635484878e+00  1.9198128065441344e+00  1.9449333024734270e+00  1.9703824967599672e+00 
 1.9961646903781609e+00  2.0222842405800932e+00  2.0487455616319163e+00  2.0755531255598672e+00 
 2.1027114629060555e+00  2.1302251634941309e+00  2.1580988772049832e+00  2.1863373147625631e+00 
 2.2149452485300323e+00  2.2439275133162870e+00  2.2732890071930569e+00  2.3030346923226896e+00 
 2.3331695957967713e+00  2.3636988104857113e+00  2.3946274958994551e+00  2.4259608790594509e+00 
 2.4577042553820299e+00  2.4898629895733420e+00  2.5224425165360067e+00  2.5554483422876237e+00 
 2.5888860448913009e+00  2.6227612753983647e+00  2.6570797588033952e+00  2.6918472950117716e+00 
 2.7270697598198659e+00  2.7627531059080552e+00  2.7989033638467626e+00  2.8355266431156205e+00 
 2.8726291331359937e+00  2.9102171043170020e+00  2.9482969091152369e+00  2.9868749831083448e+00 
 3.0259578460826488e+00  3.0655521031350146e+00  3.1056644457891203e+00  3.1463016531263452e+00 
 3.1874705929314513e+00  3.2291782228532515e+00  3.2714315915804701e+00  3.3142378400329902e+00 
 3.3576042025686816e+00  3.4015380082060300e+00  3.4460466818627613e+00  3.4911377456106454e+00 
 3.5368188199467836e+00  3.5830976250814643e+00  3.6299819822429020e+00  3.6774798149990464e+00 
 3.7255991505966843e+00  3.7743481213180590e+00  3.8237349658552504e+00  3.8737680307025308e+00 
 3.9244557715669419e+00  3.9758067547973326e+00  4.0278296588320881e+00  4.0805332756658110e+00 
 4.1339265123351856e+00  4.1880183924242891e+00  4.2428180575896022e+00  4.2983347691049651e+00 
 4.3545779094267667e+00  4.4115569837795698e+00  4.4692816217625655e+00  4.5277615789769605e+00 
 4.5870067386747140e+00  4.6470271134288224e+00  4.7078328468254753e+00  4.7694342151783395e+00 
 4.8318416292652833e+00  4.8950656360878222e+00  4.9591169206535906e+00  5.0240063077821278e+00 
 5.0897447639343003e+00  5.1563433990656629e+00  5.2238134685040647e+00  5.2921663748518242e+00 
 5.3614136699128032e+00  5.4315670566446794e+00  5.5026383911367915e+00  5.5746396846138104e+00 
 5.6475831054657109e+00  5.7214809813042278e+00  5.7963458010462636e+00  5.8721902170245404e+00 
 5.9490270471258748e+00  6.0268692769574335e+00  6.1057300620413297e+00  6.1856227300379398e+00 
 6.2665607829983063e+00  6.3485578996460204e+00  6.4316279376889556e+00  6.5157849361612588e+00 
 6.6010431177959701e+00  6.6874168914287102e+00  6.7749208544328017e+00  6.8635697951862591e+00 
 6.9533786955710761e+00  7.0443627335051451e+00  7.1365372855074432e+00  7.2299179292966400e+00 
 7.3245204464237910e+00  7.4203608249394559e+00  7.5174552620957114e+00  7.6158201670835330e+00 
 7.7154721638059787e+00  7.8164280936876782e+00  7.9187050185210692e+00  8.0223202233498707e+00 
 8.1272912193903188e+00  8.2336357469905810e+00  8.3413717786289343e+00  8.4505175219511504e+00 
 8.5610914228476211e+00  8.6731121685707837e+00  8.7865986908932925e+00  8.9015701693075027e+00 
 9.0180460342669253e+00  9.1360459704699597e+00  9.2555899201866740e+00  9.3766980866291068e+00 
 9.4993909373656233e+00  9.6236892077800249e+00  9.7496139045758490e+00  9.8771863093265750e+00 
 1.0006427982072237e+01  1.0137360764963134e+01  1.0270006785951209e+01  1.0404388462529717e+01 
 1.0540528505521850e+01  1.0678449922918889e+01  1.0818176023768647e+01  1.0959730422114724e+01 
 1.1103137040987381e+01  1.1248420116446482e+01  1.1395604201677594e+01  1.1544714171141429e+01 
 1.1695775224777721e+01  1.1848812892264077e+01  1.2003853037330547e+01  1.2160921862130659e+01 
 1.2320045911669641e+01  1.2481252078290597e+01  1.2644567606219370e+01  1.2810020096168888e+01 
 1.2977637510003749e+01  1.3147448175465829e+01  1.3319480790961766e+01  1.3493764430413023e+01 
 1.3670328548169486e+01  1.3849202983987295e+01  1.4030417968071866e+01  1.4214004126186769e+01 
 1.4399992484829701e+01  1.4588414476475949e+01  1.4779301944890548e+01  1.4972687150510010e+01 
 1.5168602775894351e+01  1.5367081931250558e+01  1.5568158160028290e+01  1.5771865444588794e+01 
 1.5978238211947994e+01  1.6187311339594764e+01  1.6399120161385294e+01  1.6613700473514594e+01 
 1.6831088540566128e+01  1.7051321101640639e+01  1.7274435376565119e+01  1.7500469072183069e+01 
 1.7729460388727055e+01  1.7961448026274535e+01  1.8196471191288445e+01  1.8434569603243034e+01 
 1.8675783501336635e+01  1.8920153651292146e+01  1.9167721352246506e+01  1.9418528443730430e+01 
 1.9672617312739323e+01  1.9930030900896803e+01  2.0190812711711931e+01  2.0455006817931427e+01 
 2.0722657868988048e+01  2.0993811098546463e+01  2.1268512332147832e+01  2.1546807994954452e+01 
 2.1828745119595702e+01  2.2114371354116731e+01  2.2403734970030911e+01  2.2696884870478083e+01 
 2.2993870598489139e+01  2.3294742345358983e+01  2.3599550959128933e+01  2.3908347953180190e+01 
 2.4221185514939716e+01  2.4538116514700029e+01  2.4859194514554424e+01  2.5184473777449060e+01 
 2.5514009276353569e+01  2.5847856703551596e+01  2.6186072480052918e+01  2.6528713765128757e+01 
 2.6875838465971810e+01  2.7227505247482700e+01  2.7583773542184517e+01  2.7944703560267065e+01 
 2.8310356299762340e+01  2.8680793556853665e+01  2.9056077936319163e+01  2.9436272862112173e+01 
 2.9821442588080050e+01  3.0211652208823246e+01  3.0606967670696381e+01  3.1007455782953411e+01 
 3.1413184229038499e+01  3.1824221578024716e+01  3.2240637296202337e+01  3.2662501758818856e+01 
 3.3089886261972531e+01  3.3522863034661611e+01  3.3961505250991209e+01  3.4405887042539881e+01 
 3.4856083510888091e+01  3.5312170740310556e+01  3.5774225810634441e+01  3.6242326810266455e+01 
 3.6716552849389636e+01  3.7196984073333326e+01  3.7683701676117828e+01  3.8176787914176437e+01 
 3.8676326120257002e+01  3.9182400717505274e+01  3.9695097233732724e+01  4.0214502315870831e+01 
 4.0740703744614756e+01  4.1273790449258307e+01  4.1813852522723394e+01  4.2360981236785854e+01 
 4.2915269057500559e+01  4.3476809660828472e+01  4.4045697948468074e+01  4.4622030063894073e+01 
 4.5205903408605536e+01  4.5797416658587487e+01  4.6396669780987018e+01  4.7003764051008083e+01 
 4.7618802069027289e+01  4.8241887777933513e+01  4.8873126480694566e+01  4.9512624858153629e+01 
 5.0160490987058544e+01  5.0816834358327107e+01  5.1481765895551213e+01  5.2155397973743241e+01 
 5.2837844438327721e+01  5.3529220624381466e+01  5.4229643376125452e+01  5.4939231066671802e+01 
 5.5658103618029095e+01  5.6386382521369626e+01  5.7124190857561210e+01  5.7871653317968814e+01 
 5.8628896225527278e+01  5.9396047556090316e+01  6.0173236960058667e+01  6.0960595784291392e+01 
 6.1758257094303779e+01  6.2566355696755728e+01  6.3385028162234420e+01  6.4214412848335030e+01 
 6.5054649923043499e+01  6.5905881388425342e+01  6.6768251104624184e+01  6.7641904814174623e+01 
 6.8526990166632928e+01  6.9423656743530245e+01  7.0332056083652262e+01  7.1252341708649638e+01 
 7.2184669148983090e+01  7.3129195970209238e+01  7.4086081799608905e+01  7.5055488353164776e+01 
 7.6037579462891642e+01  7.7032521104524491e+01  7.8040481425568885e+01  7.9061630773718079e+01 
 8.0096141725642397e+01  8.1144189116154891e+01  8.2205950067759048e+01  8.3281604020582762e+01 
 8.4371332762704242e+01  8.5475320460874528e+01  8.6593753691642263e+01  8.7726821472885362e+01 
 8.8874715295755692e+01  9.0037629157041636e+01  9.1215759591953187e+01  9.2409305707338149e+01 
 9.3618469215330705e+01  9.4843454467441660e+01  9.6084468489094249e+01  9.7341721014611778e+01 
 9.8615424522663531e+01  9.9905794272173836e+01  1.0121304833870161e+02  1.0253740765129547e+02 
 1.0387909602983142e+02  1.0523834022283845e+02  1.0661536994582093e+02  1.0801041792007878e+02 
 1.0942371991204075e+02  1.1085551477310649e+02  1.1230604448001617e+02  1.1377555417574219e+02 
 1.1526429221092033e+02  1.1677251018582272e+02  1.1830046299287594e+02 
  </PP_R>
  <PP_RAB>
 4.2313344415896781e-07  4.2867008915128712e-07  4.3427918040894913e-07  4.3996166588172682e-07 
 4.4571850592318992e-07  4.5155067345300762e-07  4.5745915412137249e-07  4.6344494647558117e-07 
 4.6950906212878798e-07  4.7565252593097148e-07  4.8187637614213632e-07  4.8818166460778174e-07 
 4.9456945693666529e-07  5.0104083268089436e-07  5.0759688551837267e-07  5.1423872343763276e-07 
 5.2096746892509170e-07  5.2778425915475188e-07  5.3469024618038691e-07  5.4168659713024097e-07 
 5.4877449440427639e-07  5.5595513587400263e-07  5.6322973508491859e-07  5.7059952146160569e-07 
 5.7806574051550154e-07  5.8562965405539654e-07  5.9329254040068220e-07  6.0105569459738921e-07 
 6.0892042863705411e-07  6.1688807167844809e-07  6.2495997027220886e-07  6.3313748858841098e-07 
 6.4142200864711339e-07  6.4981493055192324e-07  6.5831767272661870e-07  6.6693167215486476e-07 
 6.7565838462306671e-07  6.8449928496640235e-07  6.9345586731807210e-07  7.0252964536181024e-07 
 7.1172215258770385e-07  7.2103494255135193e-07  7.3046958913642381e-07  7.4002768682064804e-07 
 7.4971085094528249e-07  7.5952071798811123e-07  7.6945894584001257e-07  7.7952721408514761e-07 
 7.8972722428481325e-07  8.0006070026501028e-07  8.1052938840777447e-07  8.2113505794631746e-07 
 8.3187950126403414e-07  8.4276453419741817e-07  8.5379199634294253e-07  8.6496375136795660e-07 
 8.7628168732564906e-07  8.8774771697413486e-07  8.9936377809971560e-07  9.1113183384436724e-07 
 9.2305387303752024e-07  9.3513191053217437e-07  9.4736798754541261e-07  9.5976417200337347e-07 
 9.7232255889073463e-07  9.8504527060476987e-07  9.9793445731404060e-07  1.0109922973217779e-06 
 1.0242209974340230e-06  1.0376227933325784e-06  1.0511999499528499e-06  1.0649547618666211e-06 
 1.0788895536698426e-06  1.0930066803754959e-06  1.1073085278115947e-06  1.1217975130243947e-06 
 1.1364760846868837e-06  1.1513467235126068e-06  1.1664119426749197e-06  1.1816742882317183e-06 
 1.1971363395557270e-06  1.2128007097704211e-06  1.2286700461916498e-06  1.2447470307750380e-06 
 1.2610343805692452e-06  1.2775348481751527e-06  1.2942512222110583e-06  1.3111863277839619e-06 
 1.3283430269670104e-06  1.3457242192832010e-06  1.3633328421954040e-06  1.3811718716028026e-06 
 1.3992443223438248e-06  1.4175532487056591e-06  1.4361017449404404e-06  1.4548929457881764e-06 
 1.4739300270065367e-06  1.4932162059075570e-06  1.5127547419013748e-06  1.5325489370470763e-06 
 1.5526021366107538e-06  1.5729177296308615e-06  1.5934991494909738e-06  1.6143498745000313e-06 
 1.6354734284801887e-06  1.6568733813623457e-06  1.6785533497894703e-06  1.7005169977278283e-06 
 1.7227680370861979e-06  1.7453102283431893e-06  1.7681473811827786e-06  1.7912833551381483e-06 
 1.8147220602439670e-06  1.8384674576971781e-06  1.8625235605264715e-06  1.8868944342704797e-06 
 1.9115841976648707e-06  1.9365970233384224e-06  1.9619371385182068e-06  1.9876088257440007e-06 
 2.0136164235920473e-06  2.0399643274082820e-06  2.0666569900511613e-06  2.0936989226442055e-06 
 2.1210946953383797e-06  2.1488489380844771e-06  2.1769663414155788e-06  2.2054516572397702e-06 
 2.2343096996432233e-06  2.2635453457037904e-06  2.2931635363152396e-06  2.3231692770222752e-06 
 2.3535676388664951e-06  2.3843637592434025e-06  2.4155628427706385e-06  2.4471701621675753e-06 
 2.4791910591464204e-06  2.5116309453149757e-06  2.5444953030912140e-06  2.5777896866298192e-06 
 2.6115197227608546e-06  2.6456911119407080e-06  2.6803096292154781e-06  2.7153811251969817e-06 
 2.7509115270515129e-06  2.7869068395015518e-06  2.8233731458405746e-06  2.8603166089611444e-06 
 2.8977434723964626e-06  2.9356600613755231e-06  2.9740727838921104e-06  3.0129881317877576e-06 
 3.0524126818488781e-06  3.0923530969182705e-06  3.1328161270211407e-06  3.1738086105058833e-06 
 3.2153374751997728e-06  3.2574097395797849e-06  3.3000325139587361e-06  3.3432130016869438e-06 
 3.3869585003696089e-06  3.4312764031001232e-06  3.4761741997095311e-06  3.5216594780323214e-06 
 3.5677399251887918e-06  3.6144233288841825e-06  3.6617175787248303e-06  3.7096306675515264e-06 
 3.7581706927903189e-06  3.8073458578210008e-06  3.8571644733635079e-06  3.9076349588824360e-06 
 3.9587658440099665e-06  4.0105657699873795e-06  4.0630434911254543e-06  4.1162078762839668e-06 
 4.1700679103705438e-06  4.2246326958591378e-06  4.2799114543283724e-06  4.3359135280199860e-06 
 4.3926483814177297e-06  4.4501256028468605e-06  4.5083549060946055e-06  4.5673461320517990e-06 
 4.6271092503760322e-06  4.6876543611765487e-06  4.7489916967211741e-06  4.8111316231656064e-06 
 4.8740846423053101e-06  4.9378613933503580e-06  5.0024726547234679e-06  5.0679293458815981e-06 
 5.1342425291613415e-06  5.2014234116485089e-06  5.2694833470721350e-06  5.3384338377232961e-06 
 5.4082865363990269e-06  5.4790532483716497e-06  5.5507459333839233e-06  5.6233767076702518e-06 
 5.6969578460043618e-06  5.7715017837737518e-06  5.8470211190813323e-06  5.9235286148745140e-06 
 6.0010372011021814e-06  6.0795599768998826e-06  6.1591102128036227e-06  6.2397013529926010e-06 
 6.3213470175613318e-06  6.4040610048214473e-06  6.4878572936336604e-06  6.5727500457702265e-06 
 6.6587536083083106e-06  6.7458825160546732e-06  6.8341514940021084e-06  6.9235754598179680e-06 
 7.0141695263653163e-06  7.1059490042570215e-06  7.1989294044432966e-06  7.2931264408330653e-06 
 7.3885560329496845e-06  7.4852343086213498e-06  7.5831776067067490e-06  7.6824024798563805e-06 
 7.7829256973099700e-06  7.8847642477305192e-06  7.9879353420754392e-06  8.0924564165052284e-06 
 8.1983451353302343e-06  8.3056193939959702e-06  8.4142973221074634e-06  8.5243972864932389e-06 
 8.6359378943093214e-06  8.7489379961839073e-06  8.8634166894031678e-06  8.9793933211387268e-06 
 9.0968874917173850e-06  9.2159190579336159e-06  9.3365081364054113e-06  9.4586751069740556e-06 
 9.5824406161483382e-06  9.7078255805938909e-06  9.8348511906681250e-06  9.9635389140014771e-06 
 1.0093910499125481e-05  1.0225987979148326e-05  1.0359793675478485e-05  1.0495350201597109e-05 
 1.0632680466879754e-05  1.0771807680468108e-05  1.0912755355192411e-05  1.1055547311545148e-05 
 1.1200207681706809e-05  1.1346760913624260e-05  1.1495231775142503e-05  1.1645645358190503e-05 
 1.1798027083021802e-05  1.1952402702510576e-05  1.2108798306503952e-05  1.2267240326231241e-05 
 1.2427755538770880e-05  1.2590371071575829e-05  1.2755114407058172e-05  1.2922013387233724e-05 
 1.3091096218427356e-05  1.3262391476039976e-05  1.3435928109377821e-05  1.3611735446544958e-05 
 1.3789843199399818e-05  1.3970281468576530e-05  1.4153080748572056e-05  1.4338271932899784e-05 
 1.4525886319310658e-05  1.4715955615082503e-05  1.4908511942378696e-05  1.5103587843676852e-05 
 1.5301216287268587e-05  1.5501430672831249e-05  1.5704264837072520e-05  1.5909753059448932e-05 
 1.6117930067959136e-05  1.6328831045013069e-05  1.6542491633377799e-05  1.6758947942201298e-05 
 1.6978236553114949e-05  1.7200394526415916e-05  1.7425459407330459e-05  1.7653469232359116e-05 
 1.7884462535705006e-05  1.8118478355786184e-05  1.8355556241833223e-05  1.8595736260573126e-05 
 1.8839059003000714e-05  1.9085565591238599e-05  1.9335297685486894e-05  1.9588297491063921e-05 
 1.9844607765538968e-05  2.0104271825958480e-05  2.0367333556166696e-05  2.0633837414222137e-05 
 2.0903828439911099e-05  2.1177352262359538e-05  2.1454455107744471e-05  2.1735183807106282e-05 
 2.2019585804263347e-05  2.2307709163830068e-05  2.2599602579339980e-05  2.2895315381475049e-05 
 2.3194897546402640e-05  2.3498399704221677e-05  2.3805873147519215e-05  2.4117369840038944e-05 
 2.4432942425463310e-05  2.4752644236310352e-05  2.5076529302947014e-05  2.5404652362720443e-05 
 2.5737068869208704e-05  2.6073835001592564e-05  2.6415007674149951e-05  2.6760644545874563e-05 
 2.7110804030220329e-05  2.7465545304973538e-05  2.7824928322253944e-05  2.8189013818646833e-05 
 2.8557863325467648e-05  2.8931539179160952e-05  2.9310104531835396e-05  2.9693623361936598e-05 
 3.0082160485059694e-05  3.0475781564903185e-05  3.0874553124366469e-05  3.1278542556792172e-05 
 3.1687818137355941e-05  3.2102449034604996e-05  3.2522505322147832e-05  3.2948057990496821e-05 
 3.3379178959065774e-05  3.3815941088324504e-05  3.4258418192112358e-05  3.4706685050113007e-05 
 3.5160817420492407e-05  3.5620892052702012e-05  3.6086986700449698e-05  3.6559180134840272e-05 
 3.7037552157688025e-05  3.7522183615003381e-05  3.8013156410656132e-05  3.8510553520217240e-05 
 3.9014459004982124e-05  3.9524958026177015e-05  4.0042136859351563e-05  4.0566082908959494e-05 
 4.1096884723130247e-05  4.1634632008633763e-05  4.2179415646041203e-05  4.2731327705083950e-05 
 4.3290461460213500e-05  4.3856911406365324e-05  4.4430773274928512e-05  4.5012144049924694e-05 
 4.5601121984398581e-05  4.6197806617022909e-05  4.6802298788920760e-05  4.7414700660707944e-05 
 4.8035115729758401e-05  4.8663648847695372e-05  4.9300406238111793e-05  4.9945495514522172e-05 
 5.0599025698549640e-05  5.1261107238350730e-05  5.1931852027281493e-05  5.2611373422807712e-05 
 5.3299786265662535e-05  5.3997206899254949e-05  5.4703753189331868e-05  5.5419544543898003e-05 
 5.6144701933395939e-05  5.6879347911150453e-05  5.7623606634080290e-05  5.8377603883681030e-05 
 5.9141467087282475e-05  5.9915325339584081e-05  6.0699309424472416e-05  6.1493551837123620e-05 
 6.2298186806395919e-05  6.3113350317514232e-05  6.3939180135052056e-05  6.4775815826214150e-05 
 6.5623398784423579e-05  6.6482072253217628e-05  6.7351981350456219e-05  6.8233273092847349e-05 
 6.9126096420792874e-05  7.0030602223560318e-05  7.0946943364783149e-05  7.1875274708295227e-05 
 7.2815753144303108e-05  7.3768537615900924e-05  7.4733789145932050e-05  7.5711670864202522e-05 
 7.6702348035050200e-05  7.7705988085274735e-05  7.8722760632433459e-05  7.9752837513506847e-05 
 8.0796392813939488e-05  8.1853602897060933e-05  8.2924646433891436e-05  8.4009704433337970e-05 
 8.5108960272784980e-05  8.6222599729085690e-05  8.7350811009958689e-05  8.8493784785795751e-05 
 8.9651714221885396e-05  9.0824795011058270e-05  9.2013225406759814e-05  9.3217206256555467e-05 
 9.4436941036074451e-05  9.5672635883397588e-05  9.6924499633895247e-05  9.8192743855520634e-05 
 9.9477582884565833e-05  1.0077923386188476e-04  1.0209791676959071e-04  1.0343385446823362e-04 
 1.0478727273446427e-04  1.0615840029919086e-04  1.0754746888623530e-04  1.0895471325149496e-04 
 1.1038037122261682e-04  1.1182468373919123e-04  1.1328789489347116e-04  1.1477025197162420e-04 
 1.1627200549552476e-04  1.1779340926509272e-04  1.1933472040118615e-04  1.2089619938905555e-04 
 1.2247811012236652e-04  1.2408071994779777e-04  1.2570429971022430e-04  1.2734912379849025e-04 
 1.2901547019178144e-04  1.3070362050660429e-04  1.3241386004438001e-04  1.3414647783966104e-04 
 1.3590176670897860e-04  1.3768002330032941e-04  1.3948154814330963e-04  1.4130664569990566e-04 
 1.4315562441594845e-04  1.4502879677324179e-04  1.4692647934237238e-04  1.4884899283621104e-04 
 1.5079666216411401e-04  1.5276981648683339e-04  1.5476878927214615e-04  1.5679391835121041e-04 
 1.5884554597566069e-04  1.6092401887544868e-04  1.6302968831744135e-04  1.6516291016478607e-04 
 1.6732404493705237e-04  1.6951345787116044e-04  1.7173151898310714e-04  1.7397860313049976e-04 
 1.7625509007590721e-04  1.7856136455104168e-04  1.8089781632177852e-04  1.8326484025402815e-04 
 1.8566283638046867e-04  1.8809220996815305e-04  1.9055337158699969e-04  1.9304673717917997e-04 
 1.9557272812941365e-04  1.9813177133618301e-04  2.0072429928388099e-04  2.0335075011590121e-04 
 2.0601156770868540e-04  2.0870720174673987e-04  2.1143810779863289e-04  2.1420474739398704e-04 
 2.1700758810147875e-04  2.1984710360785890e-04  2.2272377379800592e-04  2.2563808483602892e-04 
 2.2859052924742971e-04  2.3158160600234083e-04  2.3461182059985309e-04  2.3768168515344548e-04 
 2.4079171847753424e-04  2.4394244617515320e-04  2.4713440072678268e-04  2.5036812158033851e-04 
 2.5364415524234185e-04  2.5696305537027865e-04  2.6032538286617003e-04  2.6373170597136536e-04 
 2.6718260036257685e-04  2.7067864924917005e-04  2.7422044347172775e-04  2.7780858160190357e-04 
 2.8144367004358115e-04  2.8512632313535926e-04  2.8885716325437541e-04  2.9263682092148968e-04 
 2.9646593490784362e-04  3.0034515234281445e-04  3.0427512882338188e-04  3.0825652852492464e-04 
 3.1229002431346878e-04  3.1637629785940207e-04  3.2051603975267979e-04  3.2470994961953487e-04 
 3.2895873624071679e-04  3.3326311767127689e-04  3.3762382136192211e-04  3.4204158428195465e-04 
 3.4651715304382291e-04  3.5105128402930036e-04  3.5564474351731446e-04  3.6029830781345176e-04 
 3.6501276338115452e-04  3.6978890697463425e-04  3.7462754577352603e-04  3.7952949751930351e-04 
 3.8449559065347860e-04  3.8952666445761074e-04  3.9462356919514775e-04  3.9978716625512075e-04 
 4.0501832829772298e-04  4.1031793940179024e-04  4.1568689521421289e-04  4.2112610310130166e-04 
 4.2663648230213550e-04  4.3221896408391448e-04  4.3787449189934644e-04  4.4360402154609369e-04 
 4.4940852132830219e-04  4.5528897222025096e-04  4.6124636803213673e-04  4.6728171557803086e-04 
 4.7339603484603351e-04  4.7959035917065346e-04  4.8586573540744461e-04  4.9222322410992698e-04 
 4.9866389970882339e-04  5.0518885069363842e-04  5.1179917979661896e-04  5.1849600417911703e-04 
 5.2528045562039161e-04  5.3215368070888460e-04  5.3911684103599450e-04  5.4617111339238969e-04 
 5.5331768996688842e-04  5.6055777854794155e-04  5.6789260272775059e-04  5.7532340210906001e-04 
 5.8285143251465127e-04  5.9047796619958004e-04  5.9820429206619129e-04  6.0603171588194588e-04 
 6.1396156050009870e-04  6.2199516608326397e-04  6.3013389032990654e-04  6.3837910870379370e-04 
 6.4673221466645596e-04  6.5519461991268206e-04  6.6376775460909982e-04  6.7245306763587839e-04 
 6.8125202683159069e-04  6.9016611924128295e-04  6.9919685136778933e-04  7.0834574942633369e-04 
 7.1761435960246173e-04  7.2700424831335432e-04  7.3651700247255223e-04  7.4615422975814975e-04 
 7.5591755888449559e-04  7.6580863987744984e-04  7.7582914435324216e-04  7.8598076580097855e-04 
 7.9626521986884611e-04  8.0668424465405906e-04  8.1723960099660544e-04  8.2793307277682893e-04 
 8.3876646721691317e-04  8.4974161518630196e-04  8.6086037151112446e-04  8.7212461528766365e-04 
 8.8353625019992727e-04  8.9509720484137723e-04  9.0680943304086235e-04  9.1867491419282568e-04 
 9.3069565359182296e-04  9.4287368277142273e-04  9.5521105984754150e-04  9.6770986986626927e-04 
 9.8037222515624757e-04  9.9320026568565779e-04  1.0061961594238827e-03  1.0193621027078932e-03 
 1.0327003206134422e-03  1.0462130673311012e-03  1.0599026265472274e-03  1.0737713118299116e-03 
 1.0878214670199742e-03  1.1020554666270833e-03  1.1164757162310510e-03  1.1310846528883834e-03 
 1.1458847455441434e-03  1.1608784954492172e-03  1.1760684365830249e-03  1.1914571360817714e-03 
 1.2070471946722997e-03  1.2228412471116160e-03  1.2388419626321754e-03  1.2550520453929830e-03 
 1.2714742349366074e-03  1.2881113066521674e-03  1.3049660722443811e-03  1.3220413802087498e-03 
 1.3393401163129626e-03  1.3568652040845891e-03  1.3746196053051763e-03  1.3926063205107876e-03 
 1.4108283894991027e-03  1.4292888918431520e-03  1.4479909474117679e-03  1.4669377168968550e-03 
 1.4861324023475516e-03  1.5055782477113836e-03  1.5252785393825008e-03  1.5452366067570838e-03 
 1.5654558227960220e-03  1.5859396045949487e-03  1.6066914139617416e-03  1.6277147580015751e-03 
 1.6490131897096295e-03  1.6705903085715555e-03  1.6924497611717996e-03  1.7145952418098735e-03 
 1.7370304931247152e-03  1.7597593067271962e-03  1.7827855238409110e-03  1.8061130359513567e-03 
 1.8297457854636024e-03  1.8536877663685634e-03  1.8779430249179965e-03  1.9025156603083274e-03 
 1.9274098253734215e-03  1.9526297272864253e-03  1.9781796282707879e-03  2.0040638463205882e-03 
 2.0302867559302820e-03  2.0568527888340060e-03  2.0837664347545526e-03  2.1110322421621381e-03 
 2.1386548190431135e-03  2.1666388336787092e-03  2.1949890154340066e-03  2.2237101555571985e-03 
 2.2528071079893248e-03  2.2822847901845999e-03  2.3121481839414757e-03  2.3424023362445729e-03 
 2.3730523601176402e-03  2.4041034354876614e-03  2.4355608100602786e-03  2.4674298002066658e-03 
 2.4997157918620109e-03  2.5324242414357457e-03  2.5655606767336974e-03  2.5991306978922998e-03 
 2.6331399783250287e-03  2.6675942656812215e-03  2.7024993828174524e-03  2.7378612287815847e-03 
 2.7736857798097555e-03  2.8099790903363541e-03  2.8467472940172430e-03  2.8839966047663535e-03 
 2.9217333178058616e-03  2.9599638107300858e-03  2.9986945445833238e-03  3.0379320649517798e-03 
 3.0776830030697848e-03  3.1179540769404913e-03  3.1587520924712337e-03  3.2000839446237389e-03 
 3.2419566185793954e-03  3.2843771909197620e-03  3.3273528308225293e-03  3.3708908012731278e-03 
 3.4149984602921926e-03  3.4596832621790682e-03  3.5049527587716323e-03  3.5508146007225561e-03 
 3.5972765387922846e-03  3.6443464251589347e-03  3.6920322147453327e-03  3.7403419665634177e-03 
 3.7892838450762269e-03  3.8388661215777178e-03  3.8890971755906265e-03  3.9399854962826374e-03 
 3.9915396839010674e-03  4.0437684512263277e-03  4.0966806250444035e-03  4.1502851476386098e-03 
 4.2045910783008464e-03  4.2596075948626490e-03  4.3153439952462701e-03  4.3718096990360174e-03 
 4.4290142490702299e-03  4.4869673130540173e-03  4.5456786851931288e-03  4.6051582878491914e-03 
 4.6654161732166246e-03  4.7264625250214723e-03  4.7883076602424860e-03  4.8509620308547167e-03 
 4.9144362255959199e-03  4.9787409717560833e-03  5.0438871369903587e-03  5.1098857311557251e-03 
 5.1767479081716783e-03  5.2444849679052739e-03  5.3131083580808276e-03  5.3826296762146059e-03 
 5.4530606715748574e-03  5.5244132471674052e-03  5.5966994617473636e-03  5.6699315318570415e-03 
 5.7441218338905907e-03  5.8192829061856311e-03  5.8954274511422745e-03  5.9725683373698492e-03 
 6.0507186018617289e-03  6.1298914521986190e-03  6.2101002687806649e-03  6.2913586070887737e-03 
 6.3736801999755227e-03  6.4570789599860436e-03  6.5415689817092757e-03  6.6271645441599832e-03 
 6.7138801131919465e-03  6.8017303439427230e-03  6.8907300833104135e-03  6.9808943724627755e-03 
 7.0722384493792896e-03  7.1647777514263593e-03  7.2585279179662853e-03  7.3535047930003419e-03 
 7.4497244278464722e-03  7.5472030838519737e-03  7.6459572351417196e-03  7.7460035714023200e-03 
 7.8473590007027260e-03  7.9500406523517250e-03  8.0540658797928384e-03  8.1594522635370925e-03 
 8.2662176141341682e-03  8.3743799751824291e-03  8.4839576263783349e-03  8.5949690866057339e-03 
 8.7074331170656459e-03  8.8213687244468597e-03  8.9367951641382126e-03  9.0537319434827457e-03 
 9.1721988250744822e-03  9.2922158300983784e-03  9.4138032417139354e-03  9.5369816084830989e-03 
 9.6617717478430423e-03  9.7881947496243175e-03  9.9162719796151329e-03  1.0046025083172188e-02 
 1.0177475988878812e-02  1.0310646912250931e-02  1.0445560359491559e-02  1.0582239131294387e-02 
 1.0720706326697154e-02  1.0860985346985453e-02  1.1003099899647605e-02  1.1147074002381222e-02 
 1.1292931987152355e-02  1.1440698504307590e-02  1.1590398526740021e-02  1.1742057354109742e-02 
 1.1895700617119536e-02  1.2051354281846543e-02  1.2209044654130575e-02  1.2368798384019860e-02 
 1.2530642470274979e-02  1.2694604264931717e-02  1.2860711477923616e-02  1.3028992181765019e-02 
 1.3199474816295402e-02  1.3372188193485771e-02  1.3547161502307937e-02  1.3724424313667546e-02 
 1.3904006585401647e-02  1.4085938667341541e-02  1.4270251306442109e-02  1.4456975651978047e-02 
 1.4646143260808171e-02  1.4837786102708609e-02  1.5031936565775764e-02  1.5228627461900008e-02 
 1.5427892032310911e-02  1.5629763953195153e-02  1.5834277341387842e-02  1.6041466760138328e-02 
 1.6251367224951525e-02  1.6464014209505565e-02  1.6679443651646957e-02  1.6897691959464167e-02 
 1.7118796017440666e-02  1.7342793192688506e-02  1.7569721341263465e-02  1.7799618814562702e-02 
 1.8032524465806419e-02  1.8268477656604009e-02  1.8507518263606308e-02  1.8749686685244838e-02 
 1.8995023848559243e-02  1.9243571216114048e-02  1.9495370793005944e-02  1.9750465133962721e-02 
 2.0008897350535158e-02  2.0270711118382950e-02  2.0535950684655992e-02  2.0804660875472298e-02 
 2.1076887103493661e-02  2.1352675375600545e-02  2.1632072300667340e-02  2.1915125097439370e-02 
 2.2201881602513022e-02  2.2492390278420097e-02  2.2786700221818279e-02  2.3084861171788505e-02 
 2.3386923518240964e-02  2.3692938310431146e-02  2.4002957265587280e-02  2.4317032777650648e-02 
 2.4635217926130340e-02  2.4957566485073746e-02  2.5284132932154549e-02  2.5614972457879574e-02 
 2.5950140974916092e-02  2.6289695127541209e-02  2.6633692301214911e-02  2.6982190632278271e-02 
 2.7335249017778718e-02  2.7692927125423702e-02  2.8055285403664781e-02  2.8422385091913319e-02 
 2.8794288230890419e-02  2.9171057673111730e-02  2.9552757093509737e-02  2.9939451000194964e-02 
 3.0331204745358026e-02  3.0728084536314246e-02  3.1130157446692914e-02  3.1537491427772860e-02 
 3.1950155319966388e-02  3.2368218864453444e-02  3.2791752714968085e-02  3.3220828449739108e-02 
 3.3655518583586910e-02  3.4095896580178739e-02  3.4542036864444133e-02  3.4994014835153027e-02 
 3.5451906877658257e-02  3.5915790376804715e-02  3.6385743730007913e-02  3.6861846360503069e-02 
 3.7344178730767917e-02  3.7832822356121024e-02  3.8327859818498081e-02  3.8829374780408481e-02 
 3.9337451999074430e-02  3.9852177340755190e-02  4.0373637795258564e-02  4.0901921490642486e-02 
 4.1437117708108866e-02  4.1979316897092271e-02  4.2528610690546108e-02  4.3085091920428871e-02 
 4.3648854633392860e-02  4.4219994106678387e-02  4.4798606864215898e-02  4.5384790692938388e-02 
 4.5978644659308184e-02  4.6580269126059032e-02  4.7189765769157725e-02  4.7807237594987603e-02 
 4.8432788957756892e-02  4.9066525577134763e-02  4.9708554556118251e-02  5.0358984399132896e-02 
 5.1017925030370240e-02  5.1685487812365323e-02  5.2361785564817145e-02  5.3046932583655539e-02 
 5.3741044660357409e-02  5.4444239101515753e-02  5.5156634748664828e-02  5.5878351998364544e-02 
 5.6609512822547968e-02  5.7350240789134407e-02  5.8100661082913348e-02  5.8860900526700483e-02 
 5.9631087602771277e-02  6.0411352474574687e-02  6.1201827008731176e-02  6.2002644797318408e-02 
 6.2813941180448682e-02  6.3635853269141687e-02  6.4468519968496674e-02  6.5312082001167657e-02 
 6.6166681931145901e-02  6.7032464187853608e-02  6.7909575090552843e-02  6.8798162873073707e-02 
 6.9698377708866444e-02  7.0610371736380823e-02  7.1534299084778291e-02  7.2470315899979529e-02 
 7.3418580371054240e-02  7.4379252756954964e-02  7.5352495413601422e-02  7.6338472821319017e-02 
 7.7337351612636371e-02  7.8349300600446634e-02  7.9374490806537287e-02  8.0413095490493219e-02 
 8.1465290178977981e-02  8.2531252695398266e-02  8.3611163189956414e-02  8.4705204170096360e-02 
 8.5813560531347602e-02  8.6936419588573233e-02  8.8073971107626423e-02  8.9226407337421362e-02 
 9.0393923042423982e-02  9.1576715535566885e-02  9.2774984711596759e-02  9.3988933080856318e-02 
 9.5218765803509284e-02  9.6464690724212918e-02  9.7726918407244248e-02  9.9005662172085923e-02 
 1.0030113812947772e-01  1.0161356521793981e-01  1.0294316524077389e-01  1.0429016290354831e-01 
 1.0565478585207413e-01  1.0703726471087754e-01  1.0843783312217614e-01  1.0985672778536495e-01 
 1.1129418849701907e-01  1.1275045819142018e-01  1.1422578298161280e-01  1.1572041220099753e-01 
 1.1723459844547002e-01  1.1876859761610947e-01  1.2032266896242676e-01  1.2189707512617838e-01 
 1.2349208218575310e-01  1.2510795970114033e-01  1.2674498075948604e-01  1.2840342202124547e-01 
 1.3008356376693908e-01  1.3178568994452072e-01  1.3351008821736571e-01  1.3525705001288632e-01 
 1.3702687057178406e-01  1.3881984899794556e-01  1.4063628830899241e-01  1.4247649548749142e-01 
 1.4434078153283594e-01  1.4622946151380425e-01  1.4814285462180871e-01  1.5008128422483857e-01 
 1.5204507792211036e-01  1.5403456759943299e-01  1.5605008948529711e-01  1.5809198420769854e-01 
 1.6016059685170533e-01  1.6225627701777776e-01  1.6437937888085180e-01  1.6653026125019554e-01 
 1.6870928763004872e-01  1.7091682628105578e-01  1.7315325028250295e-01  1.7541893759536928e-01 
 1.7771427112620330e-01  1.8003963879183482e-01  1.8239543358493426e-01  1.8478205364042799e-01 
 1.8719990230278610e-01  1.8964938819418733e-01  1.9213092528357711e-01  1.9464493295663013e-01 
 1.9719183608662655e-01  1.9977206510625725e-01  2.0238605608036775e-01  2.0503425077965431e-01 
 2.0771709675532390e-01  2.1043504741473193e-01  2.1318856209800882e-01  2.1597810615568971e-01 
 2.1880415102735964e-01  2.2166717432132829e-01  2.2456765989534655e-01  2.2750609793837989e-01 
 2.3048298505345172e-01  2.3349882434156896e-01  2.3655412548674978e-01  2.3964940484215944e-01 
 2.4278518551737624e-01  2.4596199746679789e-01  2.4918037757920455e-01  2.5244086976849556e-01 
 2.5574402506561117e-01  2.5909040171165842e-01  2.6248056525225510e-01  2.6591508863310853e-01 
 2.6939455229684461e-01  2.7291954428110399e-01  2.7649066031792180e-01  2.8010850393440789e-01 
 2.8377368655474411e-01  2.8748682760351751e-01  2.9124855461040183e-01  2.9505950331621505e-01 
 2.9892031778035877e-01  3.0283165048966676e-01  3.0679416246867613e-01  3.1080852339134246e-01 
 3.1487541169421629e-01  3.1899551469110038e-01  3.2316952868920751e-01  3.2739815910683778e-01 
 3.3168212059259639e-01  3.3602213714617074e-01  3.4041894224068792e-01  3.4487327894667380e-01 
 3.4938590005763354e-01  3.5395756821727509e-01  3.5858905604839869e-01  3.6328114628347186e-01 
 3.6803463189691038e-01  3.7285031623909765e-01  3.7772901317214908e-01  3.8267154720745822e-01 
 3.8767875364504062e-01  3.9275147871470217e-01  3.9789057971905295e-01  4.0309692517839429e-01 
 4.0837139497750047e-01  4.1371488051432126e-01  4.1912828485063036e-01  4.2461252286464513e-01 
 4.3016852140564288e-01  4.3579721945060090e-01  4.4149956826288572e-01  4.4727653155301844e-01 
 4.5312908564154514e-01  4.5905821962403720e-01  4.6506493553824774e-01  4.7115024853346388e-01 
 4.7731518704206527e-01  4.8356079295333321e-01  4.8988812178953173e-01  4.9629824288429364e-01 
 5.0279223956334096e-01  5.0937120932756852e-01  5.1603626403852543e-01  5.2278853010632076e-01 
 5.2962914867999178e-01  5.3655927584035801e-01  5.4358008279540415e-01  5.5069275607821611e-01 
 5.5789849774750722e-01  5.6519852559077011e-01  5.7259407333008494e-01  5.8008639083062297e-01 
 5.8767674431187189e-01  5.9536641656163736e-01  6.0315670715283121e-01  6.1104893266310500e-01 
 6.1904442689735473e-01  6.2714454111313567e-01  6.3535064424902932e-01  6.4366412315599719e-01 
 6.5208638283176101e-01  6.6061884665825232e-01  6.6926295664216573e-01  6.7802017365866207e-01 
 6.8689197769826038e-01  6.9587986811695901e-01  7.0498536388963084e-01  7.1421000386673339e-01 
 7.2355534703437818e-01  7.3302297277780515e-01  7.4261448114829565e-01  7.5233149313359460e-01 
 7.6217565093185458e-01  7.7214861822917402e-01  7.8225208048076267e-01  7.9248774519578802e-01 
 8.0285734222594907e-01  8.1336262405782445e-01  8.2400536610904740e-01  8.3478736702835532e-01 
 8.4571044899956549e-01  8.5677645804952940e-01  8.6798726436011431e-01  8.7934476258427008e-01 
 8.9085087216622805e-01  9.0250753766589309e-01  9.1431672908747941e-01  9.2628044221244521e-01 
 9.3840069893678013e-01  9.5067954761272011e-01  9.6311906339491571e-01  9.7572134859114201e-01 
 9.8848853301759132e-01  1.0014227743588184e+00  1.0145262585323955e+00  1.0278012000583350e+00 
 1.0412498424333512e+00  1.0548744585100136e+00  1.0686773508808676e+00  1.0826608522675758e+00 
 1.0968273259151551e+00  1.1111791659913688e+00  1.1257187979913494e+00  1.1404486791475097e+00 
 1.1553712988448239e+00  1.1704891790415413e+00  1.1858048746953913e+00  1.2013209741953959e+00 
 1.2170400997992992e+00  1.2329649080767415e+00  1.2490980903582252e+00  1.2654423731899531e+00 
 1.2820005187946260e+00  1.2987753255382597e+00  1.3157696284031208e+00  1.3329862994668411e+00 
 1.3504282483878083e+00  1.3680984228968998e+00  1.3859998092956720e+00  1.4041354329610241e+00 
 1.4225083588565297e+00  1.4411216920503844e+00  1.4599785782402102e+00  1.4790822042846483e+00 
 1.4984357987419643e+00  1.5180426324156953e+00  1.5379060189073870e+00 
  </PP_RAB>
</PP_MESH>


<PP_LOCAL>
4.5002545368378222e+01 4.5002545348833401e+01 4.5002545328764000e+01 4.5002545311401796e+01 
4.5002545293584873e+01 4.5002545275319669e+01 4.5002545256597898e+01 4.5002545237422346e+01 
4.5002545217739652e+01 4.5002545197525833e+01 4.5002545176855861e+01 4.5002545155676849e+01 
4.5002545133916371e+01 4.5002545111638895e+01 4.5002545088831312e+01 4.5002545065443670e+01 
4.5002545041471492e+01 4.5002545016906019e+01 4.5002544991745587e+01 4.5002544965972113e+01 
4.5002544939564068e+01 4.5002544912523895e+01 4.5002544884822591e+01 4.5002544856450157e+01 
4.5002544827413686e+01 4.5002544797677523e+01 4.5002544767216442e+01 4.5002544736049856e+01 
4.5002544704159313e+01 4.5002544671500878e+01 4.5002544638089567e+01 4.5002544603914330e+01 
4.5002544568938298e+01 4.5002544533154570e+01 4.5002544496559288e+01 4.5002544459146328e+01 
4.5002544420905622e+01 4.5002544381783132e+01 4.5002544341794405e+01 4.5002544300949538e+01 
4.5002544259200100e+01 4.5002544216557006e+01 4.5002544172998526e+01 4.5002544128519304e+01 
4.5002544083123830e+01 4.5002544036774999e+01 4.5002543989481651e+01 4.5002543941221759e+01 
4.5002543892003054e+01 4.5002543841847150e+01 4.5002543790703008e+01 4.5002543738591157e+01 
4.5002543685507767e+01 4.5002543631448404e+01 4.5002543576428423e+01 4.5002543520441719e+01 
4.5002543463498256e+01 4.5002543405611767e+01 4.5002543346816736e+01 4.5002543287070253e+01 
4.5002543226419398e+01 4.5002543164920759e+01 4.5002543102549346e+01 4.5002543039375865e+01 
4.5002542975430586e+01 4.5002542910710616e+01 4.5002542845289973e+01 4.5002542779221201e+01 
4.5002542712560540e+01 4.5002542645409989e+01 4.5002542577800142e+01 4.5002542509790928e+01 
4.5002542441498257e+01 4.5002542373030678e+01 4.5002542304526230e+01 4.5002542236074738e+01 
4.5002542167767835e+01 4.5002542099829178e+01 4.5002542032400406e+01 4.5002541965643758e+01 
4.5002541899830511e+01 4.5002541835122152e+01 4.5002541771709787e+01 4.5002541709902381e+01 
4.5002541650074733e+01 4.5002541592476526e+01 4.5002541537388986e+01 4.5002541485314602e+01 
4.5002541436655022e+01 4.5002541391768318e+01 4.5002541351237241e+01 4.5002541315663336e+01 
4.5002541285512400e+01 4.5002541261487707e+01 4.5002541244420755e+01 4.5002541234972469e+01 
4.5002541233977681e+01 4.5002541242495887e+01 4.5002541261551556e+01 4.5002541292142247e+01 
4.5002541335551030e+01 4.5002541393191535e+01 4.5002541466422592e+01 4.5002541556998061e+01 
4.5002541666643033e+01 4.5002541797120728e+01 4.5002541950690947e+01 4.5002542129740149e+01 
4.5002542336754296e+01 4.5002542574410164e+01 4.5002542845856418e+01 4.5002543154498319e+01 
4.5002543503867159e+01 4.5002543898110140e+01 4.5002544341669292e+01 4.5002544839341795e+01 
4.5002545396597199e+01 4.5002546019204367e+01 4.5002546713607984e+01 4.5002547487116729e+01 
4.5002548347540660e+01 4.5002549303435700e+01 4.5002550364412613e+01 4.5002551540972441e+01 
4.5002552844621249e+01 4.5002554288359860e+01 4.5002555886441883e+01 4.5002557654167340e+01 
4.5002559609046095e+01 4.5002561770294975e+01 4.5002564158857787e+01 4.5002566798700883e+01 
4.5002569715419533e+01 4.5002572937857565e+01 4.5002576498444242e+01 4.5002580432394694e+01 
4.5002584779518394e+01 4.5002589583764980e+01 4.5002594893908608e+01 4.5002600764082182e+01 
4.5002607255224426e+01 4.5002614435398776e+01 4.5002622379431443e+01 4.5002631171100361e+01 
4.5002640904983956e+01 4.5002651686012541e+01 4.5002663630766527e+01 4.5002676871375570e+01 
4.5002691554658007e+01 4.5002707844825487e+01 4.5002725927475318e+01 4.5002746008888828e+01 
4.5002768320575171e+01 4.5002793125919290e+01 4.5002820717667078e+01 4.5002851423513114e+01 
4.5002885617624187e+01 4.5002923717195877e+01 4.5002966191797597e+01 4.5003013574829204e+01 
4.5003066464295728e+01 4.5003125537604262e+01 4.5003191558000324e+01 4.5003265386995501e+01 
4.5003348002978740e+01 4.5003440510026643e+01 4.5003544159294314e+01 4.5003660367800414e+01 
4.5003790740407098e+01 4.5003937095779094e+01 4.5004101502315862e+01 4.5004286308078441e+01 
4.5004494169661221e+01 4.5004728116329396e+01 4.5004991591731795e+01 4.5005288503276930e+01 
4.5005623307064567e+01 4.5006001076264049e+01 4.5006427579685429e+01 4.5006909393972769e+01 
4.5007454010617920e+01 4.5008069975810400e+01 4.5008767039742693e+01 4.5009556308023285e+01 
4.5010450472442379e+01 4.5011464011309450e+01 4.5012613435147223e+01 4.5013917611112028e+01 
4.5015398093519522e+01 4.5017079481702673e+01 4.5018989850758523e+01 4.5021161310079407e+01 
4.5023630523279316e+01 4.5026439284269884e+01 4.5029635385766724e+01 4.5033273423591716e+01 
4.5037415596445470e+01 4.5042132946726120e+01 4.5047506579161791e+01 4.5053628798322762e+01 
4.5060604781675814e+01 4.5068554535502713e+01 4.5077614534444976e+01 4.5087939811152111e+01 
4.5099706657747468e+01 4.5113115237928092e+01 4.5128392317692459e+01 4.5145794729860341e+01 
4.5165613276672424e+01 4.5188175780535765e+01 4.5213851519159107e+01 4.5243056709763756e+01 
4.5276258028001259e+01 4.5313977666093415e+01 4.5356799196907595e+01 4.5405372238439966e+01 
4.5460417448283771e+01 4.5522730754814695e+01 4.5593188600699904e+01 4.5672751015345618e+01 
4.5762462601959740e+01 4.5863454163225299e+01 4.5976940113147656e+01 4.6104213242150422e+01 
4.6246637841475007e+01 4.6405634477923421e+01 4.6582660758554070e+01 4.6779187386523681e+01 
4.6996662150299372e+01 4.7236470108785291e+01 4.7499878605287449e+01 4.7787970825653112e+01 
4.8101573836827185e+01 4.8441167977640724e+01 4.8806785788359775e+01 4.9197901682469897e+01 
4.9613315576619094e+01 5.0051028279685788e+01 5.0508114154347950e+01 5.0980617721024771e+01 
5.1463451849746534e+01 5.1950325025582615e+01 5.2433732731738658e+01 5.2904977789257551e+01 
5.3354276298352396e+01 5.3770966835090547e+01 5.4143796238064724e+01 5.4461319438901484e+01 
5.4712424123434531e+01 5.4886963264950396e+01 5.4976464105210603e+01 5.4974894218529961e+01 
5.4879452619360698e+01 5.4691306723877503e+01 5.4416206288419019e+01 5.4064890758006648e+01 
5.3653209372160873e+01 5.3201880088397004e+01 5.2735810702497552e+01 5.2282969669996149e+01 
5.1872809746926883e+01 5.1534302997947407e+01 5.1293711073947776e+01 5.1172257717730240e+01 
5.1164017126893569e+01 5.1170534377558496e+01 5.1177217615837293e+01 5.1184069514771785e+01 
5.1191095024065106e+01 5.1198298349191404e+01 5.1205682849810067e+01 5.1213253178538849e+01 
5.1221013957226788e+01 5.1228969516161925e+01 5.1237123507005791e+01 5.1245481351512574e+01 
5.1254047474786269e+01 5.1262826208753772e+01 5.1271822623699904e+01 5.1281040898676068e+01 
5.1290486247842054e+01 5.1300164167477966e+01 5.1310078127451078e+01 5.1320233575505810e+01 
5.1330636830779426e+01 5.1341291679293128e+01 5.1352202976771068e+01 5.1363376313241609e+01 
5.1374816514155292e+01 5.1386528613179649e+01 5.1398518377305798e+01 5.1410789932599826e+01 
5.1423348241134917e+01 5.1436198699456789e+01 5.1449345752477363e+01 5.1462794719880101e+01 
5.1476549764287448e+01 5.1490615247774002e+01 5.1504995760358746e+01 5.1519695807202943e+01 
5.1534718892069442e+01 5.1550068380675036e+01 5.1565748602792816e+01 5.1581762645856763e+01 
5.1598112423830173e+01 5.1614800339806969e+01 5.1631829280049992e+01 5.1649200132509442e+01 
5.1666913606920367e+01 5.1684970206782332e+01 5.1703369199803589e+01 5.1722109639274215e+01 
5.1741189239217711e+01 5.1760605130533079e+01 5.1780353478730540e+01 5.1800428592864421e+01 
5.1820824162737395e+01 5.1841532838117388e+01 5.1862544888510257e+01 5.1883849217660021e+01 
5.1905433471749610e+01 5.1927282443015351e+01 5.1949379230785027e+01 5.1971704653796529e+01 
5.1994236299588671e+01 5.2016949891890086e+01 5.2039817387706194e+01 5.2062806919662883e+01 
5.2085883951252477e+01 5.2109009373497500e+01 5.2132139633704419e+01 5.2155226670295519e+01 
5.2178217047626703e+01 5.2201051773767261e+01 5.2223665501602831e+01 5.2245986648604102e+01 
5.2267936319650353e+01 5.2289427360302327e+01 5.2310364795757430e+01 5.2330644224451468e+01 
5.2350150901878493e+01 5.2368759892447493e+01 5.2386334684242108e+01 5.2402725895921236e+01 
5.2417770676441336e+01 5.2431291913825262e+01 5.2443096635123553e+01 5.2452974882972526e+01 
5.2460698912863784e+01 5.2466021357115707e+01 5.2468673850375758e+01 5.2468365975967330e+01 
5.2464783572737325e+01 5.2457586840511780e+01 5.2446408987176902e+01 5.2430854643787697e+01 
5.2410497671379446e+01 5.2384879962594034e+01 5.2353509359169230e+01 5.2315857745877430e+01 
5.2271359786076523e+01 5.2219410907392025e+01 5.2159365821542274e+01 5.2090537192552702e+01 
5.2012194439208791e+01 5.1923562669370547e+01 5.1823822159865472e+01 5.1712108046733057e+01 
5.1587510500072980e+01 5.1449075745462522e+01 5.1295807453172387e+01 5.1126669141210819e+01 
5.0940587489530508e+01 5.0736456747158229e+01 5.0513144482267407e+01 5.0269498717810606e+01 
5.0004356759727528e+01 4.9716555829291451e+01 4.9404945712811369e+01 4.9068403652635332e+01 
4.8705851663821292e+01 4.8316276387726184e+01 4.7898751636102070e+01 4.7452463843203496e+01 
4.6976740333325303e+01 4.6471080382755581e+01 4.5935189167730357e+01 4.5369014010784404e+01 
4.4772783123243613e+01 4.4147045738550140e+01 4.3492713394752116e+01 4.2811101592229463e+01 
4.2103970164220662e+01 4.1373561788536193e+01 4.0622636901394188e+01 3.9854503194327179e+01 
3.9073037817413898e+01 3.8282700576627825e+01 3.7488535836755588e+01 3.6696160930492624e+01 
3.5911739185772760e+01 3.5141935797732295e+01 3.4393855095235637e+01 3.3674958016340781e+01 
3.2992959749536446e+01 3.2355707731649233e+01 3.1771041580815041e+01 3.1246637126341188e+01 
3.0789837690630439e+01 3.0407477686340467e+01 3.0105703202974972e+01 2.9889795909908230e+01 
2.9764007212788862e+01 2.9731409326260358e+01 2.9793770072549854e+01 2.9951458064384415e+01 
3.0203383253898412e+01 3.0546977205754995e+01 3.0978215580061260e+01 3.1491683312285769e+01 
3.2080681421426931e+01 3.2737371829772783e+01 3.3452955322402254e+01 3.4217875867926075e+01 
3.5022043545563271e+01 3.5855067497622436e+01 3.6706490126823759e+01 3.7566014131270478e+01 
3.8423714574967839e+01 3.9270229348220639e+01 4.0096922720687061e+01 4.0896018290183264e+01 
4.1660699187912861e+01 4.2385174949000593e+01 4.3064715929976387e+01 4.3695657339773817e+01 
4.4275375863002502e+01 4.4802242642772235e+01 4.5275556767205138e+01 4.5695463576710381e+01 
4.6062862082949003e+01 4.6379305601748356e+01 4.6646899288705278e+01 4.6868197863232567e+01 
4.7046106336204616e+01 4.7183785932290412e+01 4.7284566960297980e+01 4.7351869892674920e+01 
4.7389135444557709e+01 4.7399764031843219e+01 4.7387064664281020e+01 4.7354213089154847e+01 
4.7304218716833475e+01 4.7239899726450545e+01 4.7163865631742397e+01 4.7078506488971719e+01 
4.6985987931302340e+01 4.6888251178055754e+01 4.6787017189167813e+01 4.6683794182040643e+01 
4.6579887800958623e+01 4.6476413256546763e+01 4.6374308838094322e+01 4.6274350300104047e+01 
4.6177165664123955e+01 4.6083250063837397e+01 4.5992980329996726e+01 4.5906629070114199e+01 
4.5824378059845863e+01 4.5746330809303025e+01 4.5672524212090906e+01 4.5602939223191598e+01 
4.5537510546575433e+01 4.5476135333938338e+01 4.5418680916602696e+01 4.5364991613943744e+01 
4.5314894668466465e+01 4.5268205365709335e+01 4.5224731403267015e+01 4.5184276576782040e+01 
4.5146643849615657e+01 4.5111637870687858e+01 4.5079067004700320e+01 4.5048744935169033e+01 
4.5020491895735979e+01 4.4994135581287310e+01 4.4969511786636531e+01 4.4946464815241903e+01 
4.4924847695872273e+01 4.4904522241274101e+01 4.4885358978645129e+01 4.4867236977802023e+01 
4.4850043599324103e+01 4.4833674182094008e+01 4.4818031686525494e+01 4.4803026307072017e+01 
4.4788575065639797e+01 4.4774601395202872e+01 4.4761034721308846e+01 4.4747810047656998e+01 
4.4734867550474398e+01 4.4722152185491282e+01 4.4709613310214415e+01 4.4697204323456347e+01 
4.4684882323483087e+01 4.4672607785504503e+01 4.4660344258835153e+01 4.4648058083718837e+01 
4.4635718127518935e+01 4.4623295539734912e+01 4.4610763525185796e+01 4.4598097134566117e+01 
4.4585273071491322e+01 4.4572269515116282e+01 4.4559065957374479e+01 4.4545643053875388e+01 
4.4531982487521958e+01 4.4518066843917488e+01 4.4503879497657891e+01 4.4489404508665423e+01 
4.4474626527725285e+01 4.4459530710466638e+01 4.4444102639049554e+01 4.4428328250872227e+01 
4.4412193773673224e+01 4.4395685666421578e+01 4.4378790565456868e+01 4.4361495235370370e+01 
4.4343786524157167e+01 4.4325651322217894e+01 4.4307076524811734e+01 4.4288048997604243e+01 
4.4268555544986029e+01 4.4248582880856475e+01 4.4228117601610997e+01 4.4207146161076238e+01 
4.4185654847180928e+01 4.4163629760152958e+01 4.4141056792064987e+01 4.4117921607564980e+01 
4.4094209625646741e+01 4.4069906002325439e+01 4.4044995614105943e+01 4.4019463042137374e+01 
4.3993292556960853e+01 4.3966468103774311e+01 4.3938973288136900e+01 4.3910791362057950e+01 
4.3881905210413734e+01 4.3852297337646554e+01 4.3821949854710759e+01 4.3790844466232926e+01 
4.3758962457859901e+01 4.3726284683777621e+01 4.3692791554382040e+01 4.3658463024095646e+01 
4.3623278579319468e+01 4.3587217226521162e+01 4.3550257480456771e+01 4.3512377352531033e+01 
4.3473554339299916e+01 4.3433765411124504e+01 4.3392987000984576e+01 4.3351194993461881e+01 
4.3308364713904467e+01 4.3264470917785900e+01 4.3219487780270114e+01 4.3173388885996133e+01 
4.3126147219095813e+01 4.3077735153457901e+01 4.3028124443253859e+01 4.2977286213733116e+01 
4.2925190952309045e+01 4.2871808499942446e+01 4.2817108042838974e+01 4.2761058104470571e+01 
4.2703626537939449e+01 4.2644780518691121e+01 4.2584486537597442e+01 4.2522710394415412e+01 
4.2459417191647198e+01 4.2394571328805370e+01 4.2328136497109860e+01 4.2260075674625973e+01 
4.2190351121869199e+01 4.2118924377890835e+01 4.2045756256870661e+01 4.1970806845235387e+01 
4.1894035499332318e+01 4.1815400843680784e+01 4.1734860769830064e+01 4.1652372435859149e+01 
4.1567892266540909e+01 4.1481375954215501e+01 4.1392778460400521e+01 4.1302054018181401e+01 
4.1209156135418922e+01 4.1114037598817077e+01 4.1016650478895436e+01 4.0916946135910813e+01 
4.0814875226774006e+01 4.0710387713014107e+01 4.0603432869838663e+01 4.0493959296339050e+01 
4.0381914926901480e+01 4.0267247043866540e+01 4.0149902291507708e+01 4.0029826691367788e+01 
3.9906965659025197e+01 3.9781264022339187e+01 3.9652666041233481e+01 3.9521115429076772e+01 
3.9386555375718551e+01 3.9248928572236224e+01 3.9108177237451052e+01 3.8964243146270995e+01 
3.8817067659912148e+01 3.8666591758055752e+01 3.5462756072991269e+01 3.5305500925797674e+01 
3.5144766364608351e+01 3.4980492205008261e+01 3.4812618072604785e+01 3.4641083447811546e+01 
3.4465827712881705e+01 3.4286790201224683e+01 3.4103910249032261e+01 3.3917127249238170e+01 
3.3726380707831943e+01 3.3531610302539100e+01 3.3332755943877778e+01 3.3129757838592553e+01 
3.2922556555467352e+01 3.2711093093504644e+01 3.2495308952459624e+01 3.2275146205709426e+01 
3.2050547575430571e+01 3.1821456510057562e+01 3.1587817263984039e+01 3.1349574979468496e+01 
3.1106675770703482e+01 3.0859066810001920e+01 3.0606696416056923e+01 3.0349514144227960e+01 
3.0087470878812777e+01 2.9820518927274012e+01 2.9548612116385218e+01 2.9271705890280536e+01 
2.8989757410414150e+01 2.8702725657445367e+01 2.8410571535089336e+01 2.8113257976013145e+01 
2.7810750049895152e+01 2.7503015073798160e+01 2.7190022725075419e+01 2.6871745157079197e+01 
2.6548157118019823e+01 2.6219236073414436e+01 2.5884962332635030e+01 2.5545319180203123e+01 
2.5200293012572569e+01 2.4849873481289830e+01 2.4494053643562047e+01 2.4132830121417641e+01 
2.3766203270815986e+01 2.3394177362252215e+01 2.3016760774575829e+01 2.2633966203941906e+01 
2.2245810890018756e+01 2.1852316861745688e+01 2.1453511205125029e+01 2.1049426355694667e+01 
2.0640100418448117e+01 2.0225577518054308e+01 1.9805908182270347e+01 1.9381149761382353e+01 
1.8951366886380782e+01 1.8516631968331613e+01 1.8077025741007063e+01 1.7632637848303244e+01 
1.7183567477234849e+01 1.6729924036364334e+01 1.6271827878344201e+01 1.5809411063802193e+01 
1.5342818162146406e+01 1.4872207082856814e+01 1.4397749928543591e+01 1.3919633858640440e+01 
1.3438061949753404e+01 1.2953254035732719e+01 1.2465447507579334e+01 1.1974898050137627e+01 
1.1481880289489590e+01 1.0986688322274004e+01 1.0489636095704659e+01 9.9910576052571560e+00 
9.4913068759364112e+00 8.9907576928912132e+00 8.4898030482530586e+00 7.9888542733867753e+00 
7.4883398295527916e+00 6.9887037353699784e+00 6.4904036163652137e+00 5.9939083703411651e+00 
5.4996954520651204e+00 5.0082477917526278e+00 4.5200503735740174e+00 4.0355865125562724e+00 
3.5553338804951458e+00 3.0797603431389931e+00 2.6093196816075390e+00 2.1444472802875425e+00 
1.6855558708489431e+00 1.2330314272866296e+00 7.8722930964668569e-01 3.4847075419283841e-01 
-8.2960194954120728e-02 -5.0681922342549968e-01 -9.2290367310275678e-01 -1.3310537894172356e+00 
-1.7311532372724430e+00 -2.1231288530344323e+00 -2.5069496234636763e+00 -2.8826249094300724e+00 
-3.2502019620712090e+00 -3.6097628105307176e+00 -3.9614206316581884e+00 -4.3053157406967708e+00 
-4.6416113651794104e+00 -4.9704893791543467e+00 -5.2921461789440407e+00 -5.6067888732492239e+00 
-5.9146319390940558e+00 -6.2158944619120016e+00 -6.5107980355374675e+00 -6.7995653497061639e+00 
-7.0824194433790240e+00 -7.3595835563275100e+00 -7.6312814729968927e+00 -7.8977382246335761e+00 
-8.1591809995896050e+00 -8.4158401077129614e+00 -8.6679498516043960e+00 -8.9157491731633502e+00 
-9.1594817138081908e+00 -9.3993967020005940e+00 -9.6357468981201162e+00 -9.8687884623145230e+00 
-1.0098779102008848e+01 -1.0325975939475958e+01 -1.0550632893179364e+01 -1.0772997608944772e+01 
-1.0993307987411384e+01 -1.1211788365257062e+01 -1.1428645412822609e+01 -1.1644063816403245e+01 
-1.1858201820021502e+01 -1.2071186711281058e+01 -1.2283110339517624e+01 -1.2494024770909453e+01 
-1.2703938193228423e+01 -1.2912811202379993e+01 -1.3120553618643129e+01 -1.3327021998470819e+01 
-1.3532018030505803e+01 -1.3735288014553944e+01 -1.3936523639445987e+01 -1.4135364265461964e+01 
-1.4331400909107456e+01 -1.4524182082601063e+01 -1.4713221578978738e+01 -1.4898008202149686e+01 
-1.5078017320656089e+01 -1.5252723987544465e+01 -1.5421617219482759e+01 -1.5584214891743898e+01 
-1.5740078591629707e+01 -1.5888827710449480e+01 -1.6030196123413134e+01 -1.6163830218027378e+01 
-1.6289697669446944e+01 -1.6407730908517415e+01 -1.6517969505897540e+01 -1.6620554160847554e+01 
-1.6715714059254783e+01 -1.6803759471889325e+01 -1.6885072004419285e+01 -1.6960092869534044e+01 
-1.7029309530891329e+01 -1.7093241031283657e+01 -1.7152422283898421e+01 -1.7207387593303380e+01 
-1.7258653688756119e+01 -1.7306702598901804e+01 -1.7351964771427667e+01 -1.7394802929300891e+01 
-1.7435497248686719e+01 -1.7474232523624913e+01 -1.7511088038330563e+01 -1.7546030883739750e+01 
-1.7578913425026641e+01 -1.7609475537346061e+01 -1.7637352085107366e+01 -1.7662085911579812e+01 
-1.7683146351306998e+01 -1.7699952971547305e+01 -1.7711903912970364e+01 -1.7718407847517241e+01 
-1.7718918221951650e+01 -1.7712968134840800e+01 -1.7700203923387196e+01 -1.7680415340636689e+01 
-1.7653560101754632e+01 -1.7619780590723369e+01 -1.7579410659445575e+01 -1.7532970736962493e+01 
-1.7481149913387750e+01 -1.7424774291449431e+01 -1.7364761729644204e+01 -1.7302064140368486e+01 
-1.7237599743383843e+01 -1.7172179042748834e+01 -1.7106429688023631e+01 -1.7040726621771952e+01 
-1.6975134799359012e+01 -1.6909372062277260e+01 -1.6842799236622447e+01 -1.6774443031164992e+01 
-1.6703054704394642e+01 -1.6627203734024533e+01 -1.6545401004475572e+01 -1.6456240786707518e+01 
-1.3308545987384171e+01 -1.3201498454403620e+01 -1.3084737826253880e+01 -1.2958420566988687e+01 
-1.2823245122427688e+01 -1.2680463708566093e+01 -1.2531903667179698e+01 -1.2379997326221114e+01 
-1.2227784528853105e+01 -1.2078713784304773e+01 -1.1937083175299527e+01 -1.1800626375336458e+01 
-1.1639092088189074e+01 -1.1476404444437074e+01 -1.1319561629901640e+01 -1.1168563513157041e+01 
-1.1022425930686461e+01 -1.0879301990409257e+01 -1.0738231500422026e+01 -1.0599077477325647e+01 
-1.0461804510676098e+01 -1.0326378372684369e+01 -1.0192766017902542e+01 -1.0060935566786998e+01 
-9.9308562813767587e+00 -9.8024985331461352e+00 -9.6758337642186358e+00 -9.5508344431731196e+00 
-9.4274740166783069e+00 -9.3057268582632720e+00 -9.1855682153960441e+00 -9.0669741559858856e+00 
-8.9499215152431777e+00 -8.8343878437393215e+00 -8.7203513572901130e+00 -8.6077908891946802e+00 
-8.4966858451766729e+00 -8.3870161612874377e+00 -8.2787622648878081e+00 -8.1719050387498733e+00 
-8.0664257882656791e+00 -7.9623062116448882e+00 -7.8595283729877234e+00 -7.7580746780616261e+00 
-7.6579278526114720e+00 -7.5590709229801964e+00 -7.4614871988902172e+00 -7.3651602581404267e+00 
-7.2700739330728643e+00 -7.1762122985943826e+00 -7.0835596616052383e+00 -6.9921005516647066e+00 
-6.9018197127478373e+00 -6.8127020959560980e+00 -6.7247328530648076e+00 -6.6378973307806923e+00 
-6.5521810656287629e+00 -6.4675697793571576e+00 -6.3840493747986100e+00 -6.3016059321029534e+00 
-6.2202257053040437e+00 -6.1398951191383055e+00 -6.0606007661171404e+00 -5.9823294037750872e+00 
-5.9050679521104374e+00 -5.8288034911707216e+00 -5.7535232587861165e+00 -5.6792146484346029e+00 
-5.6058652072361985e+00 -5.5334626340684610e+00 -5.4619947777998723e+00 -5.3914496356333190e+00 
-5.3218153515531768e+00 -5.2530802148648652e+00 -5.1852326588158819e+00 -5.1182612592843686e+00 
-5.0521547335197932e+00 -4.9869019389211777e+00 -4.9224918718377193e+00 -4.8589136663762860e+00 
-4.7961565932056365e+00 -4.7342100583438738e+00 -4.6730636019232277e+00 -4.6127068969251068e+00 
-4.5531297478826458e+00 -4.4943220895493088e+00 -4.4362739855342079e+00 -4.3789756269065609e+00 
-4.3224173307736260e+00 -4.2665895388346220e+00 -4.2114828159175968e+00 -4.1570878485026412e+00 
-4.1033954432371793e+00 -4.0503965254477645e+00 -3.9980821376527191e+00 -3.9464434380792732e+00 
-3.8954716991882901e+00 -3.8451583062098305e+00 -3.7954947556915140e+00 -3.7464726540605637e+00 
-3.6980837162023863e+00 -3.6503197640556202e+00 -3.6031727252240398e+00 -3.5566346316064927e+00 
-3.5106976180447891e+00 -3.4653539209889122e+00 -3.4205958771806051e+00 -3.3764159223541057e+00 
-3.3328065899543708e+00 -3.2897605098726741e+00 -3.2472704071984055e+00 -3.2053291009881728e+00 
-3.1639295030504320e+00 -3.1230646167471154e+00 -3.0827275358094912e+00 -3.0429114431710218e+00 
-3.0036096098146383e+00 -2.9648153936351131e+00 -2.9265222383162786e+00 -2.8887236722228615e+00 
-2.8514133073066841e+00 -2.8145848380267275e+00 -2.7782320402840184e+00 -2.7423487703688623e+00 
-2.7069289639231249e+00 -2.6719666349152025e+00 -2.6374558746281975e+00 -2.6033908506614898e+00 
-2.5697658059448298e+00 -2.5365750577657100e+00 -2.5038129968086742e+00 -2.4714740862074689e+00 
-2.4395528606091106e+00 -2.4080439252506336e+00 -2.3769419550469091e+00 -2.3462416936909190e+00 
-2.3159379527654695e+00 -2.2860256108661337e+00 -2.2564996127360231e+00 -2.2273549684111336e+00 
-2.1985867523772109e+00 -2.1701901027373247e+00 -2.1421602203900640e+00 -2.1144923682186025e+00 
-2.0871818702901188e+00 -2.0602241110653221e+00 -2.0336145346188714e+00 -2.0073486438688994e+00 
-1.9814219998174512e+00 -1.9558302207999634e+00 -1.9305689817449085e+00 -1.9056340134426917e+00 
-1.8810211018242700e+00 -1.8567260872491924e+00 -1.8327448638019410e+00 -1.8090733785988020e+00 
-1.7857076311024271e+00 -1.7626436724458896e+00 -1.7398776047652074e+00 -1.7174055805408350e+00 
-1.6952238019471506e+00 -1.6733285202108101e+00 -1.6517160349770577e+00 -1.6303826936844166e+00 
-1.6093248909475670e+00 -1.5885390679475604e+00 -1.5680217118309758e+00 -1.5477693551156464e+00 
-1.5277785751052986e+00 -1.5080459933102925e+00 -1.4885682748775464e+00 -1.4693421280261567e+00 
-1.4503643034915710e+00 -1.4316315939763282e+00 -1.4131408336078128e+00 -1.3948888974035678e+00 
-1.3768727007430743e+00 -1.3590891988460134e+00 -1.3415353862583277e+00 -1.3242082963438968e+00 
-1.3071050007833072e+00 -1.2902226090789251e+00 -1.2735582680663220e+00 -1.2571091614321783e+00 
-1.2408725092383348e+00 -1.2248455674519814e+00 -1.2090256274817668e+00 -1.1934100157201954e+00 
-1.1779960930917277e+00 -1.1627812546067280e+00 -1.1477629289212381e+00 -1.1329385779025893e+00 
-1.1183056962000801e+00 -1.1038618108219733e+00 -1.0896044807171246e+00 -1.0755312963628858e+00 
-1.0616398793575552e+00 -1.0479278820186879e+00 -1.0343929869860744e+00 -1.0210329068301680e+00 
-1.0078453836657195e+00 -9.9482818876986490e-01 -9.8197912220566774e-01 -9.6929601245038122e-01 
-9.5677671602819692e-01 -9.4441911714826454e-01 -9.3222112734687035e-01 -9.2018068513486229e-01 
-9.0829575564873299e-01 -8.9656433030713201e-01 -8.8498442647126274e-01 -8.7355408710981153e-01 
-8.6227138046825913e-01 -8.5113439974226068e-01 -8.4014126275563017e-01 -8.2929011164196853e-01 
-8.1857911253098670e-01 -8.0800645523832393e-01 -7.9757035295973655e-01 -7.8726904196908221e-01 
-7.7710078132030214e-01 -7.6706385255314025e-01 -7.5715655940269377e-01 -7.4737722751294833e-01 
-7.3772420415347950e-01 -7.2819585794036723e-01 -7.1879057856042372e-01 -7.0950677649904792e-01 
-7.0034288277159529e-01 -6.9129734865821479e-01 -6.8236864544211229e-01 -6.7355526415119282e-01 
-6.6485571530304155e-01 -6.5626852865319740e-01 -6.4779225294667819e-01 -6.3942545567271536e-01 
-6.3116672282265551e-01 -6.2301465865098937e-01 -6.1496788543947178e-01 -6.0702504326427631e-01 
-5.9918478976617096e-01 -5.9144579992365376e-01 -5.8380676582902180e-01 -5.7626639646733169e-01 
-5.6882341749821419e-01 -5.6147657104050885e-01 -5.5422461545967772e-01 -5.4706632515796760e-01 
-5.4000049036727971e-01 -5.3302591694471757e-01 -5.2614142617077242e-01 -5.1934585455011728e-01 
-5.1263805361497472e-01 -5.0601688973102110e-01 -4.9948124390580134e-01 -4.9303001159961224e-01 
-4.8666210253884568e-01 -4.8037644053171225e-01 -4.7417196328636979e-01 -4.6804762223139806e-01 
-4.6200238233858187e-01 -4.5603522194799134e-01 -4.5014513259531796e-01 -4.4433111884144211e-01 
-4.3859219810420158e-01 -4.3292740049233247e-01 -4.2733576864155559e-01 -4.2181635755277969e-01 
-4.1636823443239396e-01 -4.1099047853462395e-01 -4.0568218100592340e-01 -4.0044244473137569e-01 
-3.9527038418307936e-01 -3.9016512527049091e-01 -3.8512580519270467e-01 -3.8015157229263274e-01 
-3.7524158591307583e-01 -3.7039501625464938e-01 -3.6561104423554597e-01 -3.6088886135310805e-01 
-3.5622766954718921e-01 -3.5162668106528017e-01 -3.4708511832937655e-01 -3.4260221380456679e-01 
-3.3817720986931654e-01 -3.3380935868742861e-01 -3.2949792208165746e-01 -3.2524217140895501e-01 
-3.2104138743732846e-01 -3.1689486022428848e-01 -3.1280188899686673e-01 -3.0876178203318366e-01 
-3.0477385654554778e-01 -3.0083743856505923e-01 -2.9695186282771047e-01 -2.9311647266195362e-01 
-2.8933061987772224e-01 -2.8559366465688518e-01 -2.8190497544511567e-01 -2.7826392884515749e-01 
-2.7466990951146908e-01 -2.7112231004622916e-01 -2.6762053089668436e-01 -2.6416398025382382e-01 
-2.6075207395236200e-01 -2.5738423537201338e-01 -2.5405989534004192e-01 -2.5077849203507013e-01 
-2.4753947089212935e-01 -2.4434228450893669e-01 -2.4118639255338484e-01 -2.3807126167222137e-01 
-2.3499636540091323e-01 -2.3196118407467192e-01 -2.2896520474062920e-01 -2.2600792107114709e-01 
-2.2308883327824663e-01 -2.2020744802914327e-01 -2.1736327836287184e-01 -2.1455584360798935e-01 
-2.1178466930134013e-01 -2.0904928710787135e-01 -2.0634923474148062e-01 -2.0368405588689303e-01 
-2.0105330012253739e-01 -1.9845652284442949e-01 -1.9589328519102725e-01 -1.9336315396906734e-01 
-1.9086570158035190e-01 -1.8840050594948166e-01 -1.8596715045252901e-01 
</PP_LOCAL>


<PP_NONLOCAL>
  <PP_BETA>
  1  0      Beta    L
  1162  
 0.0000000000000000e+00  0.0000000000000000e+00  0.0000000000000000e+00  0.0000000000000000e+00 
 0.0000000000000000e+00  0.0000000000000000e+00  0.0000000000000000e+00  0.0000000000000000e+00 
 0.0000000000000000e+00  0.0000000000000000e+00  0.0000000000000000e+00  0.0000000000000000e+00 
 0.0000000000000000e+00  0.0000000000000000e+00  0.0000000000000000e+00  0.0000000000000000e+00 
 0.0000000000000000e+00  0.0000000000000000e+00  0.0000000000000000e+00  0.0000000000000000e+00 
 0.0000000000000000e+00  0.0000000000000000e+00  0.0000000000000000e+00  0.0000000000000000e+00 
 0.0000000000000000e+00  0.0000000000000000e+00  0.0000000000000000e+00  0.0000000000000000e+00 
 0.0000000000000000e+00  0.0000000000000000e+00  0.0000000000000000e+00  0.0000000000000000e+00 
 0.0000000000000000e+00  0.0000000000000000e+00  0.0000000000000000e+00  0.0000000000000000e+00 
 0.0000000000000000e+00  0.0000000000000000e+00  0.0000000000000000e+00  0.0000000000000000e+00 
 0.0000000000000000e+00  0.0000000000000000e+00  0.0000000000000000e+00  0.0000000000000000e+00 
 0.0000000000000000e+00  0.0000000000000000e+00  0.0000000000000000e+00  0.0000000000000000e+00 
 0.0000000000000000e+00  0.0000000000000000e+00  0.0000000000000000e+00  0.0000000000000000e+00 
 0.0000000000000000e+00  0.0000000000000000e+00  0.0000000000000000e+00  0.0000000000000000e+00 
 0.0000000000000000e+00  0.0000000000000000e+00  0.0000000000000000e+00  0.0000000000000000e+00 
 0.0000000000000000e+00  0.0000000000000000e+00  0.0000000000000000e+00  0.0000000000000000e+00 
 0.0000000000000000e+00  0.0000000000000000e+00  0.0000000000000000e+00  0.0000000000000000e+00 
 0.0000000000000000e+00  0.0000000000000000e+00  0.0000000000000000e+00  0.0000000000000000e+00 
 0.0000000000000000e+00  0.0000000000000000e+00  0.0000000000000000e+00  0.0000000000000000e+00 
 0.0000000000000000e+00  0.0000000000000000e+00  0.0000000000000000e+00  0.0000000000000000e+00 
 0.0000000000000000e+00  0.0000000000000000e+00  0.0000000000000000e+00  0.0000000000000000e+00 
 0.0000000000000000e+00  0.0000000000000000e+00  0.0000000000000000e+00  0.0000000000000000e+00 
 0.0000000000000000e+00  0.0000000000000000e+00  0.0000000000000000e+00  0.0000000000000000e+00 
 0.0000000000000000e+00  0.0000000000000000e+00  0.0000000000000000e+00  0.0000000000000000e+00 
 0.0000000000000000e+00  0.0000000000000000e+00  0.0000000000000000e+00  0.0000000000000000e+00 
 0.0000000000000000e+00  0.0000000000000000e+00  0.0000000000000000e+00  0.0000000000000000e+00 
 0.0000000000000000e+00  0.0000000000000000e+00  0.0000000000000000e+00  0.0000000000000000e+00 
 0.0000000000000000e+00  0.0000000000000000e+00  0.0000000000000000e+00  0.0000000000000000e+00 
 0.0000000000000000e+00  0.0000000000000000e+00  0.0000000000000000e+00  0.0000000000000000e+00 
 0.0000000000000000e+00  0.0000000000000000e+00  0.0000000000000000e+00  0.0000000000000000e+00 
 0.0000000000000000e+00  0.0000000000000000e+00  0.0000000000000000e+00  0.0000000000000000e+00 
 0.0000000000000000e+00  0.0000000000000000e+00  0.0000000000000000e+00  0.0000000000000000e+00 
 0.0000000000000000e+00  0.0000000000000000e+00  0.0000000000000000e+00  0.0000000000000000e+00 
 0.0000000000000000e+00  0.0000000000000000e+00  0.0000000000000000e+00  0.0000000000000000e+00 
 0.0000000000000000e+00  0.0000000000000000e+00  0.0000000000000000e+00  0.0000000000000000e+00 
 0.0000000000000000e+00  0.0000000000000000e+00  0.0000000000000000e+00  0.0000000000000000e+00 
 0.0000000000000000e+00  0.0000000000000000e+00  0.0000000000000000e+00  0.0000000000000000e+00 
 0.0000000000000000e+00  0.0000000000000000e+00  0.0000000000000000e+00  0.0000000000000000e+00 
 0.0000000000000000e+00  0.0000000000000000e+00  0.0000000000000000e+00  0.0000000000000000e+00 
 0.0000000000000000e+00  0.0000000000000000e+00  0.0000000000000000e+00  0.0000000000000000e+00 
 0.0000000000000000e+00  0.0000000000000000e+00  0.0000000000000000e+00  0.0000000000000000e+00 
 0.0000000000000000e+00  0.0000000000000000e+00  0.0000000000000000e+00  0.0000000000000000e+00 
 0.0000000000000000e+00  0.0000000000000000e+00  0.0000000000000000e+00  0.0000000000000000e+00 
 0.0000000000000000e+00  0.0000000000000000e+00  0.0000000000000000e+00  0.0000000000000000e+00 
 0.0000000000000000e+00  0.0000000000000000e+00  0.0000000000000000e+00  0.0000000000000000e+00 
 0.0000000000000000e+00  0.0000000000000000e+00  0.0000000000000000e+00  0.0000000000000000e+00 
 0.0000000000000000e+00  0.0000000000000000e+00  0.0000000000000000e+00  0.0000000000000000e+00 
 0.0000000000000000e+00  0.0000000000000000e+00  0.0000000000000000e+00  0.0000000000000000e+00 
 0.0000000000000000e+00  0.0000000000000000e+00  0.0000000000000000e+00  0.0000000000000000e+00 
 0.0000000000000000e+00  0.0000000000000000e+00  0.0000000000000000e+00  0.0000000000000000e+00 
 0.0000000000000000e+00  0.0000000000000000e+00  0.0000000000000000e+00  0.0000000000000000e+00 
 0.0000000000000000e+00  0.0000000000000000e+00  0.0000000000000000e+00  0.0000000000000000e+00 
 0.0000000000000000e+00  0.0000000000000000e+00  0.0000000000000000e+00  0.0000000000000000e+00 
 0.0000000000000000e+00  0.0000000000000000e+00  0.0000000000000000e+00  0.0000000000000000e+00 
 0.0000000000000000e+00  0.0000000000000000e+00  0.0000000000000000e+00  0.0000000000000000e+00 
 0.0000000000000000e+00  0.0000000000000000e+00  0.0000000000000000e+00  0.0000000000000000e+00 
 0.0000000000000000e+00  0.0000000000000000e+00  0.0000000000000000e+00  0.0000000000000000e+00 
 0.0000000000000000e+00  0.0000000000000000e+00  0.0000000000000000e+00  0.0000000000000000e+00 
 0.0000000000000000e+00  0.0000000000000000e+00  0.0000000000000000e+00  0.0000000000000000e+00 
 0.0000000000000000e+00  0.0000000000000000e+00  0.0000000000000000e+00  0.0000000000000000e+00 
 0.0000000000000000e+00  0.0000000000000000e+00  0.0000000000000000e+00  0.0000000000000000e+00 
 0.0000000000000000e+00  0.0000000000000000e+00  0.0000000000000000e+00  0.0000000000000000e+00 
 0.0000000000000000e+00  0.0000000000000000e+00  0.0000000000000000e+00  0.0000000000000000e+00 
 0.0000000000000000e+00  0.0000000000000000e+00  0.0000000000000000e+00  0.0000000000000000e+00 
 0.0000000000000000e+00  0.0000000000000000e+00  0.0000000000000000e+00  0.0000000000000000e+00 
 0.0000000000000000e+00  0.0000000000000000e+00  0.0000000000000000e+00  0.0000000000000000e+00 
 0.0000000000000000e+00  0.0000000000000000e+00  0.0000000000000000e+00  0.0000000000000000e+00 
 0.0000000000000000e+00  0.0000000000000000e+00  0.0000000000000000e+00  0.0000000000000000e+00 
 0.0000000000000000e+00  0.0000000000000000e+00  0.0000000000000000e+00  0.0000000000000000e+00 
 0.0000000000000000e+00  0.0000000000000000e+00  0.0000000000000000e+00  0.0000000000000000e+00 
 0.0000000000000000e+00  0.0000000000000000e+00  0.0000000000000000e+00  0.0000000000000000e+00 
 0.0000000000000000e+00  0.0000000000000000e+00  0.0000000000000000e+00  0.0000000000000000e+00 
 0.0000000000000000e+00  0.0000000000000000e+00  0.0000000000000000e+00  0.0000000000000000e+00 
 0.0000000000000000e+00  0.0000000000000000e+00  0.0000000000000000e+00  0.0000000000000000e+00 
 0.0000000000000000e+00  0.0000000000000000e+00  0.0000000000000000e+00  0.0000000000000000e+00 
 0.0000000000000000e+00  0.0000000000000000e+00  0.0000000000000000e+00  0.0000000000000000e+00 
 0.0000000000000000e+00  0.0000000000000000e+00  0.0000000000000000e+00  0.0000000000000000e+00 
 0.0000000000000000e+00  0.0000000000000000e+00  0.0000000000000000e+00  0.0000000000000000e+00 
 0.0000000000000000e+00  0.0000000000000000e+00  0.0000000000000000e+00  0.0000000000000000e+00 
 0.0000000000000000e+00  0.0000000000000000e+00  0.0000000000000000e+00  0.0000000000000000e+00 
 0.0000000000000000e+00  0.0000000000000000e+00  0.0000000000000000e+00  0.0000000000000000e+00 
 0.0000000000000000e+00  0.0000000000000000e+00  0.0000000000000000e+00  0.0000000000000000e+00 
 0.0000000000000000e+00  0.0000000000000000e+00  0.0000000000000000e+00  0.0000000000000000e+00 
 0.0000000000000000e+00  0.0000000000000000e+00  0.0000000000000000e+00  0.0000000000000000e+00 
 0.0000000000000000e+00  0.0000000000000000e+00  0.0000000000000000e+00  0.0000000000000000e+00 
 0.0000000000000000e+00  0.0000000000000000e+00  0.0000000000000000e+00  0.0000000000000000e+00 
 0.0000000000000000e+00  0.0000000000000000e+00  0.0000000000000000e+00  0.0000000000000000e+00 
 0.0000000000000000e+00  0.0000000000000000e+00  0.0000000000000000e+00  0.0000000000000000e+00 
 0.0000000000000000e+00  0.0000000000000000e+00  0.0000000000000000e+00  0.0000000000000000e+00 
 0.0000000000000000e+00  0.0000000000000000e+00  0.0000000000000000e+00  0.0000000000000000e+00 
 0.0000000000000000e+00  0.0000000000000000e+00  0.0000000000000000e+00  0.0000000000000000e+00 
 0.0000000000000000e+00  0.0000000000000000e+00  0.0000000000000000e+00  0.0000000000000000e+00 
 0.0000000000000000e+00  0.0000000000000000e+00  0.0000000000000000e+00  0.0000000000000000e+00 
 0.0000000000000000e+00  0.0000000000000000e+00  0.0000000000000000e+00  0.0000000000000000e+00 
 0.0000000000000000e+00  0.0000000000000000e+00  0.0000000000000000e+00  0.0000000000000000e+00 
 0.0000000000000000e+00  0.0000000000000000e+00  0.0000000000000000e+00  0.0000000000000000e+00 
 0.0000000000000000e+00  0.0000000000000000e+00  0.0000000000000000e+00  0.0000000000000000e+00 
 0.0000000000000000e+00  0.0000000000000000e+00  0.0000000000000000e+00  0.0000000000000000e+00 
 0.0000000000000000e+00  0.0000000000000000e+00  0.0000000000000000e+00  0.0000000000000000e+00 
 0.0000000000000000e+00  0.0000000000000000e+00  0.0000000000000000e+00  0.0000000000000000e+00 
 0.0000000000000000e+00  0.0000000000000000e+00  0.0000000000000000e+00  0.0000000000000000e+00 
 0.0000000000000000e+00  0.0000000000000000e+00  0.0000000000000000e+00  0.0000000000000000e+00 
 0.0000000000000000e+00  0.0000000000000000e+00  0.0000000000000000e+00  0.0000000000000000e+00 
 0.0000000000000000e+00  0.0000000000000000e+00  0.0000000000000000e+00  0.0000000000000000e+00 
 0.0000000000000000e+00  0.0000000000000000e+00  0.0000000000000000e+00  0.0000000000000000e+00 
 0.0000000000000000e+00  0.0000000000000000e+00  0.0000000000000000e+00  0.0000000000000000e+00 
 0.0000000000000000e+00  0.0000000000000000e+00  0.0000000000000000e+00  0.0000000000000000e+00 
 0.0000000000000000e+00  0.0000000000000000e+00  0.0000000000000000e+00  0.0000000000000000e+00 
 0.0000000000000000e+00  0.0000000000000000e+00  0.0000000000000000e+00  0.0000000000000000e+00 
 0.0000000000000000e+00  0.0000000000000000e+00  0.0000000000000000e+00  0.0000000000000000e+00 
 0.0000000000000000e+00  0.0000000000000000e+00  0.0000000000000000e+00  0.0000000000000000e+00 
 0.0000000000000000e+00  0.0000000000000000e+00  0.0000000000000000e+00  0.0000000000000000e+00 
 0.0000000000000000e+00  0.0000000000000000e+00  0.0000000000000000e+00  0.0000000000000000e+00 
 0.0000000000000000e+00  0.0000000000000000e+00  0.0000000000000000e+00  0.0000000000000000e+00 
 0.0000000000000000e+00  0.0000000000000000e+00  0.0000000000000000e+00  0.0000000000000000e+00 
 0.0000000000000000e+00  0.0000000000000000e+00  0.0000000000000000e+00  0.0000000000000000e+00 
 0.0000000000000000e+00  0.0000000000000000e+00  0.0000000000000000e+00  0.0000000000000000e+00 
 0.0000000000000000e+00  0.0000000000000000e+00  0.0000000000000000e+00  0.0000000000000000e+00 
 0.0000000000000000e+00  0.0000000000000000e+00  0.0000000000000000e+00  0.0000000000000000e+00 
 0.0000000000000000e+00  0.0000000000000000e+00  0.0000000000000000e+00  0.0000000000000000e+00 
 0.0000000000000000e+00  0.0000000000000000e+00  0.0000000000000000e+00  0.0000000000000000e+00 
 0.0000000000000000e+00  0.0000000000000000e+00  0.0000000000000000e+00  0.0000000000000000e+00 
 0.0000000000000000e+00  0.0000000000000000e+00  0.0000000000000000e+00  0.0000000000000000e+00 
 0.0000000000000000e+00  0.0000000000000000e+00  0.0000000000000000e+00  0.0000000000000000e+00 
 0.0000000000000000e+00  0.0000000000000000e+00  0.0000000000000000e+00  0.0000000000000000e+00 
 0.0000000000000000e+00  0.0000000000000000e+00  0.0000000000000000e+00  0.0000000000000000e+00 
 0.0000000000000000e+00  0.0000000000000000e+00  0.0000000000000000e+00  0.0000000000000000e+00 
 0.0000000000000000e+00  0.0000000000000000e+00  0.0000000000000000e+00  0.0000000000000000e+00 
 0.0000000000000000e+00  0.0000000000000000e+00  0.0000000000000000e+00  0.0000000000000000e+00 
 0.0000000000000000e+00  0.0000000000000000e+00  0.0000000000000000e+00  0.0000000000000000e+00 
 0.0000000000000000e+00  0.0000000000000000e+00  0.0000000000000000e+00  0.0000000000000000e+00 
 0.0000000000000000e+00  0.0000000000000000e+00  0.0000000000000000e+00  0.0000000000000000e+00 
 0.0000000000000000e+00  0.0000000000000000e+00  0.0000000000000000e+00  0.0000000000000000e+00 
 0.0000000000000000e+00  0.0000000000000000e+00  0.0000000000000000e+00  0.0000000000000000e+00 
 0.0000000000000000e+00  0.0000000000000000e+00  0.0000000000000000e+00  0.0000000000000000e+00 
 0.0000000000000000e+00  0.0000000000000000e+00  0.0000000000000000e+00  0.0000000000000000e+00 
 0.0000000000000000e+00  0.0000000000000000e+00  0.0000000000000000e+00  0.0000000000000000e+00 
 0.0000000000000000e+00  0.0000000000000000e+00  0.0000000000000000e+00  0.0000000000000000e+00 
 0.0000000000000000e+00  0.0000000000000000e+00  0.0000000000000000e+00  0.0000000000000000e+00 
 0.0000000000000000e+00  0.0000000000000000e+00  0.0000000000000000e+00  0.0000000000000000e+00 
 0.0000000000000000e+00  0.0000000000000000e+00  0.0000000000000000e+00  0.0000000000000000e+00 
 0.0000000000000000e+00  0.0000000000000000e+00  0.0000000000000000e+00  0.0000000000000000e+00 
 0.0000000000000000e+00  0.0000000000000000e+00  0.0000000000000000e+00  0.0000000000000000e+00 
 0.0000000000000000e+00  0.0000000000000000e+00  0.0000000000000000e+00  0.0000000000000000e+00 
 0.0000000000000000e+00  0.0000000000000000e+00  0.0000000000000000e+00  0.0000000000000000e+00 
 0.0000000000000000e+00  0.0000000000000000e+00  0.0000000000000000e+00  0.0000000000000000e+00 
 0.0000000000000000e+00  0.0000000000000000e+00  0.0000000000000000e+00  0.0000000000000000e+00 
 0.0000000000000000e+00  0.0000000000000000e+00  0.0000000000000000e+00  0.0000000000000000e+00 
 0.0000000000000000e+00  0.0000000000000000e+00  0.0000000000000000e+00  0.0000000000000000e+00 
 0.0000000000000000e+00  0.0000000000000000e+00  0.0000000000000000e+00  0.0000000000000000e+00 
 0.0000000000000000e+00  0.0000000000000000e+00  0.0000000000000000e+00  0.0000000000000000e+00 
 0.0000000000000000e+00  0.0000000000000000e+00  0.0000000000000000e+00  0.0000000000000000e+00 
 0.0000000000000000e+00  0.0000000000000000e+00  0.0000000000000000e+00  0.0000000000000000e+00 
 0.0000000000000000e+00  0.0000000000000000e+00  0.0000000000000000e+00  0.0000000000000000e+00 
 0.0000000000000000e+00  0.0000000000000000e+00  1.0103681893516046e-02  1.0262301495866986e-02 
 1.0424043479648336e-02  1.0588990052167074e-02  1.0757226118558904e-02  1.0928839379803349e-02 
 1.1103920434370231e-02  1.1282562883626317e-02  1.1464863441135967e-02  1.1650922045992747e-02 
 1.1840841980323482e-02  1.2034729991110681e-02  1.2232696416483059e-02  1.2434855316629200e-02 
 1.2641324609492051e-02  1.2852226211408756e-02  1.3067686182862696e-02  1.3287834879520422e-02 
 1.3512807108730523e-02  1.3742742291665546e-02  1.3977784631293292e-02  1.4218083286368246e-02 
 1.4463792551638268e-02  1.4715072044466667e-02  1.4972086898073807e-02  1.5235007961607181e-02 
 1.5504012007253975e-02  1.5779281944612616e-02  1.6061007042546795e-02  1.6349383158746511e-02 
 1.6644612977228034e-02  1.6946906254005759e-02  1.7256480071173856e-02  1.7573559099639997e-02 
 1.7898375870755125e-02  1.8231171057087592e-02  1.8572193762592105e-02  1.8921701822428215e-02 
 1.9279962112682941e-02  1.9647250870255591e-02  2.0023854023166678e-02  2.0410067531549371e-02 
 2.0806197739588247e-02  2.1212561738667431e-02  2.1629487741993188e-02  2.2057315470953198e-02 
 2.2496396553478046e-02  2.2947094934667091e-02  2.3409787299941691e-02  2.3884863510986315e-02 
 2.4372727054738075e-02  2.4873795505682746e-02  2.5388501001712777e-02  2.5917290733802785e-02 
 2.6460627449754321e-02  2.7018989972260654e-02  2.7592873731539989e-02  2.8182791312784443e-02 
 2.8789273018671582e-02  2.9412867447183806e-02  3.0054142084981320e-02  3.0713683916577611e-02 
 3.1392100049566239e-02  3.2090018356154090e-02  3.2808088131262306e-02  3.3546980767461522e-02 
 3.4307390447023939e-02  3.5090034851382595e-02  3.5895655888310757e-02  3.6725020437151576e-02 
 3.7578921112455720e-02  3.8458177046414840e-02  3.9363634690513488e-02  4.0296168636866067e-02 
 4.1256682459752822e-02  4.2246109577925448e-02  4.3265414138318498e-02  4.4315591921873593e-02 
 4.5397671272267938e-02  4.6512714048429146e-02  4.7661816601824648e-02  4.8846110779623156e-02 
 5.0066764954957328e-02  5.1324985085647729e-02  5.2622015802904390e-02  5.3959141531677822e-02 
 5.5337687644511128e-02  5.6759021650922940e-02  5.8224554424552669e-02  5.9735741470502070e-02 
 6.1294084235517847e-02  6.2901131463885124e-02  6.4558480602119037e-02  6.6267779255764811e-02 
 6.8030726701841140e-02  6.9849075460664239e-02  7.1724632930994903e-02  7.3659263092622732e-02 
 7.5654888280653490e-02  7.7713491035877408e-02  7.9837116035665665e-02  8.2027872109850283e-02 
 8.4287934345988011e-02  8.6619546288268887e-02  8.9025022234090576e-02  9.1506749631979800e-02 
 9.4067191584054924e-02  9.6708889455612179e-02  9.9434465593619611e-02  1.0224662615493538e-01 
 1.0514816404389281e-01  1.0814196195748682e-01  1.1123099553476880e-01  1.1441833660514342e-01 
 1.1770715652809621e-01  1.2110072961441908e-01  1.2460243661623972e-01  1.2821576827010392e-01 
 1.3194432887400667e-01  1.3579183987561017e-01  1.3976214344497373e-01  1.4385920600093746e-01 
 1.4808712165592966e-01  1.5245011553941876e-01  1.5695254695559507e-01  1.6159891232621612e-01 
 1.6639384786497360e-01  1.7134213192537098e-01  1.7644868696004659e-01  1.8171858102590310e-01 
 1.8715702876649928e-01  1.9276939180103034e-01  1.9856117844817811e-01  2.0453804271326451e-01 
 2.1070578246873090e-01  2.1707033676123744e-01  2.2363778218377520e-01  2.3041432825832639e-01 
 2.3740631178394361e-01  2.4462019011675248e-01  2.5206253336234297e-01  2.5974001547732795e-01 
 2.6765940429533430e-01  2.7582755051318153e-01  2.8425137569509112e-01  2.9293785937595940e-01 
 3.0189402536839310e-01  3.1112692740140635e-01  3.2064363424049752e-01  3.3045121445789549e-01 
 3.4055672103687484e-01  3.5096717600342442e-01  3.6168955528067787e-01  3.7273077395453558e-01 
 3.8409767212102558e-01  3.9579700145549129e-01  4.0783541259904399e-01  4.2021944339771278e-01 
 4.3295550795345439e-01  4.4604988635360332e-01  4.5950871483692662e-01  4.7333797603192562e-01 
 4.8754348876903636e-01  5.0213089682714951e-01  5.1710565583188872e-01  5.3247301738552566e-01 
 5.4823800938508138e-01  5.6440541138612754e-01  5.8097972380686125e-01  5.9796512975246663e-01 
 6.1536544828674233e-01  6.3318407809910815e-01  6.5142393072200000e-01  6.7008735275571740e-01 
 6.8917603696075791e-01  7.0869092258253441e-01  7.2863208587458994e-01  7.4899862247064608e-01 
 7.6978852400046061e-01  7.9099855211674130e-01  8.1262411385664579e-01  8.3465914294751453e-01 
 8.5709599221863275e-01  8.7992534262775224e-01  9.0313613447790031e-01  9.2671552611236241e-01 
 9.5064888466744490e-01  9.7491981228228686e-01  9.9951020948574854e-01  1.0244003753095186e+00 
 1.0495691410644965e+00  1.0749940317672182e+00  1.1006514460757433e+00  1.1265168425126126e+00 
 1.1525649169969592e+00  1.1787697546090405e+00  1.2051049374298490e+00  1.2315435906030670e+00 
 1.2580583507917960e+00  1.2846212452085886e+00  1.3112034755174649e+00  1.3377751090939172e+00 
 1.3643046901052114e+00  1.3907587940870352e+00  1.4171015612982447e+00  1.4432942549956433e+00 
 1.4692948995013562e+00  1.4950580579902257e+00  1.5205348097333975e+00  1.5456729796864235e+00 
 1.5704176587818890e+00  1.5947120306900160e+00  1.6184984906425255e+00  1.6417200057656991e+00 
 0.0000000000000000e+00  0.0000000000000000e+00  0.0000000000000000e+00  0.0000000000000000e+00 
 0.0000000000000000e+00  0.0000000000000000e+00  0.0000000000000000e+00  0.0000000000000000e+00 
 0.0000000000000000e+00  0.0000000000000000e+00  0.0000000000000000e+00  0.0000000000000000e+00 
 0.0000000000000000e+00  0.0000000000000000e+00  0.0000000000000000e+00  0.0000000000000000e+00 
 0.0000000000000000e+00  0.0000000000000000e+00  0.0000000000000000e+00  0.0000000000000000e+00 
 0.0000000000000000e+00  0.0000000000000000e+00  0.0000000000000000e+00  0.0000000000000000e+00 
 0.0000000000000000e+00  0.0000000000000000e+00  0.0000000000000000e+00  0.0000000000000000e+00 
 0.0000000000000000e+00  0.0000000000000000e+00  0.0000000000000000e+00  0.0000000000000000e+00 
 0.0000000000000000e+00  0.0000000000000000e+00  0.0000000000000000e+00  0.0000000000000000e+00 
 0.0000000000000000e+00  0.0000000000000000e+00  0.0000000000000000e+00  0.0000000000000000e+00 
 0.0000000000000000e+00  0.0000000000000000e+00  0.0000000000000000e+00  0.0000000000000000e+00 
 0.0000000000000000e+00  0.0000000000000000e+00  0.0000000000000000e+00  0.0000000000000000e+00 
 0.0000000000000000e+00  0.0000000000000000e+00  0.0000000000000000e+00  0.0000000000000000e+00 
 0.0000000000000000e+00  0.0000000000000000e+00  0.0000000000000000e+00  0.0000000000000000e+00 
 0.0000000000000000e+00  0.0000000000000000e+00  0.0000000000000000e+00  0.0000000000000000e+00 
 0.0000000000000000e+00  0.0000000000000000e+00  0.0000000000000000e+00  0.0000000000000000e+00 
 0.0000000000000000e+00  0.0000000000000000e+00  0.0000000000000000e+00  0.0000000000000000e+00 
 0.0000000000000000e+00  0.0000000000000000e+00  0.0000000000000000e+00  0.0000000000000000e+00 
 0.0000000000000000e+00  0.0000000000000000e+00  0.0000000000000000e+00  0.0000000000000000e+00 
 0.0000000000000000e+00  0.0000000000000000e+00  0.0000000000000000e+00  0.0000000000000000e+00 
 0.0000000000000000e+00  0.0000000000000000e+00  0.0000000000000000e+00  0.0000000000000000e+00 
 0.0000000000000000e+00  0.0000000000000000e+00  0.0000000000000000e+00  0.0000000000000000e+00 
 0.0000000000000000e+00  0.0000000000000000e+00  0.0000000000000000e+00  0.0000000000000000e+00 
 0.0000000000000000e+00  0.0000000000000000e+00  0.0000000000000000e+00  0.0000000000000000e+00 
 0.0000000000000000e+00  0.0000000000000000e+00  0.0000000000000000e+00  0.0000000000000000e+00 
 0.0000000000000000e+00  0.0000000000000000e+00  0.0000000000000000e+00  0.0000000000000000e+00 
 0.0000000000000000e+00  0.0000000000000000e+00  0.0000000000000000e+00  0.0000000000000000e+00 
 0.0000000000000000e+00  0.0000000000000000e+00  0.0000000000000000e+00  0.0000000000000000e+00 
 0.0000000000000000e+00  0.0000000000000000e+00  0.0000000000000000e+00  0.0000000000000000e+00 
 0.0000000000000000e+00  0.0000000000000000e+00  0.0000000000000000e+00  0.0000000000000000e+00 
 0.0000000000000000e+00  0.0000000000000000e+00  0.0000000000000000e+00  0.0000000000000000e+00 
 0.0000000000000000e+00  0.0000000000000000e+00  0.0000000000000000e+00  0.0000000000000000e+00 
 0.0000000000000000e+00  0.0000000000000000e+00  0.0000000000000000e+00  0.0000000000000000e+00 
 0.0000000000000000e+00  0.0000000000000000e+00  0.0000000000000000e+00  0.0000000000000000e+00 
 0.0000000000000000e+00  0.0000000000000000e+00  0.0000000000000000e+00  0.0000000000000000e+00 
 0.0000000000000000e+00  0.0000000000000000e+00  0.0000000000000000e+00  0.0000000000000000e+00 
 0.0000000000000000e+00  0.0000000000000000e+00  0.0000000000000000e+00  0.0000000000000000e+00 
 0.0000000000000000e+00  0.0000000000000000e+00  0.0000000000000000e+00  0.0000000000000000e+00 
 0.0000000000000000e+00  0.0000000000000000e+00  0.0000000000000000e+00  0.0000000000000000e+00 
 0.0000000000000000e+00  0.0000000000000000e+00  0.0000000000000000e+00  0.0000000000000000e+00 
 0.0000000000000000e+00  0.0000000000000000e+00  0.0000000000000000e+00  0.0000000000000000e+00 
 0.0000000000000000e+00  0.0000000000000000e+00  0.0000000000000000e+00  0.0000000000000000e+00 
 0.0000000000000000e+00  0.0000000000000000e+00  0.0000000000000000e+00  0.0000000000000000e+00 
 0.0000000000000000e+00  0.0000000000000000e+00  0.0000000000000000e+00  0.0000000000000000e+00 
 0.0000000000000000e+00  0.0000000000000000e+00  0.0000000000000000e+00  0.0000000000000000e+00 
 0.0000000000000000e+00  0.0000000000000000e+00  0.0000000000000000e+00  0.0000000000000000e+00 
 0.0000000000000000e+00  0.0000000000000000e+00  0.0000000000000000e+00  0.0000000000000000e+00 
 0.0000000000000000e+00  0.0000000000000000e+00  0.0000000000000000e+00  0.0000000000000000e+00 
 0.0000000000000000e+00  0.0000000000000000e+00  0.0000000000000000e+00  0.0000000000000000e+00 
 0.0000000000000000e+00  0.0000000000000000e+00  0.0000000000000000e+00  0.0000000000000000e+00 
 0.0000000000000000e+00  0.0000000000000000e+00  0.0000000000000000e+00  0.0000000000000000e+00 
 0.0000000000000000e+00  0.0000000000000000e+00  0.0000000000000000e+00  0.0000000000000000e+00 
 0.0000000000000000e+00  0.0000000000000000e+00  0.0000000000000000e+00  0.0000000000000000e+00 
 0.0000000000000000e+00  0.0000000000000000e+00  0.0000000000000000e+00  0.0000000000000000e+00 
 0.0000000000000000e+00  0.0000000000000000e+00  0.0000000000000000e+00  0.0000000000000000e+00 
 0.0000000000000000e+00  0.0000000000000000e+00  0.0000000000000000e+00  0.0000000000000000e+00 
 0.0000000000000000e+00  0.0000000000000000e+00  0.0000000000000000e+00  0.0000000000000000e+00 
 0.0000000000000000e+00  0.0000000000000000e+00  0.0000000000000000e+00  0.0000000000000000e+00 
 0.0000000000000000e+00  0.0000000000000000e+00  0.0000000000000000e+00  0.0000000000000000e+00 
 0.0000000000000000e+00  0.0000000000000000e+00  0.0000000000000000e+00  0.0000000000000000e+00 
 0.0000000000000000e+00  0.0000000000000000e+00  0.0000000000000000e+00  0.0000000000000000e+00 
 0.0000000000000000e+00  0.0000000000000000e+00  0.0000000000000000e+00  0.0000000000000000e+00 
 0.0000000000000000e+00  0.0000000000000000e+00  0.0000000000000000e+00  0.0000000000000000e+00 
 0.0000000000000000e+00  0.0000000000000000e+00  0.0000000000000000e+00  0.0000000000000000e+00 
 0.0000000000000000e+00  0.0000000000000000e+00  0.0000000000000000e+00  0.0000000000000000e+00 
 0.0000000000000000e+00  0.0000000000000000e+00  0.0000000000000000e+00  0.0000000000000000e+00 
 0.0000000000000000e+00  0.0000000000000000e+00  0.0000000000000000e+00  0.0000000000000000e+00 
 0.0000000000000000e+00  0.0000000000000000e+00  0.0000000000000000e+00  0.0000000000000000e+00 
 0.0000000000000000e+00  0.0000000000000000e+00  0.0000000000000000e+00  0.0000000000000000e+00 
 0.0000000000000000e+00  0.0000000000000000e+00  0.0000000000000000e+00  0.0000000000000000e+00 
 0.0000000000000000e+00  0.0000000000000000e+00  0.0000000000000000e+00  0.0000000000000000e+00 
 0.0000000000000000e+00  0.0000000000000000e+00  0.0000000000000000e+00  0.0000000000000000e+00 
 0.0000000000000000e+00  0.0000000000000000e+00  0.0000000000000000e+00  0.0000000000000000e+00 
 0.0000000000000000e+00  0.0000000000000000e+00  0.0000000000000000e+00  0.0000000000000000e+00 
 0.0000000000000000e+00  0.0000000000000000e+00  0.0000000000000000e+00  0.0000000000000000e+00 
 0.0000000000000000e+00  0.0000000000000000e+00  0.0000000000000000e+00  0.0000000000000000e+00 
 0.0000000000000000e+00  0.0000000000000000e+00  0.0000000000000000e+00  0.0000000000000000e+00 
 0.0000000000000000e+00  0.0000000000000000e+00  0.0000000000000000e+00  0.0000000000000000e+00 
 0.0000000000000000e+00  0.0000000000000000e+00  0.0000000000000000e+00  0.0000000000000000e+00 
 0.0000000000000000e+00  0.0000000000000000e+00  0.0000000000000000e+00  0.0000000000000000e+00 
 0.0000000000000000e+00  0.0000000000000000e+00  0.0000000000000000e+00  0.0000000000000000e+00 
 0.0000000000000000e+00  0.0000000000000000e+00  0.0000000000000000e+00  0.0000000000000000e+00 
 0.0000000000000000e+00  0.0000000000000000e+00  0.0000000000000000e+00 
  </PP_BETA>
  <PP_BETA>
  2  1      Beta    L
  1162  
 -8.1905396118529647e-09  -8.4062861933305796e-09  -8.6277157443724644e-09  -8.8549779597859049e-09 
 -9.0882264774813572e-09  -9.3276189823374773e-09  -9.5733173128021463e-09  -9.8254875703013856e-09 
 -1.0084300231530184e-08  -1.0349930263701327e-08  -1.0622557242829931e-08  -1.0902365475133470e-08 
 -1.1189544121629896e-08  -1.1484287326017814e-08  -1.1786794345924775e-08  -1.2097269687613173e-08 
 -1.2415923244234167e-08  -1.2742970437723493e-08  -1.3078632364434883e-08  -1.3423135944609583e-08 
 -1.3776714075783058e-08  -1.4139605790232661e-08  -1.4512056416572389e-08  -1.4894317745604561e-08 
 -1.5286648200539845e-08  -1.5689313011701138e-08  -1.6102584395829443e-08  -1.6526741740112746e-08 
 -1.6962071791062343e-08  -1.7408868848364226e-08  -1.7867434963837278e-08  -1.8338080145631318e-08 
 -1.8821122567804651e-08  -1.9316888785421767e-08  -1.9825713955317123e-08  -2.0347942062673526e-08 
 -2.0883926153569733e-08  -2.1434028573652356e-08  -2.1998621213095956e-08  -2.2578085758014588e-08 
 -2.3172813948495988e-08  -2.3783207843433198e-08  -2.4409680092331153e-08  -2.5052654214273837e-08 
 -2.5712564884239018e-08  -2.6389858226955127e-08  -2.7084992118498574e-08  -2.7798436495835308e-08 
 -2.8530673674516007e-08  -2.9282198674740054e-08  -3.0053519556007198e-08  -3.0845157760586118e-08 
 -3.1657648466028321e-08  -3.2491540946968908e-08  -3.3347398946457207e-08  -3.4225801057067896e-08 
 -3.5127341112052407e-08  -3.6052628586791715e-08  -3.7002289010825953e-08  -3.7976964390734993e-08 
 -3.8977313644160208e-08  -4.0004013045257486e-08  -4.1057756681883570e-08  -4.2139256924827060e-08 
 -4.3249244909396864e-08  -4.4388471029698055e-08  -4.5557705445926582e-08  -4.6757738605027101e-08 
 -4.7989381775064131e-08  -4.9253467593671613e-08  -5.0550850630945517e-08  -5.1882407967167301e-08 
 -5.3249039785742614e-08  -5.4651669981759721e-08  -5.6091246786577170e-08  -5.7568743408864800e-08 
 -5.9085158692528394e-08  -6.0641517791968040e-08  -6.2238872865119262e-08  -6.3878303784752651e-08 
 -6.5560918868509171e-08  -6.7287855628163065e-08  -6.9060281538625007e-08  -7.0879394827197840e-08 
 -7.2746425283625000e-08  -7.4662635091472859e-08  -7.6629319681415834e-08  -7.8647808606997305e-08 
 -8.0719466443456059e-08  -8.2845693710232253e-08  -8.5027927817770777e-08  -8.7267644039266095e-08 
 -8.9566356508000152e-08  -9.1925619240957097e-08  -9.4347027189395002e-08  -9.6832217317093569e-08 
 -9.9382869707003603e-08  -1.0200070869704737e-07  -1.0468750404583452e-07  -1.0744507212908618e-07 
 -1.1027527716757397e-07  -1.1318003248740369e-07  -1.1616130181349417e-07  -1.1922110059713229e-07 
 -1.2236149737849042e-07  -1.2558461518503911e-07  -1.2889263296679526e-07  -1.3228778706937194e-07 
 -1.3577237274583287e-07  -1.3934874570836922e-07  -1.4301932372085124e-07  -1.4678658823332639e-07 
 -1.5065308605957224e-07  -1.5462143109883958e-07  -1.5869430610294627e-07  -1.6287446448991575e-07 
 -1.6716473220539523e-07  -1.7156800963309558e-07  -1.7608727355556522e-07  -1.8072557916660183e-07 
 -1.8548606213668106e-07  -1.9037194073278395e-07  -1.9538651799406939e-07  -2.0053318396484847e-07 
 -2.0581541798638548e-07  -2.1123679104905823e-07  -2.1680096820648408e-07  -2.2251171105322960e-07 
 -2.2837288026779290e-07  -2.3438843822256431e-07  -2.4056245166253485e-07  -2.4689909445457475e-07 
 -2.5340265040911385e-07  -2.6007751617616186e-07  -2.6692820421761004e-07  -2.7395934585781288e-07 
 -2.8117569441454955e-07  -2.8858212841242770e-07  -2.9618365488096013e-07  -3.0398541273949215e-07 
 -3.1199267627131026e-07  -3.2021085868924524e-07  -3.2864551579520803e-07  -3.3730234973611486e-07 
 -3.4618721285875075e-07  -3.5530611166617346e-07  -3.6466521087832191e-07  -3.7427083759960911e-07 
 -3.8412948559626018e-07  -3.9424781968635011e-07  -4.0463268024546043e-07  -4.1529108783102104e-07 
 -4.2623024792846698e-07  -4.3745755582241433e-07  -4.4898060159613623e-07  -4.6080717526273504e-07 
 -4.7294527203148613e-07  -4.8540309771287781e-07  -4.9818907426604449e-07  -5.1131184549232039e-07 
 -5.2478028287875040e-07  -5.3860349159555329e-07  -5.5279081665153092e-07  -5.6735184921163922e-07 
 -5.8229643308096894e-07  -5.9763467135949559e-07  -6.1337693327215645e-07  -6.2953386117880524e-07 
 -6.4611637776883662e-07  -6.6313569344531321e-07  -6.8060331390359870e-07  -6.9853104790962353e-07 
 -7.1693101528301809e-07  -7.3581565509056026e-07  -7.5519773405540943e-07  -7.7509035518787324e-07 
 -7.9550696664350651e-07  -8.1646137081453493e-07  -8.3796773366075496e-07  -8.6004059428622800e-07 
 -8.8269487476822190e-07  -9.0594589024505150e-07  -9.2980935926966251e-07  -9.5430141443589497e-07 
 -9.7943861328470904e-07  -1.0052379494976236e-06  -1.0317168643850552e-06  -1.0588932586772361e-06 
 -1.0867855046257262e-06  -1.1154124584236804e-06  -1.1447934729532787e-06  -1.1749484108689470e-06 
 -1.2058976580251685e-06  -1.2376621372580124e-06  -1.2702633225296928e-06  -1.3037232534456817e-06 
 -1.3380645501542090e-06  -1.3733104286382520e-06  -1.4094847164103151e-06  -1.4466118686205974e-06 
 -1.4847169845894923e-06  -1.5238258247755734e-06  -1.5639648281904772e-06  -1.6051611302725432e-06 
 -1.6474425812312657e-06  -1.6908377648749225e-06  -1.7353760179341444e-06  -1.7810874498944953e-06 
 -1.8280029633514500e-06  -1.8761542749015023e-06  -1.9255739365835703e-06  -1.9762953578852719e-06 
 -2.0283528283286961e-06  -2.0817815406512015e-06  -2.1366176145968327e-06  -2.1928981213343091e-06 
 -2.2506611085183133e-06  -2.3099456260108092e-06  -2.3707917522799630e-06  -2.4332406214943578e-06 
 -2.4973344513308942e-06  -2.5631165715152058e-06  -2.6306314531137912e-06  -2.6999247385977473e-06 
 -2.7710432726983809e-06  -2.8440351340756019e-06  -2.9189496678203772e-06  -2.9958375188134872e-06 
 -3.0747506659627460e-06  -3.1557424573422842e-06  -3.2388676462571992e-06  -3.3241824282582668e-06 
 -3.4117444791316573e-06  -3.5016129938892140e-06  -3.5938487267858557e-06  -3.6885140323909714e-06 
 -3.7856729077417032e-06  -3.8853910356064992e-06  -3.9877358288882859e-06  -4.0927764761972128e-06 
 -4.2005839886238381e-06  -4.3112312477441437e-06  -4.4247930548893422e-06  -4.5413461817131142e-06 
 -4.6609694220909961e-06  -4.7837436453867843e-06  -4.9097518511219312e-06  -5.0390792250848745e-06 
 -5.1718131969184753e-06  -5.3080434992241209e-06  -5.4478622282228185e-06  -5.5913639060137953e-06 
 -5.7386455444733818e-06  -5.8898067108366194e-06  -6.0449495950066119e-06  -6.2041790786364126e-06 
 -6.3676028060309422e-06  -6.5353312569160532e-06  -6.7074778211246617e-06  -6.8841588752497410e-06 
 -7.0654938613167133e-06  -7.2516053675276497e-06  -7.4426192111326496e-06  -7.6386645234835308e-06 
 -7.8398738373283946e-06  -8.0463831764049026e-06  -8.2583321473938695e-06  -8.4758640342943747e-06 
 -8.6991258952852713e-06  -8.9282686621373487e-06  -9.1634472422443634e-06  -9.4048206233413222e-06 
 -9.6525519809809781e-06  -9.9068087888412755e-06  -1.0167762931937843e-05  -1.0435590822819119e-05 
 -1.0710473520821016e-05  -1.0992596854463464e-05  -1.1282151547070171e-05  -1.1579333345697417e-05 
 -1.1884343153458540e-05  -1.2197387165333725e-05  -1.2518677007556674e-05  -1.2848429880672925e-05 
 -1.3186868706365857e-05  -1.3534222278149633e-05  -1.3890725416031837e-05  -1.4256619125248990e-05 
 -1.4632150759183418e-05  -1.5017574186570688e-05  -1.5413149963111325e-05  -1.5819145507601951e-05 
 -1.6235835282706069e-05  -1.6663500980485594e-05  -1.7102431712818566e-05  -1.7552924206833070e-05 
 -1.8015283005486904e-05  -1.8489820673431829e-05  -1.8976858008298253e-05  -1.9476724257545743e-05 
 -1.9989757341023737e-05  -2.0516304079395027e-05  -2.1056720428574662e-05  -2.1611371720343048e-05 
 -2.2180632909296743e-05  -2.2764888826302456e-05  -2.3364534438627436e-05  -2.3979975116918749e-05 
 -2.4611626909216161e-05  -2.5259916822179902e-05  -2.5925283109725689e-05  -2.6608175569261356e-05 
 -2.7309055845724542e-05  -2.8028397743628462e-05  -2.8766687547324879e-05  -2.9524424349701463e-05 
 -3.0302120389536318e-05  -3.1100301397736227e-05  -3.1919506952692990e-05  -3.2760290844998704e-05 
 -3.3623221451765684e-05  -3.4508882120803515e-05  -3.5417871564914007e-05  -3.6350804266569388e-05 
 -3.7308310893246534e-05  -3.8291038723701014e-05  -3.9299652085463796e-05  -4.0334832803860179e-05 
 -4.1397280662854513e-05  -4.2487713878027162e-05  -4.3606869582009402e-05  -4.4755504322700267e-05 
 -4.5934394574601912e-05  -4.7144337263621498e-05  -4.8386150305690685e-05  -4.9660673159569335e-05 
 -5.0968767394205084e-05  -5.2311317271031802e-05  -5.3689230341602068e-05  -5.5103438060955224e-05 
 -5.6554896417135028e-05  -5.8044586577285769e-05  -5.9573515550756695e-05  -6.1142716869668734e-05 
 -6.2753251287398510e-05  -6.4406207495455354e-05  -6.6102702859230464e-05  -6.7843884173118734e-05 
 -6.9630928435523024e-05  -7.1465043644260536e-05  -7.3347469612911777e-05  -7.5279478808663015e-05 
 -7.7262377212204526e-05  -7.9297505200269161e-05  -8.1386238451402906e-05  -8.3529988875584817e-05 
 -8.5730205568313125e-05  -8.7988375789815917e-05  -9.0306025970033265e-05  -9.2684722740055990e-05 
 -9.5126073990720598e-05  -9.7631729959062028e-05  -1.0020338434337409e-04  -1.0284277544761278e-04 
 -1.0555168735593108e-04  -1.0833195113812047e-04  -1.1118544608678963e-04  -1.1411410098710045e-04 
 -1.1711989541992449e-04  -1.2020486109930105e-04  -1.2337108324509224e-04  -1.2662070199176499e-04 
 -1.2995591383425069e-04  -1.3337897311185200e-04  -1.3689219353120487e-04  -1.4049794972931609e-04 
 -1.4419867887773409e-04  -1.4799688232893066e-04  -1.5189512730600760e-04  -1.5589604863686118e-04 
 -1.6000235053398104e-04  -1.6421680842107516e-04  -1.6854227080775753e-04  -1.7298166121355377e-04 
 -1.7753798014253042e-04  -1.8221430710987512e-04  -1.8701380272178087e-04  -1.9193971081006255e-04 
 -1.9699536062290173e-04  -2.0218416907324548e-04  -2.0750964304632391e-04  -2.1297538176787405e-04 
 -2.1858507923464904e-04  -2.2434252670885282e-04  -2.3025161527817338e-04  -2.3631633848314554e-04 
 -2.4254079501360591e-04  -2.4892919147605284e-04  -2.5548584523377458e-04  -2.6221518732165764e-04 
 -2.6912176543762928e-04  -2.7621024701275242e-04  -2.8348542236203124e-04  -2.9095220791804815e-04 
 -2.9861564954960428e-04  -3.0648092596759099e-04  -3.1455335222038829e-04  -3.2283838328111772e-04 
 -3.3134161772919882e-04  -3.4006880152862468e-04  -3.4902583190554731e-04  -3.5821876132773820e-04 
 -3.6765380158862101e-04  -3.7733732799857974e-04  -3.8727588368640874e-04  -3.9747618401373043e-04 
 -4.0794512110538131e-04  -4.1868976849879133e-04  -4.2971738591545924e-04  -4.4103542415775058e-04 
 -4.5265153013425815e-04  -4.6457355201713721e-04  -4.7680954453482052e-04  -4.8936777440369871e-04 
 -5.0225672590236987e-04  -5.1548510659219860e-04  -5.2906185318802115e-04  -5.4299613758289583e-04 
 -5.5729737303095747e-04  -5.7197522049247515e-04  -5.8703959514538038e-04  -6.0250067306759142e-04 
 -6.1836889809461300e-04  -6.3465498885695542e-04  -6.5136994600212674e-04  -6.6852505960594778e-04 
 -6.8613191677816758e-04  -7.0420240946744001e-04  -7.2274874247086067e-04  -7.4178344165339385e-04 
 -7.6131936238265448e-04  -7.8136969818466771e-04  -8.0194798962636221e-04  -8.2306813343066120e-04 
 -8.4474439183031594e-04  -8.6699140216657501e-04  -8.8982418673915571e-04  -9.1325816291399709e-04 
 -9.3730915349553485e-04  -9.6199339737031771e-04  -9.8732756042907194e-04  -1.0133287467743847e-03 
 -1.0400145102214889e-03  -1.0674028660996606e-03  -1.0955123033621510e-03  -1.1243617970124644e-03 
 -1.1539708208554130e-03  -1.1843593605811223e-03  -1.2155479271908068e-03  -1.2475575707729702e-03 
 -1.2804098946392658e-03  -1.3141270698292006e-03  -1.3487318499932135e-03  -1.3842475866639493e-03 
 -1.4206982449256986e-03  -1.4581084194922901e-03  -1.4965033512039491e-03  -1.5359089439538937e-03 
 -1.5763517820557625e-03  -1.6178591480631986e-03  -1.6604590410531758e-03  -1.7041801953850168e-03 
 -1.7490520999472667e-03  -1.7951050179050123e-03  -1.8423700069603252e-03  -1.8908789401391078e-03 
 -1.9406645271177077e-03  -1.9917603361031605e-03  -2.0442008162811168e-03  -2.0980213208459707e-03 
 -2.1532581306280916e-03  -2.2099484783332439e-03  -2.2681305734097838e-03  -2.3278436275596345e-03 
 -2.3891278809093901e-03  -2.4520246288581194e-03  -2.5165762496191769e-03  -2.5828262324735017e-03 
 -2.6508192067523401e-03  -2.7206009715677847e-03  -2.7922185263099968e-03  -2.8657201019304064e-03 
 -2.9411551930305525e-03  -3.0185745907767565e-03  -3.0980304166614687e-03  -3.1795761571321462e-03 
 -3.2632666991096082e-03  -3.3491583664178553e-03  -3.4373089571479234e-03  -3.5277777819792801e-03 
 -3.6206257034819755e-03  -3.7159151764242981e-03  -3.8137102891104254e-03  -3.9140768057733056e-03 
 -4.0170822100491005e-03  -4.1227957495592405e-03  -4.2312884816274347e-03  -4.3426333201590046e-03 
 -4.4569050837112460e-03  -4.5741805447831116e-03  -4.6945384803541469e-03  -4.8180597237025436e-03 
 -4.9448272175330035e-03  -5.0749260684458952e-03  -5.2084436027796778e-03  -5.3454694238590714e-03 
 -5.4860954706823757e-03  -5.6304160780821814e-03  -5.7785280383931313e-03  -5.9305306646635220e-03 
 -6.0865258554449464e-03  -6.2466181611979775e-03  -6.4109148523505714e-03  -6.5795259890466650e-03 
 -6.7525644926248463e-03  -6.9301462188648142e-03  -7.1123900330426499e-03  -7.2994178868350801e-03 
 -7.4913548971136763e-03  -7.6883294266713951e-03  -7.8904731669233123e-03  -8.0979212226247703e-03 
 -8.3108121986511675e-03  -8.5292882888823411e-03  -8.7534953672378686e-03  -8.9835830809067881e-03 
 -9.2197049458193660e-03  -9.4620184444057509e-03  -9.7106851256886922e-03  -9.9658707077572850e-03 
 -1.0227745182669582e-02  -1.0496482923830784e-02  -1.0772262795896015e-02  -1.1055268267245301e-02 
 -1.1345687525078597e-02  -1.1643713593180154e-02  -1.1949544452399376e-02  -1.2263383163897353e-02 
 -1.2585437995206346e-02  -1.2915922549149795e-02  -1.3255055895670591e-02  -1.3603062706614030e-02 
 -1.3960173393511084e-02  -1.4326624248408184e-02  -1.4702657587786239e-02  -1.5088521899613695e-02 
 -1.5484471993573870e-02  -1.5890769154508003e-02  -1.6307681299111747e-02  -1.6735483135922359e-02 
 -1.7174456328630221e-02  -1.7624889662747337e-02  -1.8087079215661633e-02  -1.8561328530103036e-02 
 -1.9047948791044149e-02  -1.9547259006054574e-02  -2.0059586189123450e-02  -2.0585265547960283e-02 
 -2.1124640674779444e-02  -2.1678063740567698e-02  -2.2245895692829368e-02  -2.2828506456793587e-02 
 -2.3426275140066653e-02  -2.4039590240699363e-02  -2.4668849858633334e-02  -2.5314461910479390e-02 
 -2.5976844347574649e-02  -2.6656425377247755e-02  -2.7353643687217290e-02  -2.8068948673026957e-02 
 -2.8802800668418286e-02  -2.9555671178512839e-02  -3.0328043115674094e-02  -3.1120411037888693e-02 
 -3.1933281389498025e-02  -3.2767172744083500e-02  -3.3622616049291613e-02  -3.4500154873357419e-02 
 -3.5400345653063756e-02  -3.6323757942842108e-02  -3.7270974664692140e-02  -3.8242592358571532e-02 
 -3.9239221432860245e-02  -4.0261486414483821e-02  -4.1310026198225366e-02  -4.2385494294726066e-02 
 -4.3488559076620519e-02  -4.4619904022209965e-02  -4.5780227956024128e-02  -4.6970245285564510e-02 
 -4.8190686233465257e-02  -4.9442297064245959e-02  -5.0725840304759823e-02  -5.2042094957369230e-02 
 -5.3391856704810309e-02  -5.4775938105610975e-02  -5.6195168778864130e-02  -5.7650395577032776e-02 
 -5.9142482745396567e-02  -6.0672312066622727e-02  -6.2240782988838235e-02  -6.3848812735463278e-02 
 -6.5497336394939473e-02  -6.7187306988346851e-02  -6.8919695512767498e-02  -7.0695490958101445e-02 
 -7.2515700294876181e-02  -7.4381348430429942e-02  -7.1675667689724998e-02  -7.3512601249181880e-02 
 -7.5394875120033872e-02  -7.7323496799888841e-02  -7.9299488589888223e-02  -8.1323887237717926e-02 
 -8.3397743524064233e-02  -8.5522121788191061e-02  -8.7698099388042336e-02  -8.9926766090009616e-02 
 -9.2209223383214106e-02  -9.4546583712850019e-02  -9.6939969626833017e-02  -9.9390512829665045e-02 
 -1.0189935313710761e-01  -1.0446763732489349e-01  -1.0709651786436748e-01  -1.0978715153757164e-01 
 -1.1254069792391962e-01  -1.1535831775022926e-01  -1.1824117109548232e-01  -1.2119041544129798e-01 
 -1.2420720355871380e-01  -1.2729268122145138e-01  -1.3044798473547969e-01  -1.3367423827427188e-01 
 -1.3697255100878539e-01  -1.4034401402082111e-01  -1.4378969698805980e-01  -1.4731064462874902e-01 
 -1.5090787289369756e-01  -1.5458236489296681e-01  -1.5833506654442051e-01  -1.6216688193108478e-01 
 -1.6607866835416518e-01  -1.7007123106848282e-01  -1.7414531768709918e-01  -1.7830161224200042e-01 
 -1.8254072888789213e-01  -1.8686320523647248e-01  -1.9126949530895174e-01  -1.9575996209518917e-01 
 -2.0033486970851841e-01  -2.0499437512623694e-01  -2.0973851950684866e-01  -2.1456721907644985e-01 
 -2.1948025557819045e-01  -2.2447726628057788e-01  -2.2955773354247019e-01  -2.3472097393501831e-01 
 -2.3996612692357583e-01  -2.4529214311568873e-01  -2.5069777208481059e-01  -2.5618154978331259e-01 
 -2.6174178556273930e-01  -2.6737654882416456e-01  -2.7308365532687240e-01  -2.7886065318954056e-01 
 -2.8470480862462932e-01  -2.9061309145377495e-01  -2.9658216045978825e-01  -3.0260834863921104e-01 
 -3.0868764842852281e-01  -3.1481569698681811e-01  -3.2098776162827664e-01  -3.2719872550893125e-01 
 -3.3344307368409115e-01  -3.3971487966539277e-01  -3.4600779261963854e-01  -3.5231502536548920e-01 
 -3.5862934333848689e-01  -3.6494305470985089e-01  -3.7124800185987200e-01  -3.7753555442240783e-01 
 -3.8379660413288147e-01  -3.9002156172807617e-01  -3.9620035616179811e-01  -4.0232243641580467e-01 
 -4.0837677620019008e-01  -4.1435188185117577e-01  -4.2023580374682401e-01  -4.2601615157207195e-01 
 -4.3168011377328280e-01  -4.3721448154877807e-01  -4.4260567772492321e-01  -4.4783979086682041e-01 
 -4.5290261496772377e-01  -4.5777969505139327e-01  -4.6245637900577991e-01  -4.6691787594405554e-01 
 -4.7114932135909238e-01  -4.7513584929908742e-01  -4.7886267174435271e-01  -4.8231516530711643e-01 
 -4.8547896530671669e-01  -4.8834006719067130e-01  -4.9088493517692200e-01  -4.9310061788305026e-01 
 -4.9497487058369583e-01  -4.9649628359702508e-01  -4.9765441614433953e-01  -4.9843993485350463e-01 
 -4.9884475588670041e-01  -4.9886218946638933e-01  -4.9848708535107000e-01  -4.9771597757548236e-01 
 -4.9654722652035999e-01  -4.9498115611691057e-01  -4.9302018372434636e-01  -4.9066893994898120e-01 
 -4.8793437540582946e-01  -4.8482585116446852e-01  -4.8135520937741655e-01  -4.7753682037009376e-01 
 -4.7338760228633964e-01  -4.6892700924365277e-01  -4.6417698387020123e-01  -4.5916187008495479e-01 
 -4.5390828205766065e-01  -4.4844492546267650e-01  -4.4280236743603130e-01  -4.3701275207526358e-01 
 -4.3110945890283742e-01  -4.2512670246197393e-01  -4.1909907214257197e-01  -4.1306101245631466e-01 
 -4.0704624258443611e-01  -4.0108713817186492e-01  -3.9521402183941062e-01  -3.8945445774472376e-01 
 -3.8383248488742056e-01  -3.7836783279145569e-01  -3.7307512716880786e-01  -3.6796310145538408e-01 
 -3.6303383247443255e-01  -3.5828202112992064e-01  -3.5369434085461432e-01  -3.4924887878484806e-01 
 -3.4491469612281045e-01  -3.4065153508087481e-01  -3.3640970041158463e-01  -3.3213014300468385e-01 
 -3.2774477176790412e-01  -3.2317701760539647e-01  -3.1834266982496590e-01  -3.1315100013076858e-01 
 -3.0750618343199859e-01  -3.0130901648358643e-01  -2.9445892653398947e-01  -2.8685625126227982e-01 
 -2.7840475938967613e-01  -2.6901436841302706e-01  -2.5860400198913430e-01  -2.4710451522303575e-01 
 -2.3446160210376599e-01  -2.2063858553015755e-01  -2.0561897872507034e-01  -1.8940869643918778e-01 
 -1.7203778796571254e-01  -1.5356156125636006e-01  -1.3406096959498401e-01  -1.1364214138204388e-01 
 -9.2434948723402341e-02  -7.0590534563365961e-02  -4.8277749662766954e-02  -2.5678492131094213e-02 
 -2.9819910046351003e-03  1.9621866805193847e-02  4.1950003413094641e-02  6.3834179552957587e-02 
 8.5129286306682789e-02  1.0572153126801807e-01  1.2553609155755399e-01  1.4454375903654004e-01 
 1.6276607432930507e-01  1.8027844272191604e-01  1.9721075226566370e-01  2.1374507784374666e-01 
 2.3011015880318567e-01  2.4657248361815379e-01  2.6342400224817297e-01  2.8096671122707539e-01 
 2.9949460963328023e-01  3.1927379362767200e-01  3.4052172622431104e-01  3.6338696611625543e-01 
 3.8793084078624729e-01  4.1411267763414800e-01  4.4178023560908941e-01  4.7066688352090691e-01 
 5.0039682829810295e-01  5.3049929410029106e-01  5.6043198760107638e-01  5.8961346840603424e-01 
 6.1746320399455301e-01  6.4344717526662654e-01  6.6712598038927873e-01  6.8820155131762129e-01 
 7.0655795555417900e-01  7.2229142164063842e-01  7.3572481680039659e-01  7.4740241879325631e-01 
 7.5806202871020889e-01  7.6858328044569435e-01  7.7991335785902005e-01  7.9297408711236328e-01 
 8.0855729239209795e-01  8.2721806403378251e-01  8.4917780043034041e-01  8.7425013115482764e-01 
 9.0180271417831559e-01  9.3076611397602482e-01  9.5969734745232249e-01  9.8690027687033255e-01 
 2.0166596763401246e-01  2.0309542957292637e-01  1.9791603665248458e-01  1.8544885940267450e-01 
 1.6579364400802005e-01  1.3994168022613793e-01  1.0978694715591135e-01  7.8015645889607063e-02 
 4.7868479642754286e-02  2.2789696192660774e-02  5.9906291302342547e-03  1.2214197757387855e-05 
 2.0387151539207194e-07  -1.6232494434631776e-07  3.0375973143541805e-08  -4.4477125932831732e-09 
 5.8508415296576498e-10  -7.2575337876142828e-11  9.1346206695641189e-12  -1.2693115041730141e-12 
 -4.1842959373264701e-14  5.5129257280127305e-14  -3.9251178288576489e-14  1.0937605619996127e-13 
 -4.7712618251709138e-13  2.6890426533813376e-13  1.9095346710685675e-13  1.1586123816832824e-13 
 -1.2483592740209670e-15  8.8924550457360351e-14  7.4315235512803574e-15  -2.9037907077528921e-13 
 4.9634001502844747e-13  -5.0046207774572099e-13  -2.9738676592317813e-14  3.0768549359717868e-13 
 -1.9963499445892032e-13  1.0719289241728154e-14  1.2418247773715021e-13  3.8154816062705604e-14 
 -3.9608481632925416e-14  1.0515816552950146e-13  7.1618249069407777e-14  -2.5159953447807273e-13 
 2.5550844840593875e-13  -3.1888941201555628e-13  3.1688551449247712e-13  -4.3719886553497226e-13 
 1.6981250198550836e-13  -1.2144217532598959e-13  -7.7770986481545819e-14  -2.7719529836856202e-13 
 1.8503591679696049e-13  -4.5137942386668331e-13  3.0861072451602250e-13  -1.1251019974282038e-13 
 5.9940597948766830e-14  8.3856978701079515e-14  3.2985899527069948e-14  -5.4673620476432191e-14 
 1.6955399069449362e-13  -2.6133738238834161e-13  0.0000000000000000e+00  0.0000000000000000e+00 
 0.0000000000000000e+00  0.0000000000000000e+00  0.0000000000000000e+00  0.0000000000000000e+00 
 0.0000000000000000e+00  0.0000000000000000e+00  0.0000000000000000e+00  0.0000000000000000e+00 
 0.0000000000000000e+00  0.0000000000000000e+00  0.0000000000000000e+00  0.0000000000000000e+00 
 0.0000000000000000e+00  0.0000000000000000e+00  0.0000000000000000e+00  0.0000000000000000e+00 
 0.0000000000000000e+00  0.0000000000000000e+00  0.0000000000000000e+00  0.0000000000000000e+00 
 0.0000000000000000e+00  0.0000000000000000e+00  0.0000000000000000e+00  0.0000000000000000e+00 
 0.0000000000000000e+00  0.0000000000000000e+00  0.0000000000000000e+00  0.0000000000000000e+00 
 0.0000000000000000e+00  0.0000000000000000e+00  0.0000000000000000e+00  0.0000000000000000e+00 
 0.0000000000000000e+00  0.0000000000000000e+00  0.0000000000000000e+00  0.0000000000000000e+00 
 0.0000000000000000e+00  0.0000000000000000e+00  0.0000000000000000e+00  0.0000000000000000e+00 
 0.0000000000000000e+00  0.0000000000000000e+00  0.0000000000000000e+00  0.0000000000000000e+00 
 0.0000000000000000e+00  0.0000000000000000e+00  0.0000000000000000e+00  0.0000000000000000e+00 
 0.0000000000000000e+00  0.0000000000000000e+00  0.0000000000000000e+00  0.0000000000000000e+00 
 0.0000000000000000e+00  0.0000000000000000e+00  0.0000000000000000e+00  0.0000000000000000e+00 
 0.0000000000000000e+00  0.0000000000000000e+00  0.0000000000000000e+00  0.0000000000000000e+00 
 0.0000000000000000e+00  0.0000000000000000e+00  0.0000000000000000e+00  0.0000000000000000e+00 
 0.0000000000000000e+00  0.0000000000000000e+00  0.0000000000000000e+00  0.0000000000000000e+00 
 0.0000000000000000e+00  0.0000000000000000e+00  0.0000000000000000e+00  0.0000000000000000e+00 
 0.0000000000000000e+00  0.0000000000000000e+00  0.0000000000000000e+00  0.0000000000000000e+00 
 0.0000000000000000e+00  0.0000000000000000e+00  0.0000000000000000e+00  0.0000000000000000e+00 
 0.0000000000000000e+00  0.0000000000000000e+00  0.0000000000000000e+00  0.0000000000000000e+00 
 0.0000000000000000e+00  0.0000000000000000e+00  0.0000000000000000e+00  0.0000000000000000e+00 
 0.0000000000000000e+00  0.0000000000000000e+00  0.0000000000000000e+00  0.0000000000000000e+00 
 0.0000000000000000e+00  0.0000000000000000e+00  0.0000000000000000e+00  0.0000000000000000e+00 
 0.0000000000000000e+00  0.0000000000000000e+00  0.0000000000000000e+00  0.0000000000000000e+00 
 0.0000000000000000e+00  0.0000000000000000e+00  0.0000000000000000e+00  0.0000000000000000e+00 
 0.0000000000000000e+00  0.0000000000000000e+00  0.0000000000000000e+00  0.0000000000000000e+00 
 0.0000000000000000e+00  0.0000000000000000e+00  0.0000000000000000e+00  0.0000000000000000e+00 
 0.0000000000000000e+00  0.0000000000000000e+00  0.0000000000000000e+00  0.0000000000000000e+00 
 0.0000000000000000e+00  0.0000000000000000e+00  0.0000000000000000e+00  0.0000000000000000e+00 
 0.0000000000000000e+00  0.0000000000000000e+00  0.0000000000000000e+00  0.0000000000000000e+00 
 0.0000000000000000e+00  0.0000000000000000e+00  0.0000000000000000e+00  0.0000000000000000e+00 
 0.0000000000000000e+00  0.0000000000000000e+00  0.0000000000000000e+00  0.0000000000000000e+00 
 0.0000000000000000e+00  0.0000000000000000e+00  0.0000000000000000e+00  0.0000000000000000e+00 
 0.0000000000000000e+00  0.0000000000000000e+00  0.0000000000000000e+00  0.0000000000000000e+00 
 0.0000000000000000e+00  0.0000000000000000e+00  0.0000000000000000e+00  0.0000000000000000e+00 
 0.0000000000000000e+00  0.0000000000000000e+00  0.0000000000000000e+00  0.0000000000000000e+00 
 0.0000000000000000e+00  0.0000000000000000e+00  0.0000000000000000e+00  0.0000000000000000e+00 
 0.0000000000000000e+00  0.0000000000000000e+00  0.0000000000000000e+00  0.0000000000000000e+00 
 0.0000000000000000e+00  0.0000000000000000e+00  0.0000000000000000e+00  0.0000000000000000e+00 
 0.0000000000000000e+00  0.0000000000000000e+00  0.0000000000000000e+00  0.0000000000000000e+00 
 0.0000000000000000e+00  0.0000000000000000e+00  0.0000000000000000e+00  0.0000000000000000e+00 
 0.0000000000000000e+00  0.0000000000000000e+00  0.0000000000000000e+00  0.0000000000000000e+00 
 0.0000000000000000e+00  0.0000000000000000e+00  0.0000000000000000e+00  0.0000000000000000e+00 
 0.0000000000000000e+00  0.0000000000000000e+00  0.0000000000000000e+00  0.0000000000000000e+00 
 0.0000000000000000e+00  0.0000000000000000e+00  0.0000000000000000e+00  0.0000000000000000e+00 
 0.0000000000000000e+00  0.0000000000000000e+00  0.0000000000000000e+00  0.0000000000000000e+00 
 0.0000000000000000e+00  0.0000000000000000e+00  0.0000000000000000e+00  0.0000000000000000e+00 
 0.0000000000000000e+00  0.0000000000000000e+00  0.0000000000000000e+00  0.0000000000000000e+00 
 0.0000000000000000e+00  0.0000000000000000e+00  0.0000000000000000e+00  0.0000000000000000e+00 
 0.0000000000000000e+00  0.0000000000000000e+00  0.0000000000000000e+00  0.0000000000000000e+00 
 0.0000000000000000e+00  0.0000000000000000e+00  0.0000000000000000e+00  0.0000000000000000e+00 
 0.0000000000000000e+00  0.0000000000000000e+00  0.0000000000000000e+00  0.0000000000000000e+00 
 0.0000000000000000e+00  0.0000000000000000e+00  0.0000000000000000e+00  0.0000000000000000e+00 
 0.0000000000000000e+00  0.0000000000000000e+00  0.0000000000000000e+00  0.0000000000000000e+00 
 0.0000000000000000e+00  0.0000000000000000e+00  0.0000000000000000e+00  0.0000000000000000e+00 
 0.0000000000000000e+00  0.0000000000000000e+00  0.0000000000000000e+00  0.0000000000000000e+00 
 0.0000000000000000e+00  0.0000000000000000e+00  0.0000000000000000e+00  0.0000000000000000e+00 
 0.0000000000000000e+00  0.0000000000000000e+00  0.0000000000000000e+00  0.0000000000000000e+00 
 0.0000000000000000e+00  0.0000000000000000e+00  0.0000000000000000e+00  0.0000000000000000e+00 
 0.0000000000000000e+00  0.0000000000000000e+00  0.0000000000000000e+00  0.0000000000000000e+00 
 0.0000000000000000e+00  0.0000000000000000e+00  0.0000000000000000e+00  0.0000000000000000e+00 
 0.0000000000000000e+00  0.0000000000000000e+00  0.0000000000000000e+00  0.0000000000000000e+00 
 0.0000000000000000e+00  0.0000000000000000e+00  0.0000000000000000e+00  0.0000000000000000e+00 
 0.0000000000000000e+00  0.0000000000000000e+00  0.0000000000000000e+00  0.0000000000000000e+00 
 0.0000000000000000e+00  0.0000000000000000e+00  0.0000000000000000e+00  0.0000000000000000e+00 
 0.0000000000000000e+00  0.0000000000000000e+00  0.0000000000000000e+00 
  </PP_BETA>
  <PP_BETA>
  3  2      Beta    L
  1162  
 -1.4014086196700023e-11  -1.4571433178798406e-11  -1.5150946119676637e-11  -1.5753506570218521e-11 
 -1.6380031141011722e-11  -1.7031472896689086e-11  -1.7708822805723500e-11  -1.8413111247881916e-11 
 -1.9145409581631320e-11  -1.9906831773881600e-11  -2.0698536094543728e-11  -2.1521726878481244e-11 
 -2.2377656357535787e-11  -2.3267626565412943e-11  -2.4192991318326187e-11  -2.5155158274412208e-11 
 -2.6155591075050079e-11  -2.7195811571341632e-11  -2.8277402139140188e-11  -2.9402008086149012e-11 
 -3.0571340154751084e-11  -3.1787177124377953e-11  -3.3051368517375475e-11  -3.4365837412484011e-11 
 -3.5732583370211075e-11  -3.7153685474548002e-11  -3.8631305495657167e-11  -4.0167691178340780e-11 
 -4.1765179661293260e-11  -4.3426201032339178e-11  -4.5153282025065280e-11  -4.6949049862467921e-11 
 -4.8816236253465709e-11  -5.0757681548354249e-11  -5.2776339059526299e-11  -5.4875279554027529e-11 
 -5.7057695924785529e-11  -5.9326908047612945e-11  -6.1686367831379354e-11  -6.4139664469027884e-11 
 -6.6690529897428622e-11  -6.9342844474373389e-11  -7.2100642881345870e-11  -7.4968120261049310e-11 
 -7.7949638599025366e-11  -8.1049733359073419e-11  -8.4273120382564081e-11  -8.7624703062140713e-11 
 -9.1109579800723414e-11  -9.4733051767160635e-11  -9.8500630960325876e-11  -1.0241804859392984e-10 
 -1.0649126381479708e-10  -1.1072647276787584e-10  -1.1513011802176573e-10  -1.1970889836910227e-10 
 -1.2446977901671106e-10  -1.2942000218102410e-10  -1.3456709810488513e-10  -1.3991889651249552e-10 
 -1.4548353851993100e-10  -1.5126948901934382e-10  -1.5728554955568902e-10  -1.6354087171556914e-10 
 -1.7004497104855304e-10  -1.7680774154215634e-10  -1.8383947067249851e-10  -1.9115085505352959e-10 
 -1.9875301670863389e-10  -2.0665751998936665e-10  -2.1487638916705028e-10  -2.2342212672400360e-10 
 -2.3230773237221639e-10  -2.4154672282840816e-10  -2.5115315237554891e-10  -2.6114163424212217e-10 
 -2.7152736283164776e-10  -2.8232613683629179e-10  -2.9355438326970228e-10  -3.0522918245565192e-10 
 -3.1736829401049038e-10  -3.2999018385891935e-10  -3.4311405232421562e-10  -3.5675986333559741e-10 
 -3.7094837479719506e-10  -3.8570117016479657e-10  -4.0104069127842254e-10  -4.1699027250067358e-10 
 -4.3357417621275583e-10  -4.5081762972222090e-10  -4.6874686363852704e-10  -4.8738915177482752e-10 
 -5.0677285263665193e-10  -5.2692745256063775e-10  -5.4788361056888233e-10  -5.6967320500718589e-10 
 -5.9232938203811739e-10  -6.1588660606267129e-10  -6.4038071214721009e-10  -6.6584896053545236e-10 
 -6.9233009332843480e-10  -7.1986439341865098e-10  -7.4849374576802241e-10  -7.7826170112294626e-10 
 -8.0921354226328009e-10  -8.4139635288610624e-10  -8.7485908922903685e-10  -9.0965265454198058e-10 
 -9.4582997652070458e-10  -9.8344608781995899e-10  -1.0225582097686443e-09  -1.0632258394143602e-09 
 -1.1055108400297552e-09  -1.1494775352183562e-09  -1.1951928067630288e-09  -1.2427261963658888e-09 
 -1.2921500114344972e-09  -1.3435394350751588e-09  -1.3969726404607629e-09  -1.4525309097470209e-09 
 -1.5102987577180952e-09  -1.5703640603496356e-09  -1.6328181884848478e-09  -1.6977561468268778e-09 
 -1.7652767184590266e-09  -1.8354826151125401e-09  -1.9084806334106478e-09  -1.9843818173264612e-09 
 -2.0633016271019162e-09  -2.1453601148846661e-09  -2.2306821073501142e-09  -2.3193973955864385e-09 
 -2.4116409325313509e-09  -2.5075530382610455e-09  -2.6072796134435709e-09  -2.7109723612812316e-09 
 -2.8187890182798933e-09  -2.9308935941958493e-09  -3.0474566215256788e-09  -3.1686554149182332e-09 
 -3.2946743409036639e-09  -3.4257050983495578e-09  -3.5619470100709984e-09  -3.7036073260380180e-09 
 -3.8509015386417134e-09  -4.0040537104986528e-09  -4.1632968152920624e-09  -4.3288730921685653e-09 
 -4.5010344142291794e-09  -4.6800426716755002e-09  -4.8661701701936509e-09  -5.0597000451820665e-09 
 -5.2609266924533109e-09  -5.4701562160650284e-09  -5.6877068939612253e-09  -5.9139096621322400e-09 
 -6.1491086180300062e-09  -6.3936615440041529e-09  -6.6479404515553877e-09  -6.9123321472339934e-09 
 -7.1872388210441797e-09  -7.4730786582495661e-09  -7.7702864755102060e-09  -8.0793143823190178e-09 
 -8.4006324687437718e-09  -8.7347295205204865e-09  -9.0821137625866852e-09  -9.4433136321846609e-09 
 -9.8188785827116567e-09  -1.0209379919539077e-08  -1.0615411669072514e-08  -1.1037591482374526e-08 
 -1.1476561574724421e-08  -1.1932989702544970e-08  -1.2407570179181118e-08  -1.2901024931076887e-08 
 -1.3414104595956353e-08  -1.3947589664679492e-08  -1.4502291668509802e-08  -1.5079054413599789e-08 
 -1.5678755264572083e-08  -1.6302306479148692e-08  -1.6950656595858764e-08  -1.7624791876935249e-08 
 -1.8325737808596379e-08  -1.9054560660992675e-08  -1.9812369110193766e-08  -2.0600315924681536e-08 
 -2.1419599718915062e-08  -2.2271466776635130e-08  -2.3157212946681415e-08  -2.4078185614206677e-08 
 -2.5035785750285583e-08  -2.6031470043037073e-08  -2.7066753113501129e-08  -2.8143209819641020e-08 
 -2.9262477651975210e-08  -3.0426259224483978e-08  -3.1636324864579119e-08  -3.2894515306075771e-08 
 -3.4202744489264537e-08  -3.5563002472341682e-08  -3.6977358458626065e-08  -3.8447963944168680e-08 
 -3.9977055990541890e-08  -4.1566960627786917e-08  -4.3220096392695443e-08  -4.4938978007808733e-08 
 -4.6726220206729152e-08  -4.8584541711563094e-08  -5.0516769368545674e-08  -5.2525842448139688e-08 
 -5.4614817116145364e-08  -5.6786871082626436e-08  -5.9045308435722598e-08  -6.1393564667699086e-08 
 -6.3835211900882312e-08  -6.6373964321426767e-08  -6.9013683829182363e-08  -7.1758385912252453e-08 
 -7.4612245755180928e-08  -7.7579604590059049e-08  -8.0664976300211618e-08  -8.3873054286508031e-08 
 -8.7208718606742200e-08  -9.0677043398942389e-08  -9.4283304599898117e-08  -9.8032987970651590e-08 
 -1.0193179744115205e-07  -1.0598566378677669e-07  -1.1020075364990431e-07  -1.1458347892027233e-07 
 -1.1914050648838263e-07  -1.2387876838678963e-07  -1.2880547233470063e-07  -1.3392811270192219e-07 
 -1.3925448190883333e-07  -1.4479268227972202e-07  -1.5055113836751762e-07  -1.5653860976866269e-07 
 -1.6276420444761907e-07  -1.6923739259126864e-07  -1.7596802101429310e-07  -1.8296632813743083e-07 
 -1.9024295956140113e-07  -1.9780898426018278e-07  -2.0567591141827322e-07  -2.1385570793754040e-07 
 -2.2236081664029683e-07  -2.3120417519627954e-07  -2.4039923580232458e-07  -2.4995998564466512e-07 
 -2.5990096817498495e-07  -2.7023730523257543e-07  -2.8098472004625455e-07  -2.9215956115101680e-07 
 -3.0377882725581397e-07  -3.1586019310026221e-07  -3.2842203633962363e-07  -3.4148346549893632e-07 
 -3.5506434903882217e-07  -3.6918534557716681e-07  -3.8386793531264826e-07  -3.9913445269788855e-07 
 -4.1500812041194777e-07  -4.3151308468379471e-07  -4.4867445202051044e-07  -4.6651832739604846e-07 
 -4.8507185395867198e-07  -5.0436325431741342e-07  -5.2442187347038201e-07  -5.4527822344018363e-07 
 -5.6696402968434629e-07  -5.8951227935132767e-07  -6.1295727145548710e-07  -6.3733466904735729e-07 
 -6.6268155345849430e-07  -6.8903648070347322e-07  -7.1643954012473905e-07  -7.4493241536954164e-07 
 -7.7455844779166113e-07  -8.0536270237434035e-07  -8.3739203627467853e-07  -8.7069517009373313e-07 
 -9.0532276198068534e-07  -9.4132748468376052e-07  -9.7876410566510316e-07  -1.0176895704013774e-06 
 -1.0581630889968214e-06  -1.1002462262404071e-06  -1.1440029952440833e-06  -1.1894999548044535e-06 
 -1.2368063106359781e-06  -1.2859940206295879e-06  -1.3371379042967545e-06  -1.3903157565654989e-06 
 -1.4456084661012244e-06  -1.5031001383324728e-06  -1.5628782233684549e-06  -1.6250336490030054e-06 
 -1.6896609590070582e-06  -1.7568584569200293e-06  -1.8267283555586043e-06  -1.8993769324703023e-06 
 -1.9749146915681431e-06  -2.0534565311921302e-06  -2.1351219188531483e-06  -2.2200350729247043e-06 
 -2.3083251515590374e-06  -2.4001264491144996e-06  -2.4955786003930184e-06  -2.5948267929979822e-06 
 -2.6980219881354482e-06  -2.8053211501942640e-06  -2.9168874854540853e-06  -3.0328906902841225e-06 
 -3.1535072092099703e-06  -3.2789205032406459e-06  -3.4093213288637288e-06  -3.5449080281327365e-06 
 -3.6858868302874817e-06  -3.8324721653659528e-06  -3.9848869902842992e-06  -4.1433631278804787e-06 
 -4.3081416194367969e-06  -4.4794730912172470e-06  -4.6576181355763402e-06  -4.8428477072188284e-06 
 -5.0354435352125190e-06  -5.2356985513798206e-06  -5.4439173357195574e-06  -5.6604165795353775e-06 
 -5.8855255669746033e-06  -6.1195866757092239e-06  -6.3629558975195576e-06  -6.6160033795716214e-06 
 -6.8791139872104859e-06  -7.1526878891244179e-06  -7.4371411657690666e-06  -7.7329064419756355e-06 
 -8.0404335447039393e-06  -8.3601901869398455e-06  -8.6926626787751734e-06  -9.0383566667506981e-06 
 -9.3977979025846427e-06  -9.7715330424545481e-06  -1.0160130478045854e-05  -1.0564181200629458e-05 
 -1.0984299699480548e-05  -1.1421124896002187e-05  -1.1875321114972697e-05  -1.2347579094391050e-05 
 -1.2838617035453393e-05  -1.3349181694254855e-05  -1.3880049516873597e-05  -1.4432027819560622e-05 
 -1.5005956015825580e-05  -1.5602706892282710e-05  -1.6223187935191461e-05  -1.6868342709705820e-05 
 -1.7539152293925835e-05  -1.8236636769925671e-05  -1.8961856774022636e-05  -1.9715915108637230e-05 
 -2.0499958418191271e-05  -2.1315178931584534e-05  -2.2162816273895138e-05  -2.3044159350049582e-05 
 -2.3960548303320144e-05  -2.4913376551620183e-05  -2.5904092904684100e-05  -2.6934203765342646e-05 
 -2.8005275418231435e-05  -2.9118936409401132e-05  -3.0276880020437716e-05  -3.1480866840842213e-05 
 -3.2732727442568541e-05  -3.4034365160772489e-05  -3.5387758984985780e-05  -3.6794966565094896e-05 
 -3.8258127336679462e-05  -3.9779465770444145e-05  -4.1361294750665240e-05  -4.3006019087768226e-05 
 -4.4716139170356761e-05  -4.6494254762221524e-05  -4.8343068950075719e-05  -5.0265392247997152e-05 
 -5.2264146864782766e-05  -5.4342371140680853e-05  -5.6503224160206914e-05  -5.8749990548026987e-05 
 -6.1086085455160259e-05  -6.3515059743044378e-05  -6.6040605373299854e-05  -6.8666561011345760e-05 
 -7.1396917852336187e-05  -7.4235825678223896e-05  -7.7187599155103954e-05  -8.0256724380353361e-05 
 -8.3447865689456740e-05  -8.6765872732798898e-05  -9.0215787833112959e-05  -9.3802853634689581e-05 
 -9.7532521055896943e-05  -1.0141045755701190e-04  -1.0544255573583865e-04  -1.0963494226408008e-04 
 -1.1399398717794661e-04  -1.1852631353700113e-04  -1.2323880746581230e-04  -1.2813862859354451e-04 
 -1.3323322090721897e-04  -1.3853032403499045e-04  -1.4403798497644241e-04  -1.4976457029755201e-04 
 -1.5571877880868952e-04  -1.6190965474472890e-04  -1.6834660146709316e-04  -1.7503939570835000e-04 
 -1.8199820238076758e-04  -1.8923358997109487e-04  -1.9675654654469096e-04  -2.0457849638305089e-04 
 -2.1271131727970593e-04  -2.2116735852045996e-04  -2.2995945957494696e-04  -2.3910096952754086e-04 
 -2.4860576727675705e-04  -2.5848828253342029e-04  -2.6876351764906244e-04  -2.7944707030723486e-04 
 -2.9055515711171655e-04  -3.0210463810689987e-04  -3.1411304226705296e-04  -3.2659859399254433e-04 
 -3.3958024065264058e-04  -3.5307768121600877e-04  -3.6711139601168079e-04  -3.8170267766487429e-04 
 -3.9687366325381890e-04  -4.1264736773552094e-04  -4.2904771869027233e-04  -4.4609959243662264e-04 
 -4.6382885157059139e-04  -4.8226238398492086e-04  -5.0142814342638551e-04  -5.2135519165141212e-04 
 -5.4207374224258826e-04  -5.6361520615105483e-04  -5.8601223903232780e-04  -6.0929879044565748e-04 
 -6.3351015498979845e-04  -6.5868302545080701e-04  -6.8485554804049119e-04  -7.1206737980703796e-04 
 -7.4035974830266799e-04  -7.6977551359621319e-04  -8.0035923272209545e-04  -8.3215722666052925e-04 
 -8.6521764994755351e-04  -8.9959056301717414e-04  -9.3532800738183215e-04  -9.7248408376154883e-04 
 -1.0111150332762038e-03  -1.0512793218198772e-03  -1.0930377277406332e-03  -1.1364534329538710e-03 
 -1.1815921176222481e-03  -1.2285220585401858e-03  -1.2773142313662644e-03  -1.3280424168521778e-03 
 -1.3807833112226078e-03  -1.4356166408661781e-03  -1.4926252815036717e-03  -1.5518953820060023e-03 
 -1.6135164930408811e-03  -1.6775817007338787e-03  -1.7441877655364811e-03  -1.8134352665010139e-03 
 -1.8854287511697848e-03  -1.9602768912934517e-03  -2.0380926446016685e-03  -2.1189934228574253e-03 
 -2.2031012664349872e-03  -2.2905430256702107e-03  -2.3814505492412937e-03  -2.4759608798475010e-03 
 -2.5742164574631831e-03  -2.6763653304546545e-03  -2.7825613748580125e-03  -2.8929645221268648e-03 
 -3.0077409956702113e-03  -3.1270635565122588e-03  -3.2511117584182207e-03  -3.3800722128422373e-03 
 -3.5141388640667895e-03  -3.6535132749159352e-03  -3.7984049234384811e-03  -3.9490315109716369e-03 
 -4.1056192820096730e-03  -4.2684033563180771e-03  -4.4376280737484135e-03  -4.6135473522255456e-03 
 -4.7964250593957158e-03  -4.9865353984403947e-03  -5.1841633085790472e-03  -5.3896048808016505e-03 
 -5.6031677893909788e-03  -5.8251717398132702e-03  -6.0559489335765505e-03  -6.2958445506755053e-03 
 -6.5452172502633386e-03  -6.8044396902124686e-03  -7.0738990662482983e-03  -7.3539976713627459e-03 
 -7.6451534762381739e-03  -7.9478007314365533e-03  -8.2623905921322648e-03  -8.5893917661948090e-03 
 -8.9292911864504720e-03  -9.2825947079819993e-03  -9.6498278313504760e-03  -1.0031536452652213e-02 
 -1.0428287641353394e-02  -1.0840670446872251e-02  -1.1269296734910998e-02  -1.1714802054568950e-02 
 -1.2177846537300278e-02  -1.2659115828811140e-02  -1.3159322055024635e-02  -1.3679204823274824e-02 
 -1.4219532259923303e-02  -1.4781102085630613e-02  -1.5364742729542781e-02  -1.5971314483697333e-02 
 -1.6601710698980258e-02  -1.7256859024011018e-02  -1.7937722688359508e-02  -1.8645301831546467e-02 
 -1.9380634879309036e-02  -2.0144799968652087e-02  -2.0938916423251078e-02  -2.1764146280797970e-02 
 -2.2621695873932181e-02  -2.3512817466431496e-02  -2.4438810946372753e-02  -2.5401025578019581e-02 
 -2.6400861814225428e-02  -2.7439773171174107e-02  -2.8519268167331420e-02  -2.9640912328500583e-02 
 -3.0806330260923179e-02  -3.2017207794393231e-02  -3.3275294197391912e-02  -3.4582404466279103e-02 
 -3.5940421690609611e-02  -3.7351299496671465e-02  -3.8817064571372940e-02  -4.0339819268626988e-02 
 -4.1921744300406710e-02  -4.3565101514665909e-02  -4.5272236762337006e-02  -4.7045582855629556e-02 
 -4.8887662619869453e-02  -5.0801092041119274e-02  -5.2788583511828711e-02  -5.4852949176758585e-02 
 -5.6997104381415344e-02  -5.9224071225227624e-02  -6.1536982221665225e-02  -6.3939084067490534e-02 
 -6.6433741523291873e-02  -6.9024441407416579e-02  -7.1714796705369857e-02  -7.4508550796690248e-02 
 -7.7409581801259328e-02  -8.0421907046912697e-02  -8.3549687660154859e-02  -8.6797233281663416e-02 
 -9.0169006908186522e-02  -9.3669629862292464e-02  -9.7303886891325311e-02  -1.0107673139674161e-01 
 -1.0499329079487564e-01  -1.0905887200997774e-01  -1.1327896710018574e-01  -1.1765925901688069e-01 
 -1.2220562749764249e-01  -1.2692415509277438e-01  -1.3182113332508799e-01  -1.3690306898236795e-01 
 -1.4217669054158863e-01  -1.4764895472365080e-01  -1.5332705317702242e-01  -1.5921841928828162e-01 
 -1.6533073511715821e-01  -1.7167193845320228e-01  -1.7825022999076492e-01  -1.8507408061845079e-01 
 -1.9215223881868040e-01  -1.9949373817243291e-01  -2.0710790496364609e-01  -2.1500436587710067e-01 
 -2.2319305578299095e-01  -2.3168422560060897e-01  -2.4048845023293422e-01  -2.4961663656302729e-01 
 -2.5908003150242004e-01  -2.6889023008077939e-01  -2.7905918356524528e-01  -2.8959920759693708e-01 
 -3.0052299033113811e-01  -3.1184360056669008e-01  -3.2357449584898473e-01  -3.3572953053016791e-01 
 -3.4832296376845201e-01  -3.6136946744821324e-01  -3.5993086489607951e-01  -3.7333985941243203e-01 
 -3.8722541530432814e-01  -4.0160303871462666e-01  -4.1648865228194654e-01  -4.3189860088222909e-01 
 -4.4784965708266050e-01  -4.6435902627724152e-01  -4.8144435147281178e-01  -4.9912371769258751e-01 
 -5.1741565596279671e-01  -5.3633914684695672e-01  -5.5591362349070894e-01  -5.7615897413929762e-01 
 -5.9709554408779064e-01  -6.1874413702380571e-01  -6.4112601572073558e-01  -6.6426290203850369e-01 
 -6.8817697618828799e-01  -7.1289087521604633e-01  -7.3842769065971192e-01  -7.6481096533366411e-01 
 -7.9206468919377582e-01  -8.2021329423599876e-01  -8.4928164838122611e-01  -8.7929504829956739e-01 
 -9.1027921112646415e-01  -9.4226026502478977e-01  -9.7526473854627416e-01  -1.0093195487493805e+00 
 -1.0444519880274696e+00  -1.0806897096080559e+00  -1.1180607116817327e+00  -1.1565933201246412e+00 
 -1.1963161697781226e+00  -1.2372581842563342e+00  -1.2794485542519327e+00  -1.3229167143177212e+00 
 -1.3676923181046921e+00  -1.4138052120418967e+00  -1.4612854074514636e+00  -1.5101630510948709e+00 
 -1.5604683941572945e+00  -1.6122317596803308e+00  -1.6654835084648727e+00  -1.7202540034719724e+00 
 -1.7765735727604466e+00  -1.8344724710084548e+00  -1.8939808396778659e+00  -1.9551286658907496e+00 
 -2.0179457400983702e+00  -2.0824616126365361e+00  -2.1487055492722100e+00  -2.2167064858607595e+00 
 -2.2864929822450502e+00  -2.3580931755433547e+00  -2.4315347329846673e+00  -2.5068448044661094e+00 
 -2.5840499750196324e+00  -2.6631762173895810e+00  -2.7442488449365068e+00  -2.8272924650945659e+00 
 -2.9123309336232319e+00  -2.9993873099039612e+00  -3.0884838135433270e+00  -3.1796417825521455e+00 
 -3.2728816333765867e+00  -3.3682228230607656e+00  -3.4656838138242905e+00  -3.5652820403326260e+00 
 -3.6670338799374318e+00  -3.7709546261519571e+00  -3.8770584656145415e+00  -3.9853584587726569e+00 
 -4.0958665244984802e+00  -4.2085934288122209e+00  -4.3235487778551382e+00  -4.4407410152058642e+00 
 -4.5601774235813899e+00  -4.6818641309007596e+00  -4.8058061206160385e+00  -4.9320072461330389e+00 
 -5.0604702490497262e+00  -5.1911967808344537e+00  -5.3241874274485852e+00  -5.4594417362874230e+00 
 -5.5969582446702653e+00  -5.7367345089545294e+00  -5.8787671331784601e+00  -6.0230517959567411e+00 
 -6.1695832741574597e+00  -6.3183554616836854e+00  -6.4693613814672357e+00  -6.6225931885563796e+00 
 -6.7780421619486191e+00  -6.9356986825824087e+00  -7.0955521946653386e+00  -7.2575911472808805e+00 
 -7.4218029129880243e+00  -7.5881736799115078e+00  -7.7566883136224325e+00  -7.9273301849342959e+00 
 -8.1000809595976886e+00  -8.2749203457748877e+00  -8.4518257951223283e+00  -8.6307721533164017e+00 
 -8.8117312559331289e+00  -8.9946714657508533e+00  -9.1795571477940552e+00  -9.3663480787911606e+00 
 -9.5549987881901135e+00  -9.7454578284728104e+00  -9.9376669732474934e+00  -1.0131560342480677e+01 
 -1.0327063455271402e+01  -1.0524092211770661e+01  -1.0722551807211916e+01  -1.0922335582545454e+01 
 -1.1123323817849302e+01  -1.1325382476517271e+01  -1.1528361910177924e+01  -1.1732095536357738e+01 
 -1.1936398503032398e+01  -1.2141066356376616e+01  -1.2345873730174873e+01  -1.2550573077440452e+01 
 -1.2754893582514692e+01  -1.2958539592577811e+01  -1.3161190283434014e+01  -1.3362498367718969e+01 
 -1.3562089534076456e+01  -1.3759561874444811e+01  -1.3954485715470675e+01  -1.4146403544385979e+01 
 -1.4334830274526119e+01  -1.4519253795312538e+01  -1.4699135835192768e+01  -1.4873913151315145e+01 
 -1.5042999054649650e+01  -1.5205785272390901e+01  -1.5361644144389889e+01  -1.5509931142592256e+01 
 -1.5649987695088685e+01  -1.5781144290135666e+01  -1.5902723826262788e+01  -1.6014045170817948e+01 
 -1.6114426880281815e+01  -1.6203191032916969e+01  -1.6279667119526742e+01  -1.6343195937469840e+01 
 -1.6393133430667426e+01  -1.6428854422254439e+01  -1.6449756190249953e+01  -1.6455261840204713e+01 
 -1.6444823440119627e+01  -1.6417924888929758e+01  -1.6374084503434062e+01  -1.6312857317050231e+01 
 -1.6233837098486724e+01  -1.6136658105568536e+01  -1.6020996603286935e+01  -1.5886572178317785e+01 
 -1.5733148890684324e+01  -1.5560536302936246e+01  -1.5368590425020086e+01  -1.5157214610530700e+01 
 -1.4926360427026909e+01  -1.4676028518059693e+01  -1.4406269459378345e+01  -1.4117184603872193e+01 
 -1.3808926903085657e+01  -1.3481701692129590e+01  -1.3135767434150049e+01  -1.2771436439180054e+01 
 -1.2389075604706743e+01  -1.1989107273276096e+01  -1.1572010359110960e+01  -1.1138321968629013e+01 
 -1.0688639811407384e+01  -1.0223625771109059e+01  -9.7440110606944721e+00  -9.2506034149401675e+00 
 -8.7442967541330425e+00  -8.2260836768863896e+00  -7.6970709776277717e+00  -7.1584981426734275e+00 
 -6.6117584254291355e+00  -6.0584216616006179e+00  -5.5002574560113651e+00  -4.9392567901675850e+00 
 -4.3776495092214702e+00  -3.8179146100201020e+00  -3.2627798535910495e+00  -2.7152070579984620e+00 
 -2.1783595965116929e+00  -1.6555492277111650e+00  -1.1501605036932312e+00  -6.6555268144417701e-01 
 -2.0494129632237340e-01  2.2873574498761035e-01  6.3295970688291281e-01  1.0057693607362974e+00 
 1.3458826536896988e+00  1.6527864586743664e+00  1.9267787074991065e+00  2.1689485731227989e+00 
 2.3810839320853696e+00  2.5655012843450686e+00  2.7248015412659230e+00  2.8615651550202426e+00 
 2.9780110964206439e+00  3.0756549359539482e+00  3.1550101555867269e+00  3.2153820266287259e+00 
 1.6774118506919005e+00  1.7430651124385956e+00  1.7781726255569390e+00  1.7783967202955968e+00 
 1.7398850620373894e+00  1.6601372377698616e+00  1.5389013717201061e+00  1.3789747224115332e+00 
 1.1867700254321902e+00  9.7247019208189511e-01  7.5000971052336896e-01  5.3350646229363252e-01 
 3.2833819298744155e-01  1.6066922201846984e-01  4.7561631848159334e-02  1.3666550394408155e-03 
 -1.3539446420500893e-04  1.3413523259874613e-05  -1.3288766085302925e-06  1.3165157705224798e-07 
 -1.3042815381336956e-08  1.2920431429714021e-09  -1.2763780778410941e-10  1.2625589475497333e-11 
 -1.4794631110336055e-12  5.2466459047329024e-13  -1.6549894371956650e-13  5.5170874802171728e-14 
 1.0584181168474231e-13  2.2723070284763303e-15  -2.1391683919234911e-13  1.5460206624364575e-13 
 -6.2709962462794526e-14  -7.2609567670341346e-14  -2.1497637496911637e-14  9.8193571436611189e-14 
 -1.7254322611099759e-14  5.5230893400113443e-15  -4.2152233022529455e-14  1.2543124160410059e-13 
 -9.2755486357584141e-14  7.3977565698402308e-14  8.2823544736815611e-14  -1.1616920498593817e-13 
 9.9555952106941472e-14  -7.6796821088108843e-14  6.3889899939113392e-14  2.8946979755436875e-15 
 -8.4991593468929754e-14  -1.4734541498746554e-14  2.3742607624936009e-14  2.2842333390778200e-14 
 -5.0292398859529757e-14  -4.1403261496181297e-15  3.6361394681158443e-14  4.1233362270182423e-14 
 -5.4317428504373939e-14  6.3791271891870580e-14  2.1681209497304641e-14  -2.8230420537398624e-14 
 4.0222853007748459e-14  -5.7754554110673948e-14  3.6153089503581629e-14  -3.4974883704178517e-14 
 2.6368422548284569e-14  3.3043518761755059e-15  0.0000000000000000e+00  0.0000000000000000e+00 
 0.0000000000000000e+00  0.0000000000000000e+00  0.0000000000000000e+00  0.0000000000000000e+00 
 0.0000000000000000e+00  0.0000000000000000e+00  0.0000000000000000e+00  0.0000000000000000e+00 
 0.0000000000000000e+00  0.0000000000000000e+00  0.0000000000000000e+00  0.0000000000000000e+00 
 0.0000000000000000e+00  0.0000000000000000e+00  0.0000000000000000e+00  0.0000000000000000e+00 
 0.0000000000000000e+00  0.0000000000000000e+00  0.0000000000000000e+00  0.0000000000000000e+00 
 0.0000000000000000e+00  0.0000000000000000e+00  0.0000000000000000e+00  0.0000000000000000e+00 
 0.0000000000000000e+00  0.0000000000000000e+00  0.0000000000000000e+00  0.0000000000000000e+00 
 0.0000000000000000e+00  0.0000000000000000e+00  0.0000000000000000e+00  0.0000000000000000e+00 
 0.0000000000000000e+00  0.0000000000000000e+00  0.0000000000000000e+00  0.0000000000000000e+00 
 0.0000000000000000e+00  0.0000000000000000e+00  0.0000000000000000e+00  0.0000000000000000e+00 
 0.0000000000000000e+00  0.0000000000000000e+00  0.0000000000000000e+00  0.0000000000000000e+00 
 0.0000000000000000e+00  0.0000000000000000e+00  0.0000000000000000e+00  0.0000000000000000e+00 
 0.0000000000000000e+00  0.0000000000000000e+00  0.0000000000000000e+00  0.0000000000000000e+00 
 0.0000000000000000e+00  0.0000000000000000e+00  0.0000000000000000e+00  0.0000000000000000e+00 
 0.0000000000000000e+00  0.0000000000000000e+00  0.0000000000000000e+00  0.0000000000000000e+00 
 0.0000000000000000e+00  0.0000000000000000e+00  0.0000000000000000e+00  0.0000000000000000e+00 
 0.0000000000000000e+00  0.0000000000000000e+00  0.0000000000000000e+00  0.0000000000000000e+00 
 0.0000000000000000e+00  0.0000000000000000e+00  0.0000000000000000e+00  0.0000000000000000e+00 
 0.0000000000000000e+00  0.0000000000000000e+00  0.0000000000000000e+00  0.0000000000000000e+00 
 0.0000000000000000e+00  0.0000000000000000e+00  0.0000000000000000e+00  0.0000000000000000e+00 
 0.0000000000000000e+00  0.0000000000000000e+00  0.0000000000000000e+00  0.0000000000000000e+00 
 0.0000000000000000e+00  0.0000000000000000e+00  0.0000000000000000e+00  0.0000000000000000e+00 
 0.0000000000000000e+00  0.0000000000000000e+00  0.0000000000000000e+00  0.0000000000000000e+00 
 0.0000000000000000e+00  0.0000000000000000e+00  0.0000000000000000e+00  0.0000000000000000e+00 
 0.0000000000000000e+00  0.0000000000000000e+00  0.0000000000000000e+00  0.0000000000000000e+00 
 0.0000000000000000e+00  0.0000000000000000e+00  0.0000000000000000e+00  0.0000000000000000e+00 
 0.0000000000000000e+00  0.0000000000000000e+00  0.0000000000000000e+00  0.0000000000000000e+00 
 0.0000000000000000e+00  0.0000000000000000e+00  0.0000000000000000e+00  0.0000000000000000e+00 
 0.0000000000000000e+00  0.0000000000000000e+00  0.0000000000000000e+00  0.0000000000000000e+00 
 0.0000000000000000e+00  0.0000000000000000e+00  0.0000000000000000e+00  0.0000000000000000e+00 
 0.0000000000000000e+00  0.0000000000000000e+00  0.0000000000000000e+00  0.0000000000000000e+00 
 0.0000000000000000e+00  0.0000000000000000e+00  0.0000000000000000e+00  0.0000000000000000e+00 
 0.0000000000000000e+00  0.0000000000000000e+00  0.0000000000000000e+00  0.0000000000000000e+00 
 0.0000000000000000e+00  0.0000000000000000e+00  0.0000000000000000e+00  0.0000000000000000e+00 
 0.0000000000000000e+00  0.0000000000000000e+00  0.0000000000000000e+00  0.0000000000000000e+00 
 0.0000000000000000e+00  0.0000000000000000e+00  0.0000000000000000e+00  0.0000000000000000e+00 
 0.0000000000000000e+00  0.0000000000000000e+00  0.0000000000000000e+00  0.0000000000000000e+00 
 0.0000000000000000e+00  0.0000000000000000e+00  0.0000000000000000e+00  0.0000000000000000e+00 
 0.0000000000000000e+00  0.0000000000000000e+00  0.0000000000000000e+00  0.0000000000000000e+00 
 0.0000000000000000e+00  0.0000000000000000e+00  0.0000000000000000e+00  0.0000000000000000e+00 
 0.0000000000000000e+00  0.0000000000000000e+00  0.0000000000000000e+00  0.0000000000000000e+00 
 0.0000000000000000e+00  0.0000000000000000e+00  0.0000000000000000e+00  0.0000000000000000e+00 
 0.0000000000000000e+00  0.0000000000000000e+00  0.0000000000000000e+00  0.0000000000000000e+00 
 0.0000000000000000e+00  0.0000000000000000e+00  0.0000000000000000e+00  0.0000000000000000e+00 
 0.0000000000000000e+00  0.0000000000000000e+00  0.0000000000000000e+00  0.0000000000000000e+00 
 0.0000000000000000e+00  0.0000000000000000e+00  0.0000000000000000e+00  0.0000000000000000e+00 
 0.0000000000000000e+00  0.0000000000000000e+00  0.0000000000000000e+00  0.0000000000000000e+00 
 0.0000000000000000e+00  0.0000000000000000e+00  0.0000000000000000e+00  0.0000000000000000e+00 
 0.0000000000000000e+00  0.0000000000000000e+00  0.0000000000000000e+00  0.0000000000000000e+00 
 0.0000000000000000e+00  0.0000000000000000e+00  0.0000000000000000e+00  0.0000000000000000e+00 
 0.0000000000000000e+00  0.0000000000000000e+00  0.0000000000000000e+00  0.0000000000000000e+00 
 0.0000000000000000e+00  0.0000000000000000e+00  0.0000000000000000e+00  0.0000000000000000e+00 
 0.0000000000000000e+00  0.0000000000000000e+00  0.0000000000000000e+00  0.0000000000000000e+00 
 0.0000000000000000e+00  0.0000000000000000e+00  0.0000000000000000e+00  0.0000000000000000e+00 
 0.0000000000000000e+00  0.0000000000000000e+00  0.0000000000000000e+00  0.0000000000000000e+00 
 0.0000000000000000e+00  0.0000000000000000e+00  0.0000000000000000e+00  0.0000000000000000e+00 
 0.0000000000000000e+00  0.0000000000000000e+00  0.0000000000000000e+00  0.0000000000000000e+00 
 0.0000000000000000e+00  0.0000000000000000e+00  0.0000000000000000e+00  0.0000000000000000e+00 
 0.0000000000000000e+00  0.0000000000000000e+00  0.0000000000000000e+00  0.0000000000000000e+00 
 0.0000000000000000e+00  0.0000000000000000e+00  0.0000000000000000e+00  0.0000000000000000e+00 
 0.0000000000000000e+00  0.0000000000000000e+00  0.0000000000000000e+00  0.0000000000000000e+00 
 0.0000000000000000e+00  0.0000000000000000e+00  0.0000000000000000e+00  0.0000000000000000e+00 
 0.0000000000000000e+00  0.0000000000000000e+00  0.0000000000000000e+00  0.0000000000000000e+00 
 0.0000000000000000e+00  0.0000000000000000e+00  0.0000000000000000e+00  0.0000000000000000e+00 
 0.0000000000000000e+00  0.0000000000000000e+00  0.0000000000000000e+00  0.0000000000000000e+00 
 0.0000000000000000e+00  0.0000000000000000e+00  0.0000000000000000e+00 
  </PP_BETA>
  <PP_DIJ>
 3   Number of nonzero Dij
 1 1 2.8409780750818965e+00 
 2 2 1.2446172311215626e+01 
 3 3 -1.2361771905279956e-01 
  </PP_DIJ>
</PP_NONLOCAL>
<PP_PSWFC>
S    0   1.50          Wavefunction
 9.6867073346405607e-07  9.8134566182318555e-07  9.9418643995047619e-07  1.0071952379686174e-06 
 1.0203742543960819e-06  1.0337257165186839e-06  1.0472518807659986e-06  1.0609550330927026e-06 
 1.0748374893649103e-06  1.0889015957515603e-06  1.1031497291209164e-06  1.1175842974422799e-06 
 1.1322077401929410e-06  1.1470225287704387e-06  1.1620311669102614e-06  1.1772361911089678e-06 
 1.1926401710528696e-06  1.2082457100523112e-06  1.2240554454816417e-06  1.2400720492249350e-06 
 1.2562982281275529e-06  1.2727367244535996e-06  1.2893903163493851e-06  1.3062618183129320e-06 
 1.3233540816696338e-06  1.3406699950541475e-06  1.3582124848985700e-06  1.3759845159270224e-06 
 1.3939890916566903e-06  1.4122292549054446e-06  1.4307080883060597e-06  1.4494287148272185e-06 
 1.4683942983012816e-06  1.4876080439590016e-06  1.5070731989711992e-06  1.5267930529975699e-06 
 1.5467709387426226e-06  1.5670102325189452e-06  1.5875143548177843e-06  1.6082867708871370e-06 
 1.6293309913173943e-06  1.6506505726346248e-06  1.6722491179016592e-06  1.6941302773270105e-06 
 1.7162977488817705e-06  1.7387552789245942e-06  1.7615066628348281e-06  1.7845557456539606e-06 
 1.8079064227354398e-06  1.8315626404029962e-06  1.8555283966176163e-06  1.8798077416531685e-06 
 1.9044047787809558e-06  1.9293236649631613e-06  1.9545686115553945e-06  1.9801438850184405e-06 
 2.0060538076392858e-06  2.0323027582616341e-06  2.0588951730259070e-06  2.0858355461190255e-06 
 2.1131284305338901e-06  2.1407784388388860e-06  2.1687902439574388e-06  2.1971685799577202e-06 
 2.2259182428527699e-06  2.2550440914110142e-06  2.2845510479774333e-06  2.3144440993054433e-06 
 2.3447282973997138e-06  2.3754087603699333e-06  2.4064906732958564e-06  2.4379792891035463e-06 
 2.4698799294531844e-06  2.5021979856384318e-06  2.5349389194976110e-06  2.5681082643367612e-06 
 2.6017116258648276e-06  2.6357546831410008e-06  2.6702431895345686e-06  2.7051829736972321e-06 
 2.7405799405481774e-06  2.7764400722720741e-06  2.8127694293300620e-06  2.8495741514840168e-06 
 2.8868604588341938e-06  2.9246346528704952e-06  2.9629031175374405e-06  3.0016723203130633e-06 
 3.0409488133020108e-06  3.0807392343428593e-06  3.1210503081299478e-06  3.1618888473498967e-06 
 3.2032617538330319e-06  3.2451760197197885e-06  3.2876387286424520e-06  3.3306570569223683e-06 
 3.3742382747827609e-06  3.4183897475774435e-06  3.4631189370356566e-06  3.5084334025231373e-06 
 3.5543408023197071e-06  3.6008488949135560e-06  3.6479655403125636e-06  3.6956987013726046e-06 
 3.7440564451434177e-06  3.7930469442319947e-06  3.8426784781837449e-06  3.8929594348819162e-06 
 3.9438983119651356e-06  3.9955037182636731e-06  4.0477843752543151e-06  4.1007491185344474e-06 
 4.1544068993153429e-06  4.2087667859349748e-06  4.2638379653906814e-06  4.3196297448918804e-06 
 4.3761515534330173e-06  4.4334129433872599e-06  4.4914235921208656e-06  4.5501933036288076e-06 
 4.6097320101917453e-06  4.6700497740547324e-06  4.7311567891277821e-06  4.7930633827088339e-06 
 4.8557800172291376e-06  4.9193172920215707e-06  4.9836859451120214e-06  5.0488968550343381e-06 
 5.1149610426688351e-06  5.1818896731050401e-06  5.2496940575287737e-06  5.3183856551337845e-06 
 5.3879760750586795e-06  5.4584770783489272e-06  5.5299005799446381e-06  5.6022586506945165e-06 
 5.6755635193958149e-06  5.7498275748614239e-06  5.8250633680135809e-06  5.9012836140053793e-06 
 5.9785011943696582e-06  6.0567291591963536e-06  6.1359807293381543e-06  6.2162692986450744e-06 
 6.2976084362282391e-06  6.3800118887533484e-06  6.4634935827641921e-06  6.5480676270363814e-06 
 6.6337483149621797e-06  6.7205501269662912e-06  6.8084877329533873e-06  6.8975759947876718e-06 
 6.9878299688048868e-06  7.0792649083570688e-06  7.1718962663908910e-06  7.2657396980595519e-06 
 7.3608110633687286e-06  7.4571264298575491e-06  7.5547020753143245e-06  7.6535544905278470e-06 
 7.7537003820749903e-06  7.8551566751443804e-06  7.9579405163973970e-06  8.0620692768664209e-06 
 8.1675605548909755e-06  8.2744321790925340e-06  8.3827022113880028e-06  8.4923889500428693e-06 
 8.6035109327641509e-06  8.7160869398339510e-06  8.8301359972839267e-06  8.9456773801113766e-06 
 9.0627306155375528e-06  9.1813154863082820e-06  9.3014520340381504e-06  9.4231605625983336e-06 
 9.5464616415486911e-06  9.6713761096149297e-06  9.7979250782112597e-06  9.9261299350090916e-06 
 1.0056012347552520e-05  1.0187594266921184e-05  1.0320897931440875e-05  1.0455945870443136e-05 
 1.0592760908073543e-05  1.0731366167150392e-05  1.0871785073073492e-05  1.1014041357784378e-05 
 1.1158159063778219e-05  1.1304162548168445e-05  1.1452076486804457e-05  1.1601925878443245e-05 
 1.1753736048975695e-05  1.1907532655708360e-05  1.2063341691700980e-05  1.2221189490161006e-05 
 1.2381102728895884e-05  1.2543108434823131e-05  1.2707233988539934e-05  1.2873507128952469e-05 
 1.3041955957965778e-05  1.3212608945234925e-05  1.3385494932978834e-05  1.3560643140856856e-05 
 1.3738083170909141e-05  1.3917845012561955e-05  1.4099959047698404e-05  1.4284456055795730e-05 
 1.4471367219129581e-05  1.4660724128047018e-05  1.4852558786308138e-05  1.5046903616497582e-05 
 1.5243791465507527e-05  1.5443255610092060e-05  1.5645329762494268e-05  1.5850048076147466e-05 
 1.6057445151450656e-05  1.6267556041620220e-05  1.6480416258617627e-05  1.6696061779155343e-05 
 1.6914529050781378e-05  1.7135854998043293e-05  1.7360077028733350e-05  1.7587233040215285e-05 
 1.7817361425834023e-05  1.8050501081409518e-05  1.8286691411815900e-05  1.8525972337646173e-05 
 1.8768384301965315e-05  1.9013968277150824e-05  1.9262765771823908e-05  1.9514818837871050e-05 
 1.9770170077557627e-05  2.0028862650735064e-05  2.0290940282142360e-05  2.0556447268803399e-05 
 2.0825428487521253e-05  2.1097929402470726e-05  2.1373996072890910e-05  2.1653675160877981e-05 
 2.1937013939280638e-05  2.2224060299699576e-05  2.2514862760590534e-05  2.2809470475475491e-05 
 2.3107933241260204e-05  2.3410301506661436e-05  2.3716626380744763e-05  2.4026959641574803e-05 
 2.4341353744978293e-05  2.4659861833422721e-05  2.4982537745011184e-05  2.5309436022596051e-05 
 2.5640611923011342e-05  2.5976121426427198e-05  2.6316021245826567e-05  2.6660368836606919e-05 
 2.7009222406307809e-05  2.7362640924466284e-05  2.7720684132601727e-05  2.8083412554332363e-05 
 2.8450887505623711e-05  2.8823171105173282e-05  2.9200326284930049e-05  2.9582416800754103e-05 
 2.9969507243214351e-05  3.0361663048530336e-05  3.0758950509656314e-05  3.1161436787512519e-05 
 3.1569189922362717e-05  3.1982278845342839e-05  3.2400773390140654e-05  3.2824744304828921e-05 
 3.3254263263855306e-05  3.3689402880188780e-05  3.4130236717627678e-05  3.4576839303267811e-05 
 3.5029286140137036e-05  3.5487653719994377e-05  3.5952019536299123e-05  3.6422462097350088e-05 
 3.6899060939598637e-05  3.7381896641136610e-05  3.7871050835363077e-05  3.8366606224830302e-05 
 3.8868646595272782e-05  3.9377256829822457e-05  3.9892522923409473e-05  4.0414531997355013e-05 
 4.0943372314155489e-05  4.1479133292463269e-05  4.2021905522263709e-05  4.2571780780254703e-05 
 4.3128852045427849e-05  4.3693213514856176e-05  4.4264960619691670e-05  4.4844190041372199e-05 
 4.5430999728045902e-05  4.6025488911209878e-05  4.6627758122571813e-05  4.7237909211132966e-05 
 4.7856045360498991e-05  4.8482271106419453e-05  4.9116692354559232e-05  4.9759416398507684e-05 
 5.0410551938024419e-05  5.1070209097528941e-05  5.1738499444833911e-05  5.2415536010130262e-05 
 5.3101433305221184e-05  5.3796307343013986e-05  5.4500275657270708e-05  5.5213457322620401e-05 
 5.5935972974839808e-05  5.6667944831402039e-05  5.7409496712300176e-05  5.8160754061148442e-05 
 5.8921843966563702e-05  5.9692895183833158e-05  6.0474038156871221e-05  6.1265405040469322e-05 
 6.2067129722842034e-05  6.2879347848477228e-05  6.3702196841288855e-05  6.4535815928081126e-05 
 6.5380346162327644e-05  6.6235930448266481e-05  6.7102713565321532e-05  6.7980842192849730e-05 
 6.8870464935219430e-05  6.9771732347228264e-05  7.0684796959860874e-05  7.1609813306393137e-05 
 7.2546937948848980e-05  7.3496329504811676e-05  7.4458148674598956e-05  7.5432558268801920e-05 
 7.6419723236198118e-05  7.7419810692041301e-05  7.8432989946731818e-05  7.9459432534877882e-05 
 8.0499312244749292e-05  8.1552805148128800e-05  8.2620089630571498e-05  8.3701346422073201e-05 
 8.4796758628156950e-05  8.5906511761380723e-05  8.7030793773276924e-05  8.8169795086725302e-05 
 8.9323708628768578e-05  9.0492729863876476e-05  9.1677056827665400e-05  9.2876890161077753e-05 
 9.4092433145032543e-05  9.5323891735549723e-05  9.6571474599359088e-05  9.7835393149995782e-05 
 9.9115861584398013e-05  1.0041309692000473e-04  1.0172731903236862e-04  1.0305875069329029e-04 
 1.0440761760947553e-04  1.0577414846173629e-04  1.0715857494472871e-04  1.0856113180725040e-04 
 1.0998205689309319e-04  1.1142159118247141e-04  1.1287997883402511e-04  1.1435746722741336e-04 
 1.1585430700650513e-04  1.1737075212317403e-04  1.1890705988171269e-04  1.2046349098387098e-04 
 1.2204030957453052e-04  1.2363778328802706e-04  1.2525618329512552e-04  1.2689578435066758e-04 
 1.2855686484189162e-04  1.3023970683744601e-04  1.3194459613709964e-04  1.3367182232216704e-04 
 1.3542167880665402e-04  1.3719446288914118e-04  1.3899047580541289e-04  1.4081002278184962e-04 
 1.4265341308959163e-04  1.4452096009948633e-04  1.4641298133784270e-04  1.4832979854298661e-04 
 1.5027173772265938e-04  1.5223912921224093e-04  1.5423230773384274e-04  1.5625161245626395e-04 
 1.5829738705583566e-04  1.6036997977816821e-04  1.6246974350081587e-04  1.6459703579687582e-04 
 1.6675221899953700e-04  1.6893566026759930e-04  1.7114773165197787e-04  1.7338881016321065e-04 
 1.7565927783998910e-04  1.7795952181872890e-04  1.8028993440420408e-04  1.8265091314125781e-04 
 1.8504286088761668e-04  1.8746618588782655e-04  1.8992130184832849e-04  1.9240862801370691e-04 
 1.9492858924411333e-04  1.9748161609391566e-04  2.0006814489156687e-04  2.0268861782074546e-04 
 2.0534348300276805e-04  2.0803319458032203e-04  2.1075821280252250e-04  2.1351900411134257e-04 
 2.1631604122942635e-04  2.1914980324932293e-04  2.2202077572417160e-04  2.2492945075985711e-04 
 2.2787632710868623e-04  2.3086191026459264e-04  2.3388671255992457e-04  2.3695125326383468e-04 
 2.4005605868231291e-04  2.4320166225990066e-04  2.4638860468311050e-04  2.4961743398560797e-04 
 2.5288870565517226e-04  2.5620298274250014e-04  2.5956083597186935e-04  2.6296284385372376e-04 
 2.6640959279920984e-04  2.6990167723672397e-04  2.7343969973049734e-04  2.7702427110128249e-04 
 2.8065601054918680e-04  2.8433554577869652e-04  2.8806351312595283e-04  2.9184055768832599e-04 
 2.9566733345634901e-04  2.9954450344806368e-04  3.0347273984583780e-04  3.0745272413572458e-04 
 3.1148514724940344e-04  3.1557070970879758e-04  3.1971012177340686e-04  3.2390410359045010e-04 
 3.2815338534786085e-04  3.3245870743023553e-04  3.3682082057779364e-04  3.4124048604843916e-04 
 3.4571847578298702e-04  3.5025557257366659e-04  3.5485257023594891e-04  3.5951027378383491e-04 
 3.6422949960864833e-04  3.6901107566146942e-04  3.7385584163927214e-04  3.7876464917490591e-04 
 3.8373836203098571e-04  3.8877785629782478e-04  3.9388402059552653e-04  3.9905775628032940e-04 
 4.0429997765534232e-04  4.0961161218579239e-04  4.1499360071890642e-04  4.2044689770857143e-04 
 4.2597247144489928e-04  4.3157130428884532e-04  4.3724439291202712e-04  4.4299274854189727e-04 
 4.4881739721242887e-04  4.5471938002046071e-04  4.6069975338791110e-04  4.6675958932999097e-04 
 4.7289997572962512e-04  4.7912201661825843e-04  4.8542683246325275e-04  4.9181556046206938e-04 
 4.9828935484343140e-04  5.0484938717571416e-04  5.1149684668276270e-04  5.1823294056738286e-04 
 5.2505889434272901e-04  5.3197595217186443e-04  5.3898537721573073e-04  5.4608845198979858e-04 
 5.5328647872968854e-04  5.6058077976603958e-04  5.6797269790892773e-04  5.7546359684213563e-04 
 5.8305486152761114e-04  5.9074789862044127e-04  5.9854413689466120e-04  6.0644502768030667e-04 
 6.1445204531203074e-04  6.2256668758969521e-04  6.3079047625134587e-04  6.3912495745894148e-04 
 6.4757170229732554e-04  6.5613230728683836e-04  6.6480839491004035e-04  6.7360161415306338e-04 
 6.8251364106202209e-04  6.9154617931506076e-04  7.0070096081052875e-04  7.0997974627188425e-04 
 7.1938432586983513e-04  7.2891651986238743e-04  7.3857817925337900e-04  7.4837118647014776e-04 
 7.5829745606101351e-04  7.6835893541325924e-04  7.7855760549232472e-04  7.8889548160298304e-04 
 7.9937461417325429e-04  8.0999708956184212e-04  8.2076503089001341e-04  8.3168059889864997e-04 
 8.4274599283152944e-04  8.5396345134563698e-04  8.6533525344954202e-04  8.7686371947088323e-04 
 8.8855121205388922e-04  9.0040013718816240e-04  9.1241294526975595e-04  9.2459213219573267e-04 
 9.3694024049347966e-04  9.4945986048594231e-04  9.6215363149417964e-04  9.7502424307856661e-04 
 9.8807443632001118e-04  1.0013070051427661e-03  1.0147247976802234e-03  1.0283307176854174e-03 
 1.0421277259877312e-03  1.0561188419976407e-03  1.0703071452612071e-03  1.0846957770661780e-03 
 1.0992879421015728e-03  1.1140869101728193e-03  1.1290960179744134e-03  1.1443186709222989e-03 
 1.1597583450482119e-03  1.1754185889582091e-03  1.1913030258579220e-03  1.2074153556468857e-03 
 1.2237593570846236e-03  1.2403388900311765e-03  1.2571578977648218e-03  1.2742204093799143e-03 
 1.2915305422678913e-03  1.3090925046844997e-03  1.3269105984065879e-03  1.3449892214817600e-03 
 1.3633328710744752e-03  1.3819461464121619e-03  1.4008337518351952e-03  1.4200004999546372e-03 
 1.4394513149218369e-03  1.4591912358141298e-03  1.4792254201410275e-03  1.4995591474754992e-03 
 1.5201978232150996e-03  1.5411469824778300e-03  1.5624122941379263e-03  1.5839995650068571e-03 
 1.6059147441650778e-03  1.6281639274502813e-03  1.6507533621080608e-03  1.6736894516113327e-03 
 1.6969787606547170e-03  1.7206280203307684e-03  1.7446441334948543e-03  1.7690341803259959e-03 
 1.7938054240910033e-03  1.8189653171198407e-03  1.8445215070001118e-03  1.8704818429992351e-03 
 1.8968543827227410e-03  1.9236473990179893e-03  1.9508693871324448e-03  1.9785290721364090e-03 
 2.0066354166201283e-03  2.0351976286759302e-03  2.0642251701760987e-03  2.0937277653579152e-03 
 2.1237154097274312e-03  2.1541983792942435e-03  2.1851872401498556e-03  2.2166928584025749e-03 
 2.2487264104827922e-03  2.2812993938324047e-03  2.3144236379932411e-03  2.3481113161094944e-03 
 2.3823749568599433e-03  2.4172274568362352e-03  2.4526820933841119e-03  2.4887525379250967e-03 
 2.5254528697769103e-03  2.5627975904912647e-03  2.6008016387286431e-03  2.6394804056903988e-03 
 2.6788497511288380e-03  2.7189260199574406e-03  2.7597260594831290e-03  2.8012672372845562e-03 
 2.8435674597599683e-03  2.8866451913699188e-03  2.9305194746006859e-03  2.9752099506750811e-03 
 3.0207368810384037e-03  3.0671211696482229e-03  3.1143843860976356e-03  3.1625487896026357e-03 
 3.2116373538854082e-03  3.2616737929862449e-03  3.3126825880380475e-03  3.3646890150383531e-03 
 3.4177191736551914e-03  3.4718000171039590e-03  3.5269593831340654e-03  3.5832260261650338e-03 
 3.6406296506131895e-03  3.6992009454512500e-03  3.7589716200445780e-03  3.8199744413090963e-03 
 3.8822432722372064e-03  3.9458131118395657e-03  4.0107201365518199e-03  4.0770017431571099e-03 
 4.1446965932760800e-03  4.2138446594782823e-03  4.2844872730697361e-03  4.3566671736132486e-03 
 4.4304285602395138e-03  4.5058171448083715e-03  4.5828802069814017e-03  4.6616666512682738e-03 
 4.7422270661109083e-03  4.8246137850710439e-03  4.9088809501881322e-03  4.9950845775761235e-03 
 5.0832826253291710e-03  5.1735350638074194e-03  5.2659039483759973e-03  5.3604534946709876e-03 
 5.4572501564682059e-03  5.5563627062313985e-03  5.6578623184176564e-03  5.7618226556196651e-03 
 5.8683199576246353e-03  5.9774331334713363e-03  6.0892438565875702e-03  6.2038366630912138e-03 
 6.3212990533386727e-03  6.4417215968051106e-03  6.5651980403825094e-03  6.6918254201801227e-03 
 6.8217041769141756e-03  6.9549382749729237e-03  7.0916353252436738e-03  7.2319067117879348e-03 
 7.3758677224518131e-03  7.5236376834974111e-03  7.6753400983415373e-03  7.8311027904873123e-03 
 7.9910580507337996e-03  8.1553427887484375e-03  8.3240986890861547e-03  8.4974723717386128e-03 
 8.6756155572965000e-03  8.8586852368067737e-03  9.0468438464065583e-03  9.2402594468145704e-03 
 9.4391059077611680e-03  9.6435630974373091e-03  9.8538170770430516e-03  1.0070060300517249e-02 
 1.0292491819529917e-02  1.0521317493821014e-02  1.0756750206971246e-02  1.0999010087692298e-02 
 1.1248324736729157e-02  1.1504929459469699e-02  1.1769067504364177e-02  1.2040990307262809e-02 
 1.2320957741788758e-02  1.2609238375873718e-02  1.2906109734594582e-02  1.3211858569464281e-02 
 1.3526781134345184e-02  1.3851183468172277e-02  1.4185381684694586e-02  1.4529702269466755e-02 
 1.4884482384350139e-02  1.5250070179812831e-02  1.5626825115352336e-02  1.6015118288401034e-02 
 1.6415332772117149e-02  1.6827863962507454e-02  1.7253119935378484e-02  1.7691521813664852e-02 
 1.8143504145741347e-02  1.8609515295384561e-02  1.9090017844115618e-02  1.9585489006721985e-02 
 2.0096421060825511e-02  2.0623321791437735e-02  2.1166714951514433e-02  2.1727140739595020e-02 
 2.2305156295685618e-02  2.2901336216611220e-02  2.3516273092129471e-02  2.4150578063154987e-02 
 2.4804881403492945e-02  2.5479833126517182e-02  2.6176103618251033e-02  2.6894384298311567e-02 
 2.7635388310159999e-02  2.8399851242055366e-02  2.9188531880029692e-02  3.0002212994091729e-02 
 3.0841702158706526e-02  3.1707832608397435e-02  3.2601464129055603e-02  3.3523483985224700e-02 
 3.4474807883243537e-02  3.5456380969667800e-02  3.6469178863858621e-02  3.7514208722997842e-02 
 3.8592510337080735e-02  3.9705157250629203e-02  4.0853257906963827e-02  4.2037956809870124e-02 
 4.3260435696395622e-02  4.4521914713314806e-02  4.5823653588515971e-02  4.7166952787192594e-02 
 4.8553154641288405e-02  4.9983644439153659e-02  5.1459851460850844e-02  5.2983249943021671e-02 
 5.4555359955729042e-02  5.6177748172252774e-02  5.7852028511490662e-02  5.9579862631443603e-02 
 6.1362960251311251e-02  6.3203079279026339e-02  6.5102025720714149e-02  6.7061653348611291e-02 
 6.9083863104501902e-02  7.1170602216799161e-02  7.3323863011073839e-02  7.5545681396172570e-02 
 7.7838135011129017e-02  8.0203341021886032e-02  8.2643453561423927e-02  8.5160660812238678e-02 
 8.7757181736175124e-02  9.0435262463338190e-02  9.3197172359046274e-02  9.6045199795396496e-02 
 9.8981647661768174e-02  1.0200882865619877e-01  1.0512906040672045e-01  1.0834466047799850e-01 
 1.1165794132356552e-01  1.1507120524702437e-01  1.1858673943628777e-01  1.2220681113263454e-01 
 1.2593366299050018e-01  1.2976950867393150e-01  1.3371652872099796e-01  1.3777686668777464e-01 
 1.4195262555850968e-01  1.4624586437823053e-01  1.5065859502850046e-01  1.5519277902686079e-01 
 1.5985032418656930e-01  1.6463308092693427e-01  1.6954283797766848e-01  1.7458131717558215e-01 
 1.7975016701150195e-01  1.8505095455282866e-01  1.9048515534651184e-01  1.9605414090244799e-01 
 2.0175916337270233e-01  2.0760133708167469e-01  2.1358161663016387e-01  2.1970077139531702e-01 
 2.2595935638057624e-01  2.3235767953525702e-01  2.3889576586052125e-01  2.4557331884283465e-01 
 2.5238968000015088e-01  2.5934378757925930e-01  2.6643413569070351e-01  2.7365873539262764e-01 
 2.8101507941594522e-01  2.8850011233696771e-01  2.9611020802554106e-01  3.0384115610241375e-01 
 3.1168815890735901e-01  3.1964584009255320e-01  3.2770826540516340e-01  3.3586897551131734e-01 
 3.4412102985721194e-01  3.5245705959580914e-01  3.6086932658221094e-01  3.6934978443036481e-01 
 3.7789013672031463e-01  3.8648188675706224e-01  3.9511637292781931e-01  4.0378478380428406e-01 
 4.1247814780058872e-01  4.2118729351101264e-01  4.2990277885818495e-01  4.3861478986685798e-01 
 4.4731301314924943e-01  4.5598648986460144e-01  4.6462346272073579e-01  4.7321123114611241e-01 
 4.8173603262339532e-01  4.9018296983286086e-01  4.9853600319127783e-01  5.0677802612669620e-01 
 5.1489103566619321e-01  5.2285640350492324e-01  5.3065524283361476e-01  5.3826885434940952e-01 
 5.4567922198317176e-01  5.5286951626574976e-01  5.5982455258687347e-01  5.6653114474643063e-01 
 5.7297829304279091e-01  5.7915715231298770e-01  5.8506073988745955e-01  5.9068336649758668e-01 
 5.9601980373437469e-01  6.0106423727499758e-01  6.0580909193936827e-01  6.1024384768338269e-01 
 6.1435673892728282e-01  6.1814405256931637e-01  6.2160467178724710e-01  6.2473774757200029e-01 
 6.2754269827195597e-01  6.3001920926108157e-01  6.3216723270832265e-01  6.3398698742284620e-01 
 6.3547895874627380e-01  6.3664389846074609e-01  6.3748282468060546e-01  6.3799702169556816e-01 
 6.3818803973441274e-01  6.3805769462021089e-01  6.3760806729088448e-01  6.3684150316212951e-01 
 6.3576061131335815e-01  6.3436826348110442e-01  6.3266759284815643e-01  6.3066199262038447e-01 
 6.2835511438673097e-01  6.2575086626100640e-01  6.2285341080694157e-01  6.1966716275029765e-01 
 6.1619678648370591e-01  6.1244719337122555e-01  6.0842353886035105e-01  6.0413121940930459e-01 
 5.9957586923687634e-01  5.9476335690074855e-01  5.8969978170813520e-01  5.8439146995955649e-01 
 5.7884497102266241e-01  5.7306705322808404e-01  5.6706469957334316e-01  5.6084510321382386e-01 
 5.5441566271176723e-01  5.4778397700521642e-01  5.4095784004901359e-01  5.3394523506950708e-01 
 5.2675432836392588e-01  5.1939346256485852e-01  5.1187114928046540e-01  5.0419606101265402e-01 
 4.9637702224919117e-01  4.8842299962244939e-01  4.8034309102804118e-01  4.7214651360176491e-01 
 4.6384259046380033e-01  4.5544073615539082e-01  4.4695044071564083e-01  4.3838125237433290e-01 
 4.2974275887040070e-01  4.2104456744388391e-01  4.1229628359055404e-01  4.0350748871121517e-01 
 3.9468771683003745e-01  3.8584643059608753e-01  3.7699299681743142e-01  3.6813666180593779e-01 
 3.5928652683161583e-01  3.5045152399688151e-01  3.4164039284291520e-01  3.3286165799218198e-01 
 3.2412360811367019e-01  3.1543427647136596e-01  3.0680142328320736e-01  2.9823252007875140e-01 
 2.8973473620076629e-01  2.8131492755056620e-01  2.7297962763081179e-01  2.6473504089414140e-01 
 2.5658703836268082e-01  2.4854115544321545e-01  2.4060259182643928e-01  2.3277621332678752e-01 
 2.2506655549232718e-01  2.1747782879224661e-01  2.1001392517276904e-01  2.0267842576082173e-01 
 1.9547460948846623e-01  1.8840546240983128e-01  1.8147368748592721e-01  1.7468171462107196e-01 
 1.6803171074747175e-01  1.6152558977145251e-01  1.5516502221555670e-01  1.4895144441468758e-01 
 1.4288606715112609e-01  1.3696988364183932e-01  1.3120367682126061e-01  1.2558802589274837e-01 
 1.2012331215130745e-01  1.1480972410794354e-01  1.0964726197132435e-01  1.0463574156444043e-01 
 9.9774797772030632e-02  9.5063887628175109e-02  9.0502293162374112e-02  8.6089124126560626e-02 
 8.1823320724975446e-02  7.7703656464003415e-02  7.3728741230431258e-02  6.9897024694760071e-02 
 6.6206800121902040e-02  6.2656208655547274e-02  5.9243244125441262e-02  5.5965758409460123e-02 
 5.2821467365330360e-02  4.9807957330645185e-02  4.6922692174906355e-02  4.4163020873993528e-02 
 4.1526185565946457e-02  3.9009330037360811e-02  3.6609508582084033e-02  3.4323695168215401e-02 
 3.2148792845575758e-02  3.0081643323680241e-02  2.8119036649659042e-02  2.6257720916345154e-02 
 2.4494411932693319e-02  2.2825802791620588e-02  2.1248573274085004e-02  1.9759399032568195e-02 
 1.8354960501944032e-02  1.7031951490853750e-02  1.5787087412042277e-02  1.4617113115529969e-02 
 1.3518810293905014e-02  1.2489004434345481e-02  1.1524571297151046e-02  1.0622442905531510e-02 
 9.7796130361210085e-03  8.9931422041324774e-03  8.2601621412146282e-03  7.5778797679081069e-03 
 6.9435806661104355e-03  6.3546320601472056e-03  5.8084853179110581e-03  5.3026779860742097e-03 
 4.8348353756130832e-03  4.4026717158135997e-03  4.0039908965652246e-03  3.6366868201134803e-03 
 3.2987433845382951e-03  2.9882341220741179e-03  2.7033215160022065e-03  2.4422560202416112e-03 
 2.2033748059585791e-03  1.9851002595203046e-03  1.7859382559535326e-03  1.6044762317469711e-03 
 1.4393810803738586e-03  1.2893968933221250e-03  1.1533425687187656e-03  1.0301093088361574e-03 
 9.1865802688471563e-04  8.1801668254111745e-04  7.2727756464705797e-04  6.4559453845157097e-04 
 5.7218027367183101e-04  5.0630346852342638e-04  4.4728608373142709e-04  3.9450059938740532e-04 
 3.4736730637355371e-04  3.0535164294121105e-04  2.6796158591474483e-04  2.3474510489950249e-04 
 2.0528768681050093e-04  1.7920993701193958e-04  1.5616526237126753e-04  1.3583764058943117e-04 
 1.1793947927453823e-04  1.0220956738232168e-04  8.8411120855731324e-05  7.6329923559383654e-05 
 6.5772563923620291e-05  5.6564767088167498e-05  4.8549821766999384e-05  4.1587100543654904e-05 
 3.5550671849201561e-05  3.0328001472136932e-05  2.5818741099275642e-05  2.1933601087277918e-05 
 1.8593304413833706e-05  1.5727618553289606e-05  1.3274461861142935e-05  1.1179080932613915e-05 
 9.3932953195914246e-06  7.8748059446845737e-06  6.5865635378919468e-06  5.4961934374851811e-06 
 4.5754731390580562e-06  3.7998590423151078e-06  3.1480589311197821e-06  2.6016468257340270e-06 
 2.1447169643050497e-06  1.7635738008647948e-06  1.4464550469179987e-06  1.1832849307775817e-06 
 9.6545500099911637e-07  7.8562995558207042e-07  6.3757622606572964e-07  5.1601164151973761e-07 
 4.1647096721296524e-07  3.3519079172775237e-07  2.6900825431602409e-07  2.1527280355512310e-07 
 1.7176963952936179e-07  1.3665349632093843e-07  1.0839154566752415e-07  8.5714319522954636e-08 
 6.7573658763846924e-08  5.3106797345463001e-08  4.1605785844979928e-08  3.2491545641593088e-08 
 2.5291925142957481e-08  1.9623202707893579e-08  1.5174547516003045e-08  1.1695009914092821e-08 
 8.9826670741869024e-09  6.8755984956930542e-09  5.2444093546190455e-09  3.9860583306054251e-09 
 3.0187807122353086e-09  2.2779276708982069e-09  1.7125689713558174e-09  1.2827294070475300e-09 
 9.5714924724314487e-10  7.1147627962129426e-10  5.2681192350524033e-10  3.8854665223617544e-10 
 2.8543085262380913e-10  2.0883649790808212e-10  1.5217282959175635e-10  1.1042582349932808e-10 
 7.9796727265049803e-11  5.7419552162630346e-11  4.1141216216806168e-11  2.9351186084543837e-11 
 2.0850055560574269e-11  1.4748618513462922e-11  1.0390721188517976e-11  7.2945798884989346e-12 
 5.1083823188025518e-12  0.0000000000000000e+00  0.0000000000000000e+00  0.0000000000000000e+00 
 0.0000000000000000e+00  0.0000000000000000e+00  0.0000000000000000e+00  0.0000000000000000e+00 
 0.0000000000000000e+00  0.0000000000000000e+00  0.0000000000000000e+00  0.0000000000000000e+00 
 0.0000000000000000e+00  0.0000000000000000e+00  0.0000000000000000e+00  0.0000000000000000e+00 
 0.0000000000000000e+00  0.0000000000000000e+00  0.0000000000000000e+00  0.0000000000000000e+00 
 0.0000000000000000e+00  0.0000000000000000e+00  0.0000000000000000e+00  0.0000000000000000e+00 
 0.0000000000000000e+00  0.0000000000000000e+00  0.0000000000000000e+00  0.0000000000000000e+00 
 0.0000000000000000e+00  0.0000000000000000e+00  0.0000000000000000e+00  0.0000000000000000e+00 
 0.0000000000000000e+00  0.0000000000000000e+00  0.0000000000000000e+00  0.0000000000000000e+00 
 0.0000000000000000e+00  0.0000000000000000e+00  0.0000000000000000e+00  0.0000000000000000e+00 
 0.0000000000000000e+00  0.0000000000000000e+00  0.0000000000000000e+00  0.0000000000000000e+00 
 0.0000000000000000e+00  0.0000000000000000e+00  0.0000000000000000e+00  0.0000000000000000e+00 
 0.0000000000000000e+00  0.0000000000000000e+00  0.0000000000000000e+00  0.0000000000000000e+00 
 0.0000000000000000e+00  0.0000000000000000e+00  0.0000000000000000e+00  0.0000000000000000e+00 
 0.0000000000000000e+00  0.0000000000000000e+00  0.0000000000000000e+00  0.0000000000000000e+00 
 0.0000000000000000e+00  0.0000000000000000e+00  0.0000000000000000e+00  0.0000000000000000e+00 
 0.0000000000000000e+00  0.0000000000000000e+00  0.0000000000000000e+00  0.0000000000000000e+00 
 0.0000000000000000e+00  0.0000000000000000e+00  0.0000000000000000e+00  0.0000000000000000e+00 
 0.0000000000000000e+00  0.0000000000000000e+00  0.0000000000000000e+00 
P    1   0.00          Wavefunction
 1.5748316220079262e-10  1.6163141806744977e-10  1.6588894292844901e-10  1.7025861503275614e-10 
 1.7474338844514595e-10  1.7934629504326144e-10  1.8407044656728003e-10  1.8891903672356760e-10 
 1.9389534334374569e-10  1.9900273060063114e-10  2.0424465128254464e-10  2.0962464912752740e-10 
 2.1514636121904297e-10  2.2081352044478450e-10  2.2662995802024919e-10  2.3259960607878538e-10 
 2.3872650032986519e-10  2.4501478278737756e-10  2.5146870456978784e-10  2.5809262877405548e-10 
 2.6489103342525435e-10  2.7186851450388795e-10  2.7902978905294764e-10  2.8637969836681372e-10 
 2.9392321126415447e-10  3.0166542744703744e-10  3.0961158094852205e-10  3.1776704367106590e-10 
 3.2613732901813570e-10  3.3472809562147727e-10  3.4354515116656777e-10  3.5259445631883160e-10 
 3.6188212875327718e-10  3.7141444729027939e-10  3.8119785614030156e-10  3.9123896926042614e-10 
 4.0154457482564413e-10  4.1212163981791783e-10  4.2297731473612820e-10  4.3411893843008407e-10 
 4.4555404306186439e-10  4.5729035919784727e-10  4.6933582103486731e-10  4.8169857176403694e-10 
 4.9438696907585152e-10  5.0740959081030958e-10  5.2077524075585761e-10  5.3449295460108947e-10 
 5.4857200604321345e-10  5.6302191305742892e-10  5.7785244433143795e-10  5.9307362586945184e-10 
 6.0869574777015368e-10  6.2472937118319590e-10  6.4118533544894229e-10  6.5807476542627379e-10 
 6.7540907901342012e-10  6.9319999486689208e-10  7.1145954032374325e-10  7.3020005953250800e-10 
 7.4943422179831593e-10  7.6917503014782856e-10  7.8943583011977942e-10  8.1023031878706845e-10 
 8.3157255401650827e-10  8.5347696397247558e-10  8.7595835687090435e-10  8.9903193099020422e-10 
 9.2271328494587692e-10  9.4701842823577775e-10  9.7196379206314618e-10  9.9756624044472756e-10 
 1.0238430816114942e-09  1.0508120797096681e-09  1.0784914668099662e-09  1.1068999552331753e-09 
 1.1360567502003954e-09  1.1659815628165054e-09  1.1966946233956226e-09  1.2282166951375674e-09 
 1.2605690881645853e-09  1.2937736739277970e-09  1.3278528999931441e-09  1.3628298052167945e-09 
 1.3987280353202997e-09  1.4355718588759983e-09  1.4733861837135063e-09  1.5121965737583605e-09 
 1.5520292663142101e-09  1.5929111898002416e-09  1.6348699819558188e-09  1.6779340085246548e-09 
 1.7221323824311355e-09  1.7674949834617843e-09  1.8140524784651296e-09  1.8618363420836749e-09 
 1.9108788780319676e-09  1.9612132409351406e-09  2.0128734587427153e-09  2.0658944557327992e-09 
 2.1203120761222375e-09  2.1761631082986769e-09  2.2334853096909317e-09  2.2923174322944527e-09 
 2.3526992488691570e-09  2.4146715798273537e-09  2.4782763208298946e-09  2.5435564711092732e-09 
 2.6105561625387261e-09  2.6793206894671073e-09  2.7498965393395832e-09  2.8223314241249485e-09 
 2.8966743125707533e-09  2.9729754633080390e-09  3.0512864588281399e-09  3.1316602403544003e-09 
 3.2141511436325014e-09  3.2988149356635017e-09  3.3857088524045011e-09  3.4748916374623204e-09 
 3.5664235818064735e-09  3.6603665645281738e-09  3.7567840946729850e-09  3.8557413541753871e-09 
 3.9573052419242886e-09  4.0615444189892459e-09  4.1685293550380027e-09  4.2783323759767142e-09 
 4.3910277128450387e-09  4.5066915519992140e-09  4.6254020866169605e-09  4.7472395695591030e-09 
 4.8722863676236140e-09  5.0006270172287476e-09  5.1323482815629583e-09  5.2675392092401467e-09 
 5.4062911945000016e-09  5.5486980389940413e-09  5.6948560151991645e-09  5.8448639315016111e-09 
 5.9988231989952299e-09  6.1568379000393554e-09  6.3190148586225158e-09  6.4854637125795994e-09 
 6.6562969877113193e-09  6.8316301738560377e-09  7.0115818029653714e-09  7.1962735292364513e-09 
 7.3858302113548832e-09  7.5803799969041056e-09  7.7800544089981832e-09  7.9849884351965314e-09 
 8.1953206187608380e-09  8.4111931523156884e-09  8.6327519739764089e-09  8.8601468660089137e-09 
 9.0935315560883940e-09  9.3330638212252945e-09  9.5789055944287804e-09  9.8312230741797727e-09 
 1.0090186836787731e-08  1.0355971951706904e-08  1.0628758099890236e-08  1.0908729695260756e-08 
 1.1196076009382722e-08  1.1490991299416602e-08  1.1793674939444697e-08  1.2104331555255880e-08 
 1.2423171162680767e-08  1.2750409309570754e-08  1.3086267221516916e-08  1.3430971951407353e-08 
 1.3784756532923996e-08  1.4147860138082635e-08  1.4520528238922759e-08  1.4903012773456527e-08 
 1.5295572315988942e-08  1.5698472251924381e-08  1.6111984957177913e-08  1.6536389982312220e-08 
 1.6971974241525181e-08  1.7419032206615356e-08  1.7877866106056827e-08  1.8348786129317882e-08 
 1.8832110636561673e-08  1.9328166373870592e-08  1.9837288694139897e-08  2.0359821783789954e-08 
 2.0896118895450229e-08  2.1446542586772545e-08  2.2011464965534898e-08  2.2591267941201593e-08 
 2.3186343483109586e-08  2.3797093885456090e-08  2.4423932039265915e-08  2.5067281711522858e-08 
 2.5727577831653844e-08  2.6405266785559067e-08  2.7100806717387620e-08  2.7814667839261934e-08 
 2.8547332749160839e-08  2.9299296757175899e-08  3.0071068220362001e-08  3.0863168886408005e-08 
 3.1676134246360189e-08  3.2510513896636850e-08  3.3366871910578721e-08  3.4245787219786669e-08 
 3.5147854005503952e-08  3.6073682100308355e-08  3.7023897400384796e-08  3.7999142288658519e-08 
 3.9000076069073270e-08  4.0027375412309429e-08  4.1081734813242836e-08  4.2163867060453324e-08 
 4.3274503718101059e-08  4.4414395620496090e-08  4.5584313379695142e-08  4.6785047906469425e-08 
 4.8017410944995462e-08  4.9282235621630058e-08  5.0580377008140991e-08  5.1912712699773884e-08 
 5.3280143408545769e-08  5.4683593572167422e-08  5.6124011979004942e-08  5.7602372409503969e-08 
 5.9119674294509615e-08  6.0676943390927913e-08  6.2275232475184466e-08  6.3915622054950382e-08 
 6.5599221099615573e-08  6.7327167790003822e-08  6.9100630287836909e-08  7.0920807525466727e-08 
 7.2788930016410868e-08  7.4706260687237784e-08  7.6674095731366736e-08  7.8693765485356269e-08 
 8.0766635328276603e-08  8.2894106604772619e-08  8.5077617572440989e-08  8.7318644374164187e-08 
 8.9618702036055633e-08  9.1979345491693507e-08  9.4402170633333637e-08  9.6888815390813543e-08 
 9.9440960838876798e-08  1.0206033233366491e-07  1.0474870067914816e-07  1.0750788332427976e-07 
 1.1033974559168793e-07  1.1324620193873110e-07  1.1622921725177370e-07  1.1929080817455311e-07 
 1.2243304447154123e-07  1.2565805042721612e-07  1.2896800628219558e-07  1.3236514970719958e-07 
 1.3585177731584006e-07  1.3943024621726106e-07  1.4310297560967734e-07  1.4687244841589077e-07 
 1.5074121296188825e-07  1.5471188469965884e-07  1.5878714797539246e-07  1.6296975784425590e-07 
 1.6726254193297549e-07  1.7166840235148217e-07  1.7619031765491524e-07  1.8083134485730750e-07 
 1.8559462149831792e-07  1.9048336776440357e-07  1.9550088866587006e-07  2.0065057627127081e-07 
 2.0593591200066365e-07  2.1136046897927873e-07  2.1692791445318732e-07  2.2264201226860522e-07 
 2.2850662541650758e-07  2.3452571864427401e-07  2.4070336113613227e-07  2.4704372926421218e-07 
 2.5355110941206818e-07  2.6022990087258216e-07  2.6708461882220483e-07  2.7411989737354584e-07 
 2.8134049270837941e-07  2.8875128629318240e-07  2.9635728817937648e-07  3.0416364039051105e-07 
 3.1217562039867551e-07  3.2039864469248759e-07  3.2883827243907732e-07  3.3750020924253742e-07 
 3.4639031100138303e-07  3.5551458786763258e-07  3.6487920831018173e-07  3.7449050328522181e-07 
 3.8435497051651873e-07  3.9447927888845746e-07  4.0487027295480580e-07  4.1553497756626298e-07 
 4.2648060261991240e-07  4.3771454793379241e-07  4.4924440824988692e-07  4.6107797836890987e-07 
 4.7322325842036494e-07  4.8568845927143745e-07  4.9848200807838436e-07  5.1161255398416441e-07 
 5.2508897396617965e-07  5.3892037883806462e-07  5.5311611940959419e-07  5.6768579280887179e-07 
 5.8263924897107563e-07  5.9798659729814979e-07  6.1373821349394553e-07  6.2990474657943709e-07 
 6.4649712609274781e-07  6.6352656947887908e-07  6.8100458967410942e-07  6.9894300289021884e-07 
 7.1735393660378942e-07  7.3624983775599626e-07  7.5564348116842571e-07  7.7554797818061866e-07 
 7.9597678551518529e-07  8.1694371437647346e-07  8.3846293978896992e-07  8.6054901018172856e-07 
 8.8321685722531799e-07  9.0648180592794650e-07  9.3035958499759237e-07  9.5486633747714311e-07 
 9.8001863165975213e-07  1.0058334722917843e-06  1.0323283120709306e-06  1.0595210634472919e-06 
 1.0874301107353821e-06  1.1160743225452741e-06  1.1454730645412854e-06  1.1756462125368418e-06 
 1.2066141659343763e-06  1.2383978615193598e-06  1.2710187876178009e-06  1.3044989986267764e-06 
 1.3388611299278663e-06  1.3741284131935334e-06  1.4103246920968475e-06  1.4474744384351673e-06 
 1.4856027686786903e-06  1.5247354609550856e-06  1.5648989724816862e-06  1.6061204574570606e-06 
 1.6484277854240400e-06  1.6918495601166896e-06  1.7364151388039082e-06  1.7821546521428120e-06 
 1.8290990245553036e-06  1.8772799951416459e-06  1.9267301391451822e-06  1.9774828899827397e-06 
 2.0295725618556468e-06  2.0830343729566263e-06  2.1379044692883659e-06  2.1942199491097953e-06 
 2.2520188880266872e-06  2.3113403647435536e-06  2.3722244874942847e-06  2.4347124211694157e-06 
 2.4988464151584164e-06  2.5646698319258402e-06  2.6322271763406858e-06  2.7015641257788992e-06 
 2.7727275610193006e-06  2.8457655979539695e-06  2.9207276201345051e-06  2.9976643121762479e-06 
 3.0766276940430845e-06  3.1576711562360730e-06  3.2408494959097219e-06  3.3262189539403993e-06 
 3.4138372529720392e-06  3.5037636364648526e-06  3.5960589087735848e-06  3.6907854762824361e-06 
 3.7880073896245729e-06  3.8877903870148233e-06  3.9902019387249505e-06  4.0953112927316665e-06 
 4.2031895215683026e-06  4.3139095704120122e-06  4.4275463064389770e-06  4.5441765694812177e-06 
 4.6638792240193000e-06  4.7867352125462461e-06  4.9128276103388418e-06  5.0422416816735103e-06 
 5.1750649375248894e-06  5.3113871947862774e-06  5.4513006370521894e-06  5.5948998770041749e-06 
 5.7422820204423702e-06  5.8935467320061843e-06  6.0487963026287601e-06  6.2081357187710466e-06 
 6.3716727334824806e-06  6.5395179393365802e-06  6.7117848432908754e-06  6.8885899435223068e-06 
 7.0700528082900107e-06  7.2562961568792180e-06  7.4474459426813525e-06  7.6436314384667023e-06 
 7.8449853239076615e-06  8.0516437754121021e-06  8.2637465583279651e-06  8.4814371215816890e-06 
 8.7048626948151005e-06  8.9341743880865649e-06  9.1695272942044527e-06  9.4110805937625480e-06 
 9.6589976629487967e-06  9.9134461842010141e-06  1.0174598259784622e-05  1.0442630528370112e-05 
 1.0717724284689300e-05  1.1000065602352325e-05  1.1289845459908693e-05  1.1587259870238580e-05 
 1.1892510013362501e-05  1.2205802372759935e-05  1.2527348875290006e-05  1.2857367034809476e-05 
 1.3196080099586308e-05  1.3543717203609158e-05  1.3900513521896503e-05  1.4266710429911046e-05 
 1.4642555667188592e-05  1.5028303505293090e-05  1.5424214920212730e-05  1.5830557769314855e-05 
 1.6247606972980837e-05  1.6675644701045081e-05  1.7114960564165619e-05  1.7565851810257850e-05 
 1.8028623526125122e-05  1.8503588844424818e-05  1.8991069156111730e-05  1.9491394328504041e-05 
 2.0004902929121723e-05  2.0531942455450795e-05  2.1072869570790998e-05  2.1628050346348767e-05 
 2.2197860509742165e-05  2.2782685700087710e-05  2.3382921729845106e-05  2.3998974853599479e-05 
 2.4631262043966141e-05  2.5280211274807597e-05  2.5946261811958020e-05  2.6629864511655031e-05 
 2.7331482126884470e-05  2.8051589621849869e-05  2.8790674494782554e-05  2.9549237109315829e-05 
 3.0327791034651613e-05  3.1126863394754833e-05  3.1946995226816189e-05  3.2788741849232027e-05 
 3.3652673239355041e-05  3.4539374421277480e-05  3.5449445863916045e-05  3.6383503889673246e-05 
 3.7342181093959113e-05  3.8326126775864497e-05  3.9336007380284342e-05  4.0372506951798573e-05 
 4.1436327600625441e-05  4.2528189980972214e-05  4.3648833782114931e-05  4.4799018232550563e-05 
 4.5979522617571887e-05  4.7191146810626254e-05  4.8434711818829267e-05  4.9711060343014167e-05 
 5.1021057352708491e-05  5.2365590676439792e-05  5.3745571607783941e-05  5.5161935527580204e-05 
 5.6615642542750078e-05  5.8107678142166809e-05  5.9639053870037286e-05  6.1210808017268741e-05 
 6.2824006331307217e-05  6.4479742744947053e-05  6.6179140124624988e-05  6.7923351038726767e-05 
 6.9713558546447932e-05  7.1550977007767824e-05  7.3436852915107268e-05  7.5372465747260159e-05 
 7.7359128846203796e-05  7.9398190317409375e-05  8.1491033954292255e-05  8.3639080187458375e-05 
 8.5843787059422869e-05  8.8106651225493317e-05  9.0429208981534102e-05  9.2813037319341716e-05 
 9.5259755010386883e-05  9.7771023718698320e-05  1.0034854914368434e-04  1.0299408219371116e-04 
 1.0570942019128040e-04  1.0849640811067085e-04  1.1135693984893362e-04  1.1429295953115803e-04 
 1.1730646285094541e-04  1.2039949844705973e-04  1.2357416931724967e-04  1.2683263427026249e-04 
 1.3017710941710280e-04  1.3360986970261475e-04  1.3713325047850103e-04  1.4074964911891738e-04 
 1.4446152667982302e-04  1.4827140960328844e-04  1.5218189146800671e-04  1.5619563478728315e-04 
 1.6031537285581747e-04  1.6454391164662753e-04  1.6888413175950354e-04  1.7333899042241898e-04 
 1.7791152354736578e-04  1.8260484784212561e-04  1.8742216297952351e-04  1.9236675382576306e-04 
 1.9744199272948160e-04  2.0265134187321161e-04  2.0799835568898175e-04  2.1348668333984034e-04 
 2.1912007126913272e-04  2.2490236581941344e-04  2.3083751592293625e-04  2.3692957586570317e-04 
 2.4318270812712304e-04  2.4960118629738123e-04  2.5618939807467867e-04  2.6295184834456250e-04 
 2.6989316234362758e-04  2.7701808890993499e-04  2.8433150382255033e-04  2.9183841323268304e-04 
 2.9954395718896041e-04  3.0745341325944854e-04  3.1557220025309863e-04  3.2390588204337241e-04 
 3.3246017149686600e-04  3.4124093450983652e-04  3.5025419415560212e-04  3.5950613494586947e-04 
 3.6900310720912387e-04  3.7875163158928584e-04  3.8875840366793670e-04  3.9903029871348280e-04 
 4.0957437656072288e-04  4.2039788662436315e-04  4.3150827305011267e-04  4.4291318000707925e-04 
 4.5462045712526677e-04  4.6663816508208582e-04  4.7897458134184501e-04  4.9163820605230735e-04 
 5.0463776810247914e-04  5.1798223134587903e-04  5.3168080099363934e-04  5.4574293018186458e-04 
 5.6017832671778351e-04  5.7499696000928174e-04  5.9020906818254149e-04  6.0582516539254021e-04 
 6.2185604933128347e-04  6.3831280893871596e-04  6.5520683232132273e-04  6.7254981488351813e-04 
 6.9035376767697483e-04  7.0863102597313232e-04  7.2739425806414668e-04  7.4665647429764516e-04 
 7.6643103635064291e-04  7.8673166674806153e-04  8.0757245863128269e-04  8.2896788578222763e-04 
 8.5093281290842535e-04  8.7348250619455337e-04  8.9663264412592173e-04  9.2039932858931366e-04 
 9.4479909625660031e-04  9.6984893025643107e-04  9.9556627213925170e-04  1.0219690341408091e-03 
 1.0490756117491451e-03  1.0769048965799672e-03  1.1054762895650911e-03  1.1348097144584612e-03 
 1.1649256316640002e-03  1.1958450523893252e-03  1.2275895531289910e-03  1.2601812904806454e-03 
 1.2936430162970892e-03  1.3279980931767733e-03  1.3632705102948474e-03  1.3994848995763094e-03 
 1.4366665522122526e-03  1.4748414355195711e-03  1.5140362101437742e-03  1.5542782476038294e-03 
 1.5955956481771018e-03  1.6380172591215301e-03  1.6815726932313179e-03  1.7262923477211634e-03 
 1.7722074234330731e-03  1.8193499443585103e-03  1.8677527774672385e-03  1.9174496528328879e-03 
 1.9684751840436487e-03  2.0208648888848835e-03  2.0746552102787010e-03  2.1298835374636239e-03 
 2.1865882273955097e-03  2.2448086263487281e-03  2.3045850916943930e-03  2.3659590138299909e-03 
 2.4289728382322880e-03  2.4936700876027154e-03  2.5600953840716166e-03  2.6282944714248178e-03 
 2.6983142373130072e-03  2.7702027354009591e-03  2.8440092074105998e-03  2.9197841050081974e-03 
 2.9975791114825469e-03  3.0774471631571701e-03  3.1594424704758772e-03  3.2436205386970280e-03 
 3.3300381881279507e-03  3.4187535738268693e-03  3.5098262046956894e-03  3.6033169618828855e-03 
 3.6992881164116787e-03  3.7978033459447097e-03  3.8989277505924714e-03  4.0027278676690713e-03 
 4.1092716852951646e-03  4.2186286547446399e-03  4.3308697014287304e-03  4.4460672344081610e-03 
 4.5642951543221361e-03  4.6856288596209628e-03  4.8101452509883057e-03  4.9379227338383928e-03 
 5.0690412187743188e-03  5.2035821198947799e-03  5.3416283508392866e-03  5.4832643184655290e-03 
 5.6285759140578687e-03  5.7776505019724537e-03  5.9305769056330121e-03  6.0874453908015954e-03 
 6.2483476460609378e-03  6.4133767604598940e-03  6.5826271982904567e-03  6.7561947709848091e-03 
 6.9341766061440631e-03  7.1166711137356170e-03  7.3037779495264020e-03  7.4955979758516891e-03 
 7.6922332198564791e-03  7.8937868293872098e-03  8.1003630267571826e-03  8.3120670606584880e-03 
 8.5290051565479925e-03  8.7512844658939690e-03  8.9790130147341125e-03  9.2122996520647270e-03 
 9.4512539986548148e-03  9.6959863969577550e-03  9.9466078628767714e-03  1.0203230040228542e-02 
 1.0465965158841708e-02  1.0734925997322717e-02  1.1010225851621574e-02  1.1291978510630237e-02 
 1.1580298240151166e-02  1.1875299776675917e-02  1.2177098332517556e-02  1.2485809613940300e-02 
 1.2801549854027025e-02  1.3124435862115445e-02  1.3454585091715878e-02  1.3792115728895358e-02 
 1.4137146803170001e-02  1.4489798322989094e-02  1.4850191437914625e-02  1.5218448629596959e-02 
 1.5594693933616122e-02  1.5979053194194310e-02  1.6371654353685129e-02  1.6772627778602278e-02 
 1.7182106623762745e-02  1.7600227235877480e-02  1.8027129597627319e-02  1.8462957812901994e-02 
 1.8907860633456043e-02  1.9361992026739480e-02  1.9825511784091802e-02  2.0298586167840367e-02 
 2.0781388595117984e-02  2.1274100355407617e-02  2.1776911357935681e-02  2.2290020904072502e-02 
 2.2813638478862246e-02  2.3347984554704451e-02  2.3893291399052947e-02  2.4449803876800888e-02 
 2.5017780236798168e-02  2.5597492870721713e-02  2.6189229031316565e-02  2.6793291495871559e-02 
 2.7409999159731559e-02  2.8039687543709640e-02  2.8682709198498618e-02  2.9339433988640935e-02 
 3.0010249238353413e-02  3.0695559721579550e-02  3.1395787479119745e-02  3.2111371446634944e-02 
 3.2842766878798550e-02  3.3590444556951753e-02  3.4354889770362544e-02  3.5136601064656825e-02 
 3.5936088755231632e-02  3.6753873208513567e-02  3.7590482899813475e-02  3.8446452263249484e-02 
 3.9322319356750235e-02  4.0218623373438393e-02  4.1135902039665218e-02  4.2074688949465706e-02 
 4.3035510895068310e-02  4.4018885263096552e-02  4.5025317575947250e-02  4.6055299267195475e-02 
 4.7109305788355572e-02  4.8187795151464187e-02  4.9291207017239810e-02  5.0419962441460249e-02 
 5.1574464392089757e-02  5.2755099145983538e-02  5.3962238666080957e-02  5.5196244047292342e-02 
 5.6457470101280507e-02  5.7746271126582559e-02  5.9063007880764094e-02  6.0408055735399320e-02 
 6.1781813952809628e-02  6.3184715976060360e-02  6.4617240571494983e-02  6.6079923607233582e-02 
 6.7573370193164312e-02  6.9098266850062082e-02  7.0655393320111629e-02  7.2245633581258184e-02 
 7.3869985586892270e-02  7.5529569224138851e-02  7.7225631972447986e-02  7.8959551753367538e-02 
 8.0732836496191521e-02  8.2547120006180433e-02  8.4404153815007904e-02  8.6305794818762049e-02 
 8.8253988667476260e-02  9.0250749060225330e-02  9.2298133317494702e-02  9.4398214841410102e-02 
 9.6553053325275334e-02  9.8764663824490714e-02  1.0103498603613334e-01  1.0336585533642800e-01 
 1.0575897727402904e-01  1.0821590729117335e-01  1.1073803742302081e-01  1.1332659158801162e-01 
 1.1598263081242147e-01  1.1870706931968346e-01  1.2150070185669370e-01  1.2436424193285883e-01 
 1.2729836983341572e-01  1.3030378837130188e-01  1.3338128341188427e-01  1.3653178530778703e-01 
 1.3975642659650811e-01  1.4305659073153695e-01  1.4643394633364212e-01  1.4989046155590122e-01 
 1.5342839373511169e-01  1.5705025061151034e-01  1.6075872106088668e-01  1.6455657547294769e-01 
 1.6844653854311462e-01  1.7243114017083425e-01  1.7651255315527750e-01  1.8069242916264996e-01 
 1.8497174666943819e-01  1.8935068589502879e-01  1.9382854576295647e-01  1.9840371636045412e-01 
 2.0307371699156229e-01  2.0783530468897840e-01  2.1268465112522972e-01  2.1761757765920239e-01 
 2.2262982945863766e-01  2.2771736120567021e-01  2.3287659998613067e-01  2.3810464686371136e-01 
 2.4339937859430080e-01  2.4875941596932724e-01  2.5418393597714262e-01  2.5967232126893958e-01 
 2.6522366139861225e-01  2.7083614411025764e-01  2.7650639876669231e-01  2.8222887427110815e-01 
 2.8799534654306652e-01  2.9379465191345283e-01  2.9961272967509439e-01  3.0543302804313660e-01 
 3.1123728384671373e-01  3.1700663114477023e-01  3.2272293437966187e-01  3.2837018699265924e-01 
 3.3393695235169935e-01  3.3941926665232242e-01  3.4481472155454734e-01  3.5012092315534954e-01 
 3.5533549162005668e-01  3.6045606102101679e-01  3.6548027938335742e-01  3.7040580893585712e-01 
 3.7523032656265981e-01  3.7995152444979752e-01  3.8456711091931256e-01  3.8907481144320422e-01 
 3.9347236982945488e-01  3.9775754957292936e-01  4.0192813536499061e-01  4.0598193475709232e-01 
 4.0991677997536236e-01  4.1373052988516762e-01  4.1742107210678892e-01  4.2098632528554386e-01 
 4.2442424152192304e-01  4.2773280896947585e-01  4.3091005461023729e-01  4.3395404721939285e-01 
 4.3686290053254506e-01  4.3963477663035078e-01  4.4226788955636281e-01  4.4476050918455451e-01 
 4.4711096535317835e-01  4.4931765228117115e-01  4.5137903328220769e-01  4.5329364578953990e-01 
 4.5506010670185937e-01  4.5667711805638128e-01  4.5814347303005415e-01  4.5945806226307451e-01 
 4.6061988049060243e-01  4.6162803345862974e-01  4.6248174508827294e-01  4.6318036483939118e-01 
 4.6372337520943474e-01  4.6411039928707337e-01  4.6434120826277259e-01  4.6441572878063070e-01 
 4.6433404999811567e-01  4.6409643020374169e-01  4.6370330282816058e-01  4.6315528167274045e-01 
 4.6245316517261420e-01  4.6159793950950079e-01  4.6059078039439616e-01  4.5943305335222456e-01 
 4.5812631236026075e-01  4.5667229671964260e-01  4.5507292607420735e-01  4.5333029353236687e-01 
 4.5144665689445740e-01  4.4942442803824628e-01  4.4726616056702989e-01  4.4497453587585711e-01 
 4.4255234783964642e-01  4.4000248637029599e-01  4.3732792012654681e-01  4.3453167868893139e-01 
 4.3161683453171357e-01  4.2858648513380010e-01  4.2544373557119042e-01  4.2219168192499601e-01 
 4.1883339582215218e-01  4.1537191040157251e-01  4.1181020796779028e-01  4.0815120955818940e-01 
 4.0439776660991916e-01  4.0055265486950542e-01  3.9661857064301798e-01  3.9259812943821731e-01 
 3.8849386700315375e-01  3.8430824271885217e-01  3.8004364525762546e-01  3.7570240037379699e-01 
 3.7128678065082193e-01  3.6679901698866385e-01  3.6224131157855510e-01  3.5761585207979463e-01 
 3.5292482668590008e-01  3.4817043974612455e-01  3.4335492759399749e-01  3.3848057422789624e-01 
 3.3354972649034731e-01  3.2856480840316515e-01  3.2352833433474065e-01  3.1844292070350716e-01 
 3.1331129595718915e-01  3.0813630860984847e-01  3.0292093316661978e-01  2.9766827381773003e-01 
 2.9238156583711228e-01  2.8706417467474293e-01  2.8171959278389208e-01  2.7635143427305220e-01 
 2.7096342751590335e-01  2.6555940589009702e-01  2.6014329684606796e-01  2.5471910953002858e-01 
 2.4929092120067550e-01  2.4386286268715071e-01  2.3843910313695116e-01  2.3302383429748566e-01 
 2.2762125456470514e-01  2.2223555301762618e-01  2.1687089363962195e-01  2.1153139990701408e-01 
 2.0622113990366969e-01  2.0094411209778862e-01  1.9570423189455274e-01  1.9050531905638268e-01 
 1.8535108606166054e-01  1.8024512745327770e-01  1.7519091021048969e-01  1.7019176516146145e-01 
 1.6525087943962719e-01  1.6037128997457159e-01  1.5555587799753456e-01  1.5080736453274157e-01 
 1.4612830683847530e-01  1.4152109575598526e-01  1.3698795391985646e-01  1.3253093478016792e-01 
 1.2815192238453535e-01  1.2385263186681146e-01  1.1963461058867346e-01  1.1549923988045890e-01 
 1.1144773732828711e-01  1.0748115955564388e-01  1.0360040544911268e-01  9.9806219779733404e-02 
 9.6099197173491899e-02  9.2479786386629917e-02  8.8948294843770037e-02  8.5504893399223680e-02 
 8.2149621284266228e-02  7.8882391205583088e-02  7.5702994562495032e-02  7.2611106752940080e-02 
 6.9606292540500381e-02  6.6688011457012933e-02  6.3855623217472679e-02  6.1108393126023917e-02 
 5.8445497453831666e-02  5.5866028771527826e-02  5.3369001220730961e-02  5.0953355710843744e-02 
 4.8617965028938677e-02  4.6361638852048387e-02  4.4183128652584239e-02  4.2081132488915610e-02 
 4.0054299674357918e-02  3.8101235318934536e-02  3.6220504739310100e-02  3.4410637733231247e-02 
 3.2670132715668307e-02  3.0997460714625488e-02  2.9391069225283527e-02  2.7849385921761918e-02 
 2.6370822226338988e-02  2.4953776736454845e-02  2.3596638510246272e-02  2.2297790211727474e-02 
 2.1055611117044480e-02  1.9868479983492754e-02  1.8734777783206265e-02  1.7652890303602963e-02 
 1.6621210616811877e-02  1.5638141420414396e-02  1.4702097251911997e-02  1.3811506579385990e-02 
 1.2964813770848377e-02  1.2160480944798107e-02  1.1396989704498255e-02  1.0672842758479538e-02 
 9.9865654297574425e-03  9.3367070562266098e-03  8.7218422846689608e-03  8.1405722607846443e-03 
 7.5915257176275867e-03  7.0733599648037868e-03  6.5847617807700664e-03  6.1244482105564076e-03 
 5.6911672712261566e-03  5.2836985673864190e-03  4.9008538190663253e-03  4.5414773042935369e-03 
 4.2044462187191762e-03  3.8886709546688864e-03  3.5930953020314022e-03  3.3166965734363384e-03 
 3.0584856562183823e-03  2.8175069937156098e-03  2.5928384985033385e-03  2.3835914002218288e-03 
 2.1889100307142051e-03  2.0079715492496513e-03  1.8399858719929916e-03  1.6841973491791683e-03 
 1.5398792007264956e-03  1.4063356364300778e-03  1.2829016285487780e-03  1.1689423234259729e-03 
 1.0638524169716594e-03  9.6705549676653923e-04  8.7800335361556644e-04  7.9617526543059090e-04 
 7.2107725635882391e-04  6.5224133409608881e-04  5.8922470833108363e-04  5.3160899325951797e-04 
 4.7899939708523966e-04  4.3102390138972626e-04  3.8733243320211431e-04  3.4759603253986380e-04 
 3.1150601811591146e-04  2.7877315382253013e-04  2.4912681850596880e-04  2.2231418144023457e-04 
 1.9809938579413430e-04  1.7626274226400848e-04  1.5659993491662607e-04  1.3892124115370361e-04 
 1.2305076757273168e-04  1.0882570335961101e-04  9.6095592708409216e-05  8.4721627623840571e-05 
 7.4575962324404310e-05  6.5541050330147820e-05  5.7509005190522736e-05  5.0380985686701167e-05 
 4.4066606231132454e-05  3.8483373087414292e-05  3.3556146948424500e-05  2.9216632343233202e-05 
 2.5402894297272404e-05  2.2058902649995501e-05  1.9134104445176076e-05  1.6583024857677674e-05 
 1.4364897215187037e-05  0.0000000000000000e+00  0.0000000000000000e+00  0.0000000000000000e+00 
 0.0000000000000000e+00  0.0000000000000000e+00  0.0000000000000000e+00  0.0000000000000000e+00 
 0.0000000000000000e+00  0.0000000000000000e+00  0.0000000000000000e+00  0.0000000000000000e+00 
 0.0000000000000000e+00  0.0000000000000000e+00  0.0000000000000000e+00  0.0000000000000000e+00 
 0.0000000000000000e+00  0.0000000000000000e+00  0.0000000000000000e+00  0.0000000000000000e+00 
 0.0000000000000000e+00  0.0000000000000000e+00  0.0000000000000000e+00  0.0000000000000000e+00 
 0.0000000000000000e+00  0.0000000000000000e+00  0.0000000000000000e+00  0.0000000000000000e+00 
 0.0000000000000000e+00  0.0000000000000000e+00  0.0000000000000000e+00  0.0000000000000000e+00 
 0.0000000000000000e+00  0.0000000000000000e+00  0.0000000000000000e+00  0.0000000000000000e+00 
 0.0000000000000000e+00  0.0000000000000000e+00  0.0000000000000000e+00  0.0000000000000000e+00 
 0.0000000000000000e+00  0.0000000000000000e+00  0.0000000000000000e+00  0.0000000000000000e+00 
 0.0000000000000000e+00  0.0000000000000000e+00  0.0000000000000000e+00  0.0000000000000000e+00 
 0.0000000000000000e+00  0.0000000000000000e+00  0.0000000000000000e+00  0.0000000000000000e+00 
 0.0000000000000000e+00  0.0000000000000000e+00  0.0000000000000000e+00  0.0000000000000000e+00 
 0.0000000000000000e+00  0.0000000000000000e+00  0.0000000000000000e+00  0.0000000000000000e+00 
 0.0000000000000000e+00  0.0000000000000000e+00  0.0000000000000000e+00  0.0000000000000000e+00 
 0.0000000000000000e+00  0.0000000000000000e+00  0.0000000000000000e+00  0.0000000000000000e+00 
 0.0000000000000000e+00  0.0000000000000000e+00  0.0000000000000000e+00  0.0000000000000000e+00 
 0.0000000000000000e+00  0.0000000000000000e+00  0.0000000000000000e+00 
D    2   9.50          Wavefunction
 1.6930466395553966e-13  1.7603799231907284e-13  1.8303910840778235e-13  1.9031866226898599e-13 
 1.9788772750753230e-13  2.0575781813088881e-13  2.1394090606416607e-13  2.2244943936172494e-13 
 2.3129636114306534e-13  2.4049512928180795e-13  2.5005973687771304e-13  2.6000473354288297e-13 
 2.7034524753452769e-13  2.8109700876795916e-13  2.9227637274482622e-13  3.0390034543298372e-13 
 3.1598660913585061e-13  3.2855354939059859e-13  3.4162028293610138e-13  3.5520668679317822e-13 
 3.6933342850137446e-13  3.8402199755827356e-13  3.9929473810916437e-13  4.1517488293679603e-13 
 4.3168658880291564e-13  4.4885497319536120e-13  4.6670615253660230e-13  4.8526728191185410e-13 
 5.0456659637719388e-13  5.2463345391052606e-13  5.4549838007072552e-13  5.6719311443289583e-13 
 5.8975065887038213e-13  6.1320532775698036e-13  6.3759280016571715e-13  6.6295017414359364e-13 
 6.8931602314486962e-13  7.1673045470871814e-13  7.4523517147052878e-13  7.7487353459964964e-13 
 8.0569062976008761e-13  8.3773333569449052e-13  8.7105039553575232e-13  9.0569249095471455e-13 
 9.4171231925675310e-13  9.7916467354454008e-13  1.0181065260689112e-12  1.0585971148946427e-12 
 1.1006980340129656e-12  1.1444733270378951e-12  1.1899895846289157e-12  1.2373160457882029e-12 
 1.2865247031864953e-12  1.3376904126778224e-12  1.3908910071696830e-12  1.4462074150218954e-12 
 1.5037237831542394e-12  1.5635276050501314e-12  1.6257098538510731e-12  1.6903651207443411e-12 
 1.7575917588544030e-12  1.8274920328569822e-12  1.9001722745433318e-12  1.9757430445713849e-12 
 2.0543193006498207e-12  2.1360205724108879e-12  2.2209711432380241e-12  2.3093002393248133e-12 
 2.4011422262529461e-12  2.4966368133881451e-12  2.5959292664050504e-12  2.6991706282642890e-12 
 2.8065179489779300e-12  2.9181345245128064e-12  3.0341901451951648e-12  3.1548613539944464e-12 
 3.2803317150791691e-12  3.4107920930534053e-12  3.5464409432986045e-12  3.6874846138624729e-12 
 3.8341376593541222e-12  3.9866231673229396e-12  4.1451730976177687e-12  4.3100286352424924e-12 
 4.4814405572449170e-12  4.6596696141969677e-12  4.8449869268465193e-12  5.0376743985443305e-12 
 5.2380251440732938e-12  5.4463439355325366e-12  5.6629476659544432e-12  5.8881658313600483e-12 
 6.1223410319859035e-12  6.3658294934450842e-12  6.6190016086149141e-12  6.8822425010758924e-12 
 7.1559526109588497e-12  7.4405483040914894e-12  7.7364625053710168e-12  8.0441453573262603e-12 
 8.3640649048712034e-12  8.6967078072913684e-12  9.0425800785463439e-12  9.4022078570144796e-12 
 9.7761382058506074e-12  1.0164939945174505e-11  1.0569204517355794e-11  1.0989546886711685e-11 
 1.1426606474986041e-11  1.1881048134033063e-11  1.2353563157184863e-11  1.2844870330841754e-11 
 1.3355717027884757e-11  1.3886880344573524e-11  1.4439168282659490e-11  1.5013420978511902e-11 
 1.5610511981127066e-11  1.6231349580964408e-11  1.6876878191631180e-11  1.7548079786517166e-11 
 1.8245975392565309e-11  1.8971626643450103e-11  1.9726137394526729e-11  2.0510655402007373e-11 
 2.1326374068919338e-11  2.2174534260500629e-11  2.3056426191794657e-11  2.3973391390315565e-11 
 2.4926824736769588e-11  2.5918176586936957e-11  2.6948954977942003e-11  2.8020727922267525e-11 
 2.9135125793003525e-11  3.0293843803958016e-11  3.1498644588403297e-11  3.2751360880379971e-11 
 3.4053898302637911e-11  3.5408238265454654e-11  3.6816440980741415e-11  3.8280648596021412e-11 
 3.9803088453047888e-11  4.1386076476018986e-11  4.3032020694543554e-11  4.4743424906716921e-11 
 4.6522892487878667e-11  4.8373130350846913e-11  5.0296953063652468e-11  5.2297287131037559e-11 
 5.4377175446231734e-11  5.6539781919776376e-11  5.8788396292440790e-11  6.1126439139549020e-11 
 6.3557467074331849e-11  6.6085178158218051e-11  6.8713417526296071e-11  7.1446183236501907e-11 
 7.4287632351432400e-11  7.7242087262035560e-11  8.0314042262796107e-11  8.3508170388419169e-11 
 8.6829330522413024e-11  9.0282574788381599e-11  9.3873156235274330e-11  9.7606536828279952e-11 
 1.0148839575752279e-10  1.0552463807719877e-10  1.0972140368829545e-10  1.1408507667855660e-10 
 1.1862229503390354e-10  1.2333996073608255e-10  1.2824525026190056e-10  1.3334562550002108e-10 
 1.3864884510192450e-10  1.4416297628430261e-10  1.4989640710083760e-10  1.5585785920203796e-10 
 1.6205640110253616e-10  1.6850146197603370e-10  1.7520284599887749e-10  1.8217074726408517e-10 
 1.8941576528850962e-10  1.9694892113672920e-10  2.0478167418619152e-10  2.1292593955911505e-10 
 2.2139410624766532e-10  2.3019905595997649e-10  2.3935418271568675e-10  2.4887341322079872e-10 
 2.5877122805285331e-10  2.6906268368865079e-10  2.7976343540802108e-10  2.9088976110848776e-10 
 3.0245858606704873e-10  3.1448750868674933e-10  3.2699482726720012e-10  3.3999956783977400e-10 
 3.5352151310981983e-10  3.6758123254991642e-10  3.8220011368995470e-10  3.9740039465163097e-10 
 4.1320519797685703e-10  4.2963856580153367e-10  4.4672549642820494e-10  4.6449198235321888e-10 
 4.8296504980624185e-10  5.0217279986227877e-10  5.2214445118872998e-10  5.4291038449252056e-10 
 5.6450218873490408e-10  5.8695270918425154e-10  6.1029609737991187e-10  6.3456786308316290e-10 
 6.5980492829426236e-10  6.8604568341778302e-10  7.1333004566166369e-10  7.4169951975880537e-10 
 7.7119726110359778e-10  8.0186814139940248e-10  8.3375881691685915e-10  8.6691779946685011e-10 
 9.0139553019608694e-10  9.3724445631757097e-10  9.7451911089265095e-10  1.0132761957860430e-09 
 1.0535746679199892e-09  1.0954758289587927e-09  1.1390434185601180e-09  1.1843437113349339e-09 
 1.2314456176635796e-09  1.2804207885213307e-09  1.3313437244728928e-09  1.3842918890016552e-09 
 1.4393458263460726e-09  1.4965892840224360e-09  1.5561093402204247e-09  1.6179965362651953e-09 
 1.6823450143475432e-09  1.7492526607316098e-09  1.8188212546580341e-09  1.8911566231689824e-09 
 1.9663688020906416e-09  2.0445722034180149e-09  2.1258857893566347e-09  2.2104332532860081e-09 
 2.2983432079199615e-09  2.3897493809502122e-09  2.4847908184706915e-09  2.5836120964921369e-09 
 2.6863635408686313e-09  2.7932014559706826e-09  2.9042883624526747e-09  3.0197932444763623e-09 
 3.1398918067665129e-09  3.2647667418896805e-09  3.3946080081627059e-09  3.5296131186136507e-09 
 3.6699874414348306e-09  3.8159445123848134e-09  3.9677063596147481e-09  4.1255038414130578e-09 
 4.2895769973822528e-09  4.4601754135821398e-09  4.6375586021947499e-09  4.8219963962886182e-09 
 5.0137693602828116e-09  5.2131692167352016e-09  5.4204992901041011e-09  5.6360749681582803e-09 
 5.8602241817373347e-09  6.0932879035920760e-09  6.3356206670638620e-09  6.5875911053917249e-09 
 6.8495825124678248e-09  7.1219934258940052e-09  7.4052382332265869e-09  7.6997478023314749e-09 
 8.0059701368083191e-09  8.3243710574809840e-09  8.6554349109906893e-09  8.9996653065699138e-09 
 9.3575858821176643e-09  9.7297411007413692e-09  1.0116697078977180e-08  1.0519042447948446e-08 
 1.0937389248772201e-08  1.1372373863575860e-08  1.1824657983540125e-08  1.2294929615440743e-08 
 1.2783904128220166e-08  1.3292325341181061e-08  1.3820966655456793e-08  1.4370632230480234e-08 
 1.4942158207240272e-08  1.5536413980186699e-08  1.6154303519718265e-08  1.6796766747265545e-08 
 1.7464780965060004e-08  1.8159362342764671e-08  1.8881567463226971e-08  1.9632494929705516e-08 
 2.0413287037015215e-08  2.1225131509133209e-08  2.2069263305907764e-08  2.2946966501619343e-08 
 2.3859576238250337e-08  2.4808480756435127e-08  2.5795123507179678e-08  2.6821005347562180e-08 
 2.7887686823755384e-08  2.8996790544842330e-08  3.0150003651037219e-08  3.1349080380064290e-08 
 3.2595844735600349e-08  3.3892193261837520e-08  3.5240097928388084e-08  3.6641609129918684e-08 
 3.8098858805076788e-08  3.9614063679453226e-08  4.1189528637513235e-08  4.2827650228625706e-08 
 4.4530920312521420e-08  4.6301929849728081e-08  4.8143372842744144e-08  5.0058050433948353e-08 
 5.2048875166476737e-08  5.4118875414548426e-08  5.6271199989978302e-08  5.8509122931883067e-08 
 6.0836048486866364e-08  6.3255516287255751e-08  6.5771206735270953e-08  6.8386946601308390e-08 
 7.1106714844859895e-08  7.3934648666916976e-08  7.6875049803067541e-08  7.9932391066854715e-08 
 8.3111323153351837e-08  8.6416681713298985e-08  8.9853494708561995e-08  9.3426990060100783e-08 
 9.7142603600077223e-08  1.0100598734019896e-07  1.0502301806887249e-07  1.0919980629024239e-07 
 1.1354270551871014e-07  1.1805832194306969e-07  1.2275352447495637e-07  1.2763545519689082e-07 
 1.3271154022581113e-07  1.3798950100860850e-07  1.4347736606685116e-07  1.4918348320855335e-07 
 1.5511653222556344e-07  1.6128553809588010e-07  1.6769988471097497e-07  1.7436932914899666e-07 
 1.8130401651556164e-07  1.8851449537470558e-07  1.9601173379345335e-07  2.0380713602441354e-07 
 2.1191255985176444e-07  2.2034033462700793e-07  2.2910328002191999e-07  2.3821472552721395e-07 
 2.4768853072656599e-07  2.5753910637683120e-07  2.6778143632651220e-07  2.7843110030579886e-07 
 2.8950429762284044e-07  3.0101787180228048e-07  3.1298933620351859e-07  3.2543690065765000e-07 
 3.3837949916359078e-07  3.5183681868549403e-07  3.6582932909524413e-07  3.8037831430556565e-07 
 3.9550590464106375e-07  4.1123511049643343e-07  4.2758985733299707e-07  4.4459502206678870e-07 
 4.6227647090349874e-07  4.8066109867781369e-07  4.9977686975694392e-07  5.1965286057053203e-07 
 5.4031930383160908e-07  5.6180763451580497e-07  5.8415053766872689e-07  6.0738199811417509e-07 
 6.3153735213876674e-07  6.5665334123152919e-07  6.8276816796015895e-07  7.0992155406887915e-07 
 7.3815480088620168e-07  7.6751085213444164e-07  7.9803435923641467e-07  8.2977174921861115e-07 
 8.6277129531404411e-07  8.9708319037208459e-07  9.3275962318685097e-07  9.6985485786016265e-07 
 1.0084253163196775e-06  1.0485296641176019e-06  1.0902288996404044e-06  1.1335864468650464e-06 
 1.1786682518027354e-06  1.2255428827767323e-06  1.2742816346865881e-06  1.3249586374172607e-06 
 1.3776509685578178e-06  1.4324387706009994e-06  1.4894053728017011e-06  1.5486374178795605e-06 
 1.6102249937580807e-06  1.6742617705404860e-06  1.7408451429303712e-06  1.8100763783135203e-06 
 1.8820607707258127e-06  1.9569078009411415e-06  2.0347313029224562e-06  2.1156496368887783e-06 
 2.1997858692610953e-06  2.2872679597603328e-06  2.3782289559416385e-06  2.4728071954603609e-06 
 2.5711465163769072e-06  2.6733964758198166e-06  2.7797125773390601e-06  2.8902565072948242e-06 
 3.0051963806405933e-06  3.1247069964738216e-06  3.2489701037420168e-06  3.3781746775076591e-06 
 3.5125172061913348e-06  3.6522019902290307e-06  3.7974414525969722e-06  3.9484564616751936e-06 
 4.1054766669399370e-06  4.2687408479941490e-06  4.4384972774659377e-06  4.6150040983253683e-06 
 4.7985297161922541e-06  4.9893532072300298e-06  5.1877647422445570e-06  5.3940660276311186e-06 
 5.6085707638384634e-06  5.8316051220452679e-06  6.0635082397717592e-06  6.3046327361784071e-06 
 6.5553452478326479e-06  6.8160269857561798e-06  7.0870743145973540e-06  7.3688993548064811e-06 
 7.6619306087270096e-06  7.9666136115513418e-06  8.2834116081278884e-06  8.6128062566448265e-06 
 8.9552983602570749e-06  9.3114086277644866e-06  9.6816784644938869e-06  1.0066670794582793e-05 
 1.0466970915910171e-05  1.0883187388968924e-05  1.1315952961025938e-05  1.1765925526968960e-05 
 1.2233789128294554e-05  1.2720254991749680e-05  1.3226062609198159e-05  1.3751980860346504e-05 
 1.4298809180027574e-05  1.4867378771807842e-05  1.5458553869754019e-05  1.6073233050267029e-05 
 1.6712350595967048e-05  1.7376877913691320e-05  1.8067825008748670e-05  1.8786242017658063e-05 
 1.9533220801687736e-05  2.0309896603602372e-05  2.1117449770120603e-05  2.1957107542684410e-05 
 2.2830145919244027e-05  2.3737891589869513e-05  2.4681723949109644e-05  2.5663077188135761e-05 
 2.6683442469826209e-05  2.7744370190072550e-05  2.8847472328717374e-05  2.9994424893668529e-05 
 3.1186970461873489e-05  3.2426920820983100e-05  3.3716159715684424e-05  3.5056645702838987e-05 
 3.6450415119726461e-05  3.7899585169860848e-05  3.9406357131023940e-05  4.0973019690342329e-05 
 4.2601952411424338e-05  4.4295629338769813e-05  4.6056622744870951e-05  4.7887607025634813e-05 
 4.9791362749978342e-05  5.1770780869679187e-05  5.3828867095798856e-05  5.5968746448247882e-05 
 5.8193667985316776e-05  6.0507009720264573e-05  6.2912283732334811e-05  6.5413141479856929e-05 
 6.8013379323390299e-05  7.0716944267179197e-05  7.3527939927512588e-05  7.6450632736912712e-05 
 7.9489458393431148e-05  8.2649028564688878e-05  8.5934137856674868e-05  8.9349771057706414e-05 
 9.2901110668361489e-05  9.6593544728613225e-05  1.0043267495383248e-04  1.0442432519178317e-04 
 1.0857455021319779e-04  1.1288964484901782e-04  1.1737615348788692e-04  1.2204087994801291e-04 
 1.2689089773806211e-04  1.3193356072231676e-04  1.3717651420591795e-04  1.4262770645662274e-04 
 1.4829540068015109e-04  1.5418818746683864e-04  1.6031499772801560e-04  1.6668511614122846e-04 
 1.7330819512415788e-04  1.8019426935786382e-04  1.8735377088075760e-04  1.9479754477555390e-04 
 2.0253686547227169e-04  2.1058345369128455e-04  2.1894949405128398e-04  2.2764765336802541e-04 
 2.3669109967067325e-04  2.4609352196360370e-04  2.5586915076259228e-04  2.6603277943538915e-04 
 2.7659978637785480e-04  2.8758615805799317e-04  2.9900851296145095e-04  3.1088412647332583e-04 
 3.2323095673244618e-04  3.3606767149562652e-04  3.4941367605086375e-04  3.6328914221985128e-04 
 3.7771503849175290e-04  3.9271316133171100e-04  4.0830616770922649e-04  4.2451760889321646e-04 
 4.4137196556229611e-04  4.5889468428065672e-04  4.7711221539177274e-04  4.9605205238411286e-04 
 5.1574277278502491e-04  5.3621408064105050e-04  5.5749685064507227e-04  5.7962317397289135e-04 
 6.0262640589418338e-04  6.2654121522507517e-04  6.5140363569212312e-04  6.7725111927994543e-04 
 7.0412259163741349e-04  7.3205850962003135e-04  7.6110092104886458e-04  7.9129352676937203e-04 
 8.2268174509636061e-04  8.5531277873448835e-04  8.8923568426680082e-04  9.2450144430714922e-04 
 9.6116304241569109e-04  9.9927554088015966e-04  1.0388961614692120e-03  1.0800843692678238e-03 
 1.1229019597085736e-03  1.1674131489165392e-03  1.2136846674896664e-03  1.2617858578404849e-03 
 1.3117887752295148e-03  1.3637682926249857e-03  1.4178022095280671e-03  1.4739713649074902e-03 
 1.5323597543921643e-03  1.5930546518753837e-03  1.6561467356891453e-03  1.7217302195124057e-03 
 1.7899029881822549e-03  1.8607667385824875e-03  1.9344271257896221e-03  2.0109939146619798e-03 
 2.0905811370634116e-03  2.1733072549189750e-03  2.2592953293060999e-03  2.3486731957908127e-03 
 2.4415736462249761e-03  2.5381346172267394e-03  2.6384993855730716e-03  2.7428167707396916e-03 
 2.8512413448305309e-03  2.9639336501454520e-03  3.0810604246420520e-03  3.2027948355540610e-03 
 3.3293167214359476e-03  3.4608128429104135e-03  3.5974771424022922e-03  3.7395110131497136e-03 
 3.8871235777902502e-03  4.0405319768271131e-03  4.1999616672863116e-03  4.3656467318858956e-03 
 4.5378301990387591e-03  4.7167643740273100e-03  4.9027111816821326e-03  5.0959425209162442e-03 
 5.2967406314627348e-03  5.5053984731744882e-03  5.7222201182496281e-03  5.9475211567493625e-03 
 6.1816291157862158e-03  6.4248838927543619e-03  6.6776382029884217e-03  6.9402580422357127e-03 
 7.2131231643282195e-03  7.4966275744465646e-03  7.7911800383654384e-03  8.0972046080763638e-03 
 8.4151411641737658e-03  8.7454459753997810e-03  9.0885922757325162e-03  9.4450708594000145e-03 
 9.8153906942016530e-03  1.0200079553502854e-02  1.0599684667270709e-02  1.1014773392500479e-02 
 1.1445933903372382e-02  1.1893775901465002e-02  1.2358931346333108e-02  1.2842055206744897e-02 
 1.3343826232837879e-02  1.3864947749445146e-02  1.4406148470794935e-02  1.4968183336794744e-02 
 1.5551834371008775e-02  1.6157911560478754e-02  1.6787253757430076e-02  1.7440729602905800e-02 
 1.8119238472269646e-02  1.8823711442524902e-02  1.9555112281267318e-02  2.0314438457077755e-02 
 2.1102722171055494e-02  2.1921031409108210e-02  2.2770471014566657e-02  2.3652183780536327e-02 
 2.4567351561364959e-02  2.5517196402427542e-02  2.6502981687368980e-02  2.7526013301774371e-02 
 2.8587640812129885e-02  2.9689258658763689e-02  3.0832307361320550e-02  3.2018274735146200e-02 
 3.3248697116766805e-02  3.4525160596482071e-02  3.5849302255857134e-02  3.7222811407706433e-02 
 3.8647430835905022e-02  4.0124958032151103e-02  4.1657246426505853e-02  4.3246206608297921e-02 
 4.4893807533664933e-02  4.6602077715708602e-02  4.8373106392923637e-02  5.0209044671208493e-02 
 5.2112106634429139e-02  5.4084570418115235e-02  5.6128779240496203e-02  5.8247142384668403e-02 
 6.0442136125268393e-02  6.2716304592559363e-02  6.5072260566445106e-02  6.7512686192344185e-02 
 7.0040333610473196e-02  7.2658025489504049e-02  7.5368655455071931e-02  7.8175188403024232e-02 
 8.1080660686821820e-02  8.4088180167830748e-02  8.7200926116749372e-02  9.0422148953748310e-02 
 9.3755169814328368e-02  9.7203379927274097e-02  1.0077023979042873e-01  1.0445927812939768e-01 
 1.0827409062363400e-01  1.1221833838369626e-01  1.1629574616282075e-01  1.2051010028527633e-01 
 1.2486524627330971e-01  1.2936508615382281e-01  1.3401357542522691e-01  1.3881471966429840e-01 
 1.4377257075212832e-01  1.4889122269762717e-01  1.5417480703635550e-01  1.5962748778177119e-01 
 1.6525345590532792e-01  1.7105692332114281e-01  1.7704211635029285e-01  1.8321326863908713e-01 
 1.8957461350496285e-01  1.9613037568291988e-01  2.0288476244469450e-01  2.0984195406208139e-01 
 2.1700609358505740e-01  2.2438127590455076e-01  2.3197153606883480e-01  2.3978083682171278e-01 
 2.4781305532969247e-01  2.5607196906450436e-01  2.6456124080630905e-01  2.7328440273200888e-01 
 2.8224483955213969e-01  2.9144577065882160e-01  3.0089023124643771e-01  3.1058105236579731e-01 
 3.2052083987191909e-01  3.3071195222501815e-01  3.4115647710398489e-01  3.5185620679172747e-01 
 3.6281261229215966e-01  3.7402681613966599e-01  3.8549956386349488e-01  3.9723119407206259e-01 
 4.0922160712561012e-01  4.2147023237037973e-01  4.3397599391357039e-01  4.4673727492614967e-01 
 4.5975188047028848e-01  4.7301699886015491e-01  4.8652916157923193e-01  5.0028420179458677e-01 
 5.1427721152894956e-01  5.2850249757518952e-01  5.4295353626534126e-01  5.5762292723772633e-01 
 5.7250234638126629e-01  5.8758249817587971e-01  6.0285306769189972e-01  6.1830267255967364e-01 
 6.3391881527268146e-01  6.4968783624322846e-01  6.6559486808841251e-01  6.8162379168489051e-01 
 6.9775719459280761e-01  7.1397633251090453e-01  7.3026109448453957e-01  7.4658997264438531e-01 
 7.6294003730366711e-01  7.7928691828351715e-01  7.9560479336688961e-01  8.1186638479836937e-01 
 8.2804296474766237e-01  8.4410437063537036e-01  8.6001903117838641e-01  8.7575400394643921e-01 
 8.9127502512926482e-01  9.0654657209442524e-01  9.2153193916894560e-01  9.3619332690478119e-01 
 9.5049194489134181e-01  9.6438812796214113e-01  9.7784146541340933e-01  9.9081094261828073e-01 
 1.0032550941913627e+00  1.0151321676471652e+00  1.0264002963160175e+00  1.0370176801478728e+00 
 1.0469427729636183e+00  1.0561344747206431e+00  1.0645523274587416e+00  1.0721567137950672e+00 
 1.0789090571499407e+00  1.0847720233094300e+00  1.0897097234585207e+00  1.0936879194331748e+00 
 1.0966742326119079e+00  1.0986383585563317e+00  1.0995522901605836e+00  1.0993905526141738e+00 
 1.0981304538422725e+00  1.0957523541744827e+00  1.0922399587164362e+00  1.0875806351698805e+00 
 1.0817657585893876e+00  1.0747910827221028e+00  1.0666571351288374e+00  1.0573696302537796e+00 
 1.0469398910767340e+00  1.0353852660951224e+00  1.0227295243668793e+00  1.0090032075014292e+00 
 9.9424391418824887e-01  9.7849649053376764e-01  9.6181309860423314e-01  9.4425313660861032e-01 
 9.2588298751456577e-01  9.0677557887501115e-01  8.8700974537916544e-01  8.6666939701237011e-01 
 8.4584250928713012e-01  8.2461996701251106e-01  8.0309430834235562e-01  7.8135842986845361e-01 
 7.5950432449704697e-01  7.3762192980037022e-01  7.1579816353689896e-01  6.9411621344267149e-01 
 6.7265512916283265e-01  6.5148973519061260e-01  6.3069084601672087e-01  6.1032572094974336e-01 
 5.9045865042537005e-01  5.7115152377248157e-01  5.5246419722520157e-01  5.3445446789901763e-01 
 5.1717747155354721e-01  5.0068436475031608e-01  4.8502022806842471e-01  4.7022123467984067e-01 
 4.5631126073529155e-01  4.4329825760483565e-01  4.3117084220336438e-01  4.1989566705130571e-01 
 4.0941618100655569e-01  3.9965336108132088e-01  3.9050886808709506e-01  3.8187084804984239e-01 
 3.7362227734189457e-01  3.6565136116992886e-01  3.5786309060852034e-01  3.5019070686637205e-01 
 3.4260505536280528e-01  3.3510391420155128e-01  3.2768825535839374e-01  3.2035897877513031e-01 
 3.1311691527114260e-01  3.0596282940056435e-01  2.9889742223784699e-01  2.9192133407726728e-01 
 2.8503514703479799e-01  2.7823938754363253e-01  2.7153452873745021e-01  2.6492099271811659e-01 
 2.5839915270688890e-01  2.5196933508027802e-01  2.4563182129349909e-01  2.3938684969589105e-01 
 2.3323461724382097e-01  2.2717528111741192e-01  2.2120896024797351e-01  2.1533573676328441e-01 
 2.0955565735790971e-01  2.0386873459555110e-01  1.9827494815005067e-01  1.9277424599111179e-01 
 1.8736654552009005e-01  1.8205173466033914e-01  1.7682967290560345e-01  1.7170019232880895e-01 
 1.6666309855235958e-01  1.6171817167967370e-01  1.5686516718623128e-01  1.5210381676685289e-01 
 1.4743382913432485e-01  1.4285489076286204e-01  1.3836666656830249e-01  1.3396880051542132e-01 
 1.2966091614141481e-01  1.2544261698352199e-01  1.2131348689802759e-01  1.1727309025763272e-01 
 1.1332097201449992e-01  1.0945665761727984e-01  1.0567965277219475e-01  1.0198944304084774e-01 
 9.8385493270872329e-02  9.4867246859789076e-02  9.1434124857428564e-02  8.8085524917842259e-02 
 8.4820820117557219e-02  8.1639357663067291e-02  7.8540457516286952e-02  7.5523410972003838e-02 
 7.2587479225825244e-02  6.9731891974434662e-02  6.6955846091913476e-02  6.4258504426280560e-02 
 6.1638994759178792e-02  5.9096408968816974e-02  5.6629802431971146e-02  5.4238193695258820e-02 
 5.1920564439288552e-02  4.9675859751962231e-02  4.7502988719499713e-02  4.5400825335987778e-02 
 4.3368209724735235e-02  4.1403949657702700e-02  3.9506822352985381e-02  3.7675576524917133e-02 
 3.5908934656936960e-02  3.4205595463964449e-02  3.2564236508673225e-02  3.0983516934698592e-02 
 2.9462080279406628e-02  2.7998557329304424e-02  2.6591568982397496e-02  2.5239729083697603e-02 
 2.3941647202559122e-02  2.2695931323476002e-02  2.1501190425313326e-02  2.0356036927588826e-02 
 1.9259088986275576e-02  1.8208972625582472e-02  1.7204323696203349e-02  1.6243789654521831e-02 
 1.5326031161136367e-02  1.4449723500741680e-02  1.3613557828788774e-02  1.2816242253367860e-02 
 1.2056502763347493e-02  1.1333084015902743e-02  1.0644749998132783e-02  9.9902845784815165e-03 
 9.3684919641313456e-03  8.7781970804587505e-03  8.2182458880609814e-03  7.6875056518436232e-03 
 7.1848651752718685e-03  6.7092350112172260e-03  6.2595476589648313e-03  5.8347577549733506e-03 
 5.4338422629848036e-03  5.0558006671421246e-03  4.6996551699535882e-03  4.3644508952979943e-03 
 4.0492560952313716e-03  3.7531623581597380e-03  3.4752848149949304e-03  3.2147623392118733e-03 
 2.9707577362666970e-03  2.7424579175984688e-03  2.5290740544006494e-03  2.3298417064853611e-03 
 2.1440209218461176e-03  1.9708963029243212e-03  1.8097770360739869e-03  1.6599968812717970e-03 
 1.5209141197121234e-03  1.3919114575381079e-03  1.2723958845724198e-03  1.1617984875096808e-03 
 1.0595742176046402e-03  9.6520161342643601e-04  8.7818247974253815e-04  7.9804152404126707e-04 
 7.2432595259603585e-04  6.5660502831612168e-04  5.9446959291769251e-04  5.3753155618586239e-04 
 4.8542335528547781e-04  4.3779738721756836e-04  3.9432541761279358e-04  3.5469796910605431e-04 
 3.1862369255113122e-04  2.8582872431436187e-04  2.5605603283557248e-04  2.2906475756629991e-04 
 2.0462954329330887e-04  1.8253987273286401e-04  1.6259940014141453e-04  1.4462528853432870e-04 
 1.2844755293895259e-04  1.1390841193424004e-04  1.0086164954898512e-04  8.9171989406558138e-05 
 7.8714482818085417e-05  6.9373912340100211e-05  6.1044212128520350e-05  5.3627906239883761e-05 
 4.7035565854424602e-05  4.1185286224960846e-05  3.6002183991681061e-05  3.1417915346607167e-05 
 2.7370215383467891e-05  2.3802458829496908e-05  2.0663242225707779e-05  1.7905987501793274e-05 
 1.5488566781156965e-05  1.3372948150795690e-05  1.1524862039818524e-05  9.9134877692218363e-06 
 8.5111597639778519e-06  7.2930928563028744e-06  6.2371260558557270e-06  5.3234841182279155e-06 
 4.5345562070314256e-06  3.8546909167328658e-06  3.2700069026601731e-06  2.7682183508299122e-06 
 2.3384745129015438e-06  1.9712125301394134e-06  1.6580227742273192e-06  1.3915259416061085e-06 
 1.1652611511686945e-06  9.7358431213348851e-07  8.1157604922440066e-07  6.7495849542685780e-07 
 5.6002028809845407e-07  4.6354913164576793e-07  3.8277131891631346e-07  3.1529763350415662e-07 
 2.5907508596507893e-07  2.1234396814744687e-07  1.7359974116312855e-07  1.4155930367426580e-07 
 1.1513121791195680e-07  9.3389500957348802e-08  7.5550618118795342e-08  6.0953343573307901e-08 
 4.9041180676248599e-08  3.9347060375381902e-08  3.1480060913361504e-08  2.5113915408161369e-08 
 1.9977095926061205e-08  1.5844283287432134e-08  1.2529051069335115e-08  9.8776101032798843e-09 
 7.7634762367462987e-09  6.0829392696659124e-09  4.7512255155538614e-09  3.6992623433919232e-09 
 2.8709370042047562e-09  2.2208163841485872e-09  1.7122346207602463e-09  1.3156987323478877e-09 
 1.0075645563294504e-09  7.6894093661105766e-10  5.8478595925187407e-10  4.4316419622487263e-10 
 3.3463844331174871e-10  2.5177339136431299e-10  1.8873210832208976e-10  1.4094918694634621e-10 
 1.0486698095693008e-10  7.7723557095032954e-11  5.7382875737968601e-11  4.2199317464986450e-11 
 3.0910033164891146e-11  2.2549743118186631e-11  1.6383574861813564e-11  1.1854336281453517e-11 
 8.5412920577372082e-12  6.1280683761390556e-12  4.3777702527490184e-12  3.1137732098866463e-12 
 2.2049595805572325e-12  1.5544208088569597e-12  1.0908504826566625e-12  7.6201677183798728e-13 
 5.2983446221606160e-13  3.6666177278495127e-13  2.5253055983119592e-13  1.7308445468459200e-13 
 1.1805135249421098e-13  8.0117265207924913e-14  5.4100162137904701e-14  3.6346908713179312e-14 
 2.4295285186429224e-14  1.6157534501988608e-14  1.0692922129905363e-14  7.0451621486693951e-15 
 4.6268841601406350e-15  0.0000000000000000e+00  0.0000000000000000e+00  0.0000000000000000e+00 
 0.0000000000000000e+00  0.0000000000000000e+00  0.0000000000000000e+00  0.0000000000000000e+00 
 0.0000000000000000e+00  0.0000000000000000e+00  0.0000000000000000e+00  0.0000000000000000e+00 
 0.0000000000000000e+00  0.0000000000000000e+00  0.0000000000000000e+00  0.0000000000000000e+00 
 0.0000000000000000e+00  0.0000000000000000e+00  0.0000000000000000e+00  0.0000000000000000e+00 
 0.0000000000000000e+00  0.0000000000000000e+00  0.0000000000000000e+00  0.0000000000000000e+00 
 0.0000000000000000e+00  0.0000000000000000e+00  0.0000000000000000e+00  0.0000000000000000e+00 
 0.0000000000000000e+00  0.0000000000000000e+00  0.0000000000000000e+00  0.0000000000000000e+00 
 0.0000000000000000e+00  0.0000000000000000e+00  0.0000000000000000e+00  0.0000000000000000e+00 
 0.0000000000000000e+00  0.0000000000000000e+00  0.0000000000000000e+00  0.0000000000000000e+00 
 0.0000000000000000e+00  0.0000000000000000e+00  0.0000000000000000e+00  0.0000000000000000e+00 
 0.0000000000000000e+00  0.0000000000000000e+00  0.0000000000000000e+00  0.0000000000000000e+00 
 0.0000000000000000e+00  0.0000000000000000e+00  0.0000000000000000e+00  0.0000000000000000e+00 
 0.0000000000000000e+00  0.0000000000000000e+00  0.0000000000000000e+00  0.0000000000000000e+00 
 0.0000000000000000e+00  0.0000000000000000e+00  0.0000000000000000e+00  0.0000000000000000e+00 
 0.0000000000000000e+00  0.0000000000000000e+00  0.0000000000000000e+00  0.0000000000000000e+00 
 0.0000000000000000e+00  0.0000000000000000e+00  0.0000000000000000e+00  0.0000000000000000e+00 
 0.0000000000000000e+00  0.0000000000000000e+00  0.0000000000000000e+00  0.0000000000000000e+00 
 0.0000000000000000e+00  0.0000000000000000e+00  0.0000000000000000e+00 
</PP_PSWFC>


<PP_RHOATOM>
 1.4074844848049607e-12  1.4445589619690737e-12  1.4826100160724209e-12  1.5216633710803337e-12 
 1.5617454285519122e-12  1.6028832854885019e-12  1.6451047526523169e-12  1.6884383733675765e-12 
 1.7329134428169036e-12  1.7785600278459911e-12  1.8254089872899210e-12  1.8734919928349739e-12 
 1.9228415504299037e-12  1.9734910222611485e-12  2.0254746493070473e-12  2.0788275744860027e-12 
 2.1335858664144760e-12  2.1897865437907458e-12  2.2474676004209991e-12  2.3066680309045933e-12 
 2.3674278569959387e-12  2.4297881546607185e-12  2.4937910818448661e-12  2.5594799069749483e-12 
 2.6268990382092903e-12  2.6960940534596457e-12  2.7671117312035918e-12  2.8400000821086202e-12 
 2.9148083814891851e-12  2.9915872026187954e-12  3.0703884509193968e-12  3.1512653990515800e-12 
 3.2342727229288743e-12  3.3194665386808623e-12  3.4069044405897875e-12  3.4966455400266352e-12 
 3.5887505054126151e-12  3.6832816032334980e-12  3.7803027401340641e-12  3.8798795061215650e-12 
 3.9820792189071511e-12  4.0869709694151884e-12  4.1946256684915242e-12  4.3051160948419326e-12 
 4.4185169442333737e-12  4.5349048799913229e-12  4.6543585848270862e-12  4.7769588140304905e-12 
 4.9027884500635922e-12  5.0319325585924366e-12  5.1644784459949661e-12  5.3005157183833226e-12 
 5.4401363421813352e-12  5.5834347062973273e-12  5.7305076859347516e-12  5.8814547080837538e-12 
 6.0363778187375971e-12  6.1953817518799933e-12  6.3585740002891775e-12  6.5260648882076241e-12 
 6.6979676459252791e-12  6.8743984863279144e-12  7.0554766834617522e-12  7.2413246531672216e-12 
 7.4320680358372368e-12  7.6278357813549337e-12  7.8287602362690446e-12  8.0349772332653391e-12 
 8.2466261829952134e-12  8.4638501683225516e-12  8.6867960410539349e-12  8.9156145212159613e-12 
 9.1504602989483282e-12  9.3914921390804352e-12  9.6388729884630331e-12  9.8927700861267131e-12 
 1.0153355076342533e-11  1.0420804124660094e-11  1.0695298037003103e-11  1.0977022381901274e-11 
 1.1266167615942234e-11  1.1562929212528225e-11  1.1867507794023878e-11  1.2180109267385256e-11 
 1.2500944963361350e-11  1.2830231779362650e-11  1.3168192326092629e-11  1.3515055078041506e-11 
 1.3871054527945012e-11  1.4236431345310937e-11  1.4611432539121715e-11  1.4996311624822857e-11 
 1.5391328795710296e-11  1.5796751098831528e-11  1.6212852615520846e-11  1.6639914646690128e-11 
 1.7078225902999884e-11  1.7528082700039806e-11  1.7989789158651069e-11  1.8463657410524847e-11 
 1.8950007809216645e-11  1.9449169146718776e-11  1.9961478875738698e-11  2.0487283337830547e-11 
 2.1026937997537894e-11  2.1580807682703106e-11  2.2149266831106039e-11  2.2732699743601507e-11 
 2.3331500843922559e-11  2.3946074945329273e-11  2.4576837524279248e-11  2.5224215001308979e-11 
 2.5888645029312945e-11  2.6570576789416158e-11  2.7270471294641069e-11  2.7988801701573364e-11 
 2.8726053630236350e-11  2.9482725492393374e-11  3.0259328828495727e-11  3.1056388653508049e-11 
 3.1874443811842340e-11  3.2714047341642252e-11  3.3575766848661498e-11  3.4460184889992895e-11 
 3.5367899367903439e-11  3.6299523934044906e-11  3.7255688404310847e-11  3.8237039184623312e-11 
 3.9244239707932578e-11  4.0277970882730631e-11  4.1338931553378724e-11  4.2427838972558259e-11 
 4.3545429286171223e-11  4.4692458031009269e-11  4.5869700645533631e-11  4.7077952994112511e-11 
 4.8318031905061756e-11  4.9590775722865765e-11  5.0897044874937361e-11  5.2237722453313964e-11 
 5.3613714811669853e-11  5.5025952178060720e-11  5.6475389283805451e-11  5.7963006008934749e-11 
 5.9489808044641230e-11  6.1056827573180709e-11  6.2665123965683784e-11  6.4315784498345351e-11 
 6.6009925087485674e-11  6.7748691043969056e-11  6.9533257847497853e-11  7.1364831941302899e-11 
 7.3244651547767300e-11  7.5173987505532612e-11  7.7154144128661974e-11  7.9186460088431060e-11 
 8.1272309318344403e-11  8.3413101943000218e-11  8.5610285231416125e-11  8.7865344575467798e-11 
 9.0179804494108425e-11  9.2555229664031948e-11  9.4993225977494523e-11  9.7495441627997031e-11 
 1.0006356822456547e-10  1.0269934193538980e-10  1.0540454466158243e-10  1.0818100524186170e-10 
 1.1103060068896526e-10  1.1395525745863705e-10  1.1695695275203914e-10  1.2003771585247454e-10 
 1.2319962949732578e-10  1.2644483128612460e-10  1.2977551512572354e-10  1.3319393271353370e-10 
 1.3670239505983243e-10  1.4030327405017668e-10  1.4399900404897404e-10  1.4779208354529411e-10 
 1.5168507684203729e-10  1.5568061578960239e-10  1.5978140156521837e-10  1.6399020649916116e-10 
 1.6830987594906236e-10  1.7274333022361040e-10  1.7729356655691446e-10  1.8196366113488788e-10 
 1.8675677117500822e-10  1.9167613706087105e-10  1.9672508453297129e-10  2.0190702693719670e-10 
 2.0722546753255753e-10  2.1268400185971426e-10  2.1828632017188994e-10  2.2403620992982996e-10 
 2.2993755836249555e-10  2.3599435509519840e-10  2.4221069484698764e-10  2.4859078019909227e-10 
 2.5513892443629464e-10  2.6185955446315130e-10  2.6875721379705792e-10  2.7583656564015373e-10 
 2.8310239603215023e-10  2.9055961708622997e-10  2.9821327031018899e-10  3.0606853001507999e-10 
 3.1413070681364325e-10  3.2240525121092806e-10  3.3089775728949117e-10  3.3961396649167756e-10 
 3.4855977150157434e-10  3.5774122022921728e-10  3.6716451989976114e-10  3.7683604125040163e-10 
 3.8676232283784886e-10  3.9695007545931073e-10  4.0740618668992312e-10  4.1813772553974927e-10 
 4.2915194723347279e-10  4.4045629811600610e-10  4.5205842068736427e-10  4.6396615877018246e-10 
 4.7618756281338331e-10  4.8873089533558850e-10  5.0160463651196123e-10  5.1481748990821208e-10 
 5.2837838836574108e-10  5.4229650004178203e-10  5.5658123460874913e-10  5.7124224961689851e-10 
 5.8628945702463839e-10  6.0173302990092010e-10  6.1758340930422586e-10  6.3385131134281366e-10 
 6.5054773442099770e-10  6.6768396667636443e-10  6.8527159361298637e-10  7.0332250593573318e-10 
 7.2184890759104900e-10  7.4086332401964135e-10  7.6037861062654840e-10  7.8040796147452627e-10 
 8.0096491820643182e-10  8.2206337920276200e-10  8.4371760898051909e-10  8.6594224783978557e-10 
 8.8875232176446936e-10  9.1216325258400437e-10  9.3619086840282632e-10  9.6085141430476074e-10 
 9.8616156333945216e-10  1.0121384277984032e-09  1.0387995707881465e-09  1.0661630181084855e-09 
 1.0942472704437740e-09  1.1230713158755245e-09  1.1526546427248065e-09  1.1830172527331773e-09 
 1.2141796745909558e-09  1.2461629778222090e-09  1.2789887870355881e-09  1.3126792965509760e-09 
 1.3472572854115066e-09  1.3827461327915047e-09  1.4191698338104489e-09  1.4565530157639476e-09 
 1.4949209547824724e-09  1.5342995929293921e-09  1.5747155557497179e-09  1.6161961702814856e-09 
 1.6587694835421106e-09  1.7024642815020162e-09  1.7473101085587070e-09  1.7933372875241124e-09 
 1.8405769401391943e-09  1.8890610081293044e-09  1.9388222748149089e-09  1.9898943872921241e-09 
 2.0423118791982497e-09  2.0961101940776186e-09  2.1513257093637992e-09  2.2079957609941941e-09 
 2.2661586686739096e-09  2.3258537618061282e-09  2.3871214061062216e-09  2.4500030309181437e-09 
 2.5145411572512764e-09  2.5807794265570754e-09  2.6487626302647191e-09  2.7185367400962672e-09 
 2.7901489391814822e-09  2.8636476539937300e-09  2.9390825871287423e-09  3.0165047509481032e-09 
 3.0959665021110147e-09  3.1775215770170416e-09  3.2612251281846962e-09  3.3471337615900041e-09 
 3.4353055749909387e-09  3.5258001972635038e-09  3.6186788287762629e-09  3.7140042828311938e-09 
 3.8118410281984798e-09  3.9122552327748083e-09  4.0153148083943878e-09  4.1210894568240073e-09 
 4.2296507169725062e-09  4.3410720133477185e-09  4.4554287057935831e-09  4.5727981405412236e-09 
 4.6932597026094069e-09  4.8168948695894962e-09  4.9437872668521766e-09  5.0740227242135289e-09 
 5.2076893340990207e-09  5.3448775112455286e-09  5.4856800539821335e-09  5.6301922071315739e-09 
 5.7785117265753591e-09  5.9307389455274202e-09  6.0869768425607795e-09  6.2473311114346802e-09 
 6.4119102327700447e-09  6.5808255476218145e-09  6.7541913329998885e-09  6.9321248793896367e-09 
 7.1147465703254909e-09  7.3021799640731258e-09  7.4945518774756715e-09  7.6919924720221407e-09 
 7.8946353421977273e-09  8.1026176061763760e-09  8.3160799989192047e-09  8.5351669677421418e-09 
 8.7600267704200219e-09  8.9908115758946140e-09  9.2276775676560599e-09  9.4707850498706962e-09 
 9.7202985563280892e-09  9.9763869622830411e-09  1.0239223599271581e-08  1.0508986372979951e-08 
 1.0785857884249640e-08  1.1070025553302475e-08  1.1361681747273813e-08  1.1661023911142214e-08 
 1.1968254702148355e-08  1.2283582127797474e-08  1.2607219687542937e-08  1.2939386518250144e-08 
 1.3280307543545042e-08  1.3630213627151796e-08  1.3989341730329641e-08  1.4357935073519366e-08 
 1.4736243302317163e-08  1.5124522657891573e-08  1.5523036151967913e-08  1.5932053746505238e-08 
 1.6351852538193414e-08  1.6782716947907250e-08  1.7224938915250271e-08  1.7678818098333640e-08 
 1.8144662078931787e-08  1.8622786573168166e-08  1.9113515647882527e-08  1.9617181942840749e-08 
 2.0134126898950565e-08  2.0664700992651212e-08  2.1209263976653293e-08  2.1768185127206690e-08 
 2.2341843498082685e-08  2.2930628181462051e-08  2.3534938575924371e-08  2.4155184661745641e-08 
 2.4791787283710340e-08  2.5445178441658822e-08  2.6115801588991387e-08  2.6804111939363134e-08 
 2.7510576781806584e-08  2.8235675804531836e-08  2.8979901427658267e-08  2.9743759145144754e-08 
 3.0527767876190391e-08  3.1332460326388880e-08  3.2158383358934469e-08  3.3006098376175004e-08 
 3.3876181711839487e-08  3.4769225034252312e-08  3.5685835760886358e-08  3.6626637484596603e-08 
 3.7592270411903245e-08  3.8583391813702483e-08  3.9600676488797304e-08  4.0644817240657144e-08 
 4.1716525367830496e-08  4.2816531168453848e-08  4.3945584459315297e-08  4.5104455109951349e-08 
 4.6293933592276379e-08  4.7514831546263050e-08  4.8767982362217624e-08  5.0054241780211862e-08 
 5.1374488507264961e-08  5.2729624852890189e-08  5.4120577383648604e-08  5.5548297597388787e-08 
 5.7013762617866476e-08  5.8517975910496484e-08  6.0061968019992520e-08  6.1646797330720852e-08 
 6.3273550850602103e-08  6.4943345019465977e-08  6.6657326542780847e-08  6.8416673251754909e-08 
 7.0222594990831020e-08  7.2076334533668579e-08  7.3979168528757741e-08  7.5932408475864121e-08 
 7.7937401734588163e-08  7.9995532566362830e-08  8.2108223211318532e-08  8.4276935001499139e-08 
 8.6503169512011519e-08  8.8788469751778992e-08  9.1134421395655011e-08  9.3542654059779636e-08 
 9.6014842622141583e-08  9.8552708590461965e-08  1.0115802151960610e-07  1.0383260048089853e-07 
 1.0657831558583719e-07  1.0939708956688069e-07  1.1229089941812287e-07  1.1526177809887785e-07 
 1.1831181630337437e-07  1.2144316429996353e-07  1.2465803384347868e-07  1.2795870016461152e-07 
 1.3134750404043504e-07  1.3482685395047226e-07  1.3839922832300765e-07  1.4206717787666616e-07 
 1.4583332806259714e-07  1.4970038161301620e-07  1.5367112120220086e-07  1.5774841222651141e-07 
 1.6193520571041617e-07  1.6623454134604470e-07  1.7064955067428330e-07  1.7518346041602454e-07 
 1.7983959596277067e-07  1.8462138503650017e-07  1.8953236152935043e-07  1.9457616953452963e-07 
 1.9975656758060117e-07  2.0507743308226751e-07  2.1054276702166632e-07  2.1615669887530615e-07 
 2.2192349180280362e-07  2.2784754811486054e-07  2.3393341503919918e-07  2.4018579080454488e-07 
 2.4660953106430341e-07  2.5320965568318972e-07  2.5999135591181777e-07  2.6696000197618457e-07 
 2.7412115111099823e-07  2.8148055606803449e-07  2.8904417413307952e-07  2.9681817668759481e-07 
 3.0480895935401263e-07  3.1302315276654791e-07  3.2146763401271738e-07  3.3014953879413992e-07 
 3.3907627435905115e-07  3.4825553326298575e-07  3.5769530801849915e-07  3.6740390669951872e-07 
 3.7738996957101743e-07  3.8766248682029898e-07  3.9823081747206495e-07  4.0910470957593493e-07 
 4.2029432176199864e-07  4.3181024626755864e-07  4.4366353354625837e-07  4.5586571857959007e-07 
 4.6842884902024994e-07  4.8136551530698932e-07  4.9468888290166786e-07  5.0841272681110867e-07 
 5.2255146856927635e-07  5.3712021586915233e-07  5.5213480504867149e-07  5.6761184665143108e-07 
 5.8356877430022683e-07  6.0002389714052578e-07  6.1699645613140153e-07  6.3450668448343603e-07 
 6.5257587256713339e-07  6.7122643764096031e-07  6.9048199877605944e-07  7.1036745738480719e-07 
 7.3090908379266824e-07  7.5213461032812526e-07  7.7407333144316632e-07  7.9675621141793973e-07 
 8.2021600024717577e-07  8.4448735835407101e-07  8.6960699082870173e-07  8.9561379194391096e-07 
 9.2254900076187685e-07  9.5045636870961981e-07  9.7938234007202850e-07  1.0093762464270169e-06 
 1.0404905161294026e-06  1.0727809000387491e-06  1.1063067147824576e-06  1.1411311049483389e-06 
 1.1773213257133833e-06  1.2149490475355331e-06  1.2540906846661885e-06  1.2948277493820780e-06 
 1.3372472339869810e-06  1.3814420227989505e-06  1.4275113365157668e-06  1.4755612115436038e-06 
 1.5257050170813916e-06  1.5780640129769128e-06  1.6327679516132260e-06  1.6899557273450384e-06 
 1.7497760772869971e-06  1.8123883375613996e-06  1.8779632594415298e-06  1.9466838901836559e-06 
 2.0187465237242040e-06  2.0943617268348751e-06  2.1737554467762678e-06  2.2571702069755015e-06 
 2.3448663977763355e-06  2.4371236698759110e-06  2.5342424386722318e-06  2.6365455084061900e-06 
 2.7443798256940625e-06  2.8581183728150532e-06  2.9781622119498339e-06  3.1049426924621306e-06 
 3.2389238342848960e-06  3.3806049015183335e-06  3.5305231814767898e-06  3.6892569856414103e-06 
 3.8574288902930413e-06  4.0357092360215970e-06  4.2248199068448465e-06  4.4255384113270986e-06 
 4.6387022898793425e-06  4.8652138743550505e-06  5.1060454281434348e-06  5.3622446972147905e-06 
 5.6349409050051733e-06  5.9253512266535579e-06  6.2347877809392521e-06  6.5646651813270511e-06 
 6.9165086908308315e-06  7.2919630289700636e-06  7.6928018829427105e-06  8.1209381792892882e-06 
 8.5784351768049646e-06  9.0675184462929525e-06  9.5905888079701846e-06  1.0150236302970119e-05 
 1.0749255281460364e-05  1.1390660696452932e-05  1.2077705699454749e-05  1.2813900641739550e-05 
 1.3603033593252437e-05  1.4449192500040012e-05  1.5356789110675844e-05  1.6330584812483116e-05 
 1.7375718529496578e-05  1.8497736846123697e-05  1.9702626533421050e-05  2.0996849668872797e-05 
 2.2387381555623784e-05  2.3881751663360244e-05  2.5488087830538172e-05  2.7215163986534844e-05 
 2.9072451672638360e-05  3.1070175662718020e-05  3.3219374008041830e-05  3.5531962856170712e-05 
 3.8020806421290007e-05  4.0699792512891763e-05  4.3583914061564441e-05  4.6689357114933578e-05 
 5.0033595813740922e-05  5.3635494897817236e-05  5.7515420334542015e-05  6.1695358708492093e-05 
 6.6199046060629738e-05  7.1052106918806650e-05  7.6282204318880417e-05  8.1919201677618981e-05 
 8.7995337445159191e-05  9.4545413536415571e-05  1.0160699861789231e-04  1.0922064740921753e-04 
 1.1743013724782222e-04  1.2628272326099837e-04  1.3582941359253694e-04  1.4612526624184000e-04 
 1.5722970919232075e-04  1.6920688563369941e-04  1.8212602621996005e-04  1.9606185045237265e-04 
 2.1109499943473546e-04  2.2731250241866572e-04  2.4480827973805027e-04  2.6368368492846059e-04 
 2.8404808903634385e-04  3.0601951034824846e-04  3.2972529301157361e-04  3.5530283827670179e-04 
 3.8290039236817667e-04  4.1267789528829832e-04  4.4480789517554998e-04  4.7947653318014820e-04 
 5.1688460418304594e-04  5.5724869907489703e-04  6.0080243472774208e-04  6.4779777823856352e-04 
 6.9850647249870357e-04  7.5322157065336461e-04  8.1225908755743999e-04  8.7595977691378856e-04 
 9.4469104339937285e-04  1.0188489997426499e-03  1.0988606794202637e-03  1.1851864163886169e-03 
 1.2783224040633411e-03  1.3788034466082077e-03  1.4872059164967434e-03  1.6041509332700035e-03 
 1.7303077794290972e-03  1.8663975704856853e-03  2.0131971973348615e-03  2.1715435603398446e-03 
 2.3423381157866622e-03  2.5265517567492021e-03  2.7252300518265824e-03  2.9394988667481277e-03 
 3.1705703954298600e-03  3.4197496287763896e-03  3.6884412912807168e-03  3.9781572773642682e-03 
 4.2905246213558032e-03  4.6272940370676498e-03  4.9903490651037564e-03  5.3817158682697777e-03 
 5.8035737178431549e-03  6.2582662158936053e-03  6.7483133014290134e-03  7.2764240907818717e-03 
 7.8455106054205245e-03  8.4587024432050718e-03  9.1193624520557563e-03  9.8311034680181320e-03 
 1.0597806182799022e-02  1.1423638209025330e-02  1.2313074414680601e-02  1.3270918601452655e-02 
 1.4302326604999600e-02  1.5412830898465159e-02  1.6608366783838924e-02  1.7895300259038783e-02 
 1.9280457651769525e-02  2.0771157114320354e-02  2.2375242076442283e-02  2.4101116756240475e-02 
 2.5957783831624715e-02  2.7954884377173299e-02  3.0102740173292158e-02  3.2412398496172161e-02 
 3.4895679498236382e-02  3.7565226289394550e-02  4.0434557829543021e-02  4.3518124741975840e-02 
 4.6831368156043038e-02  5.0390781684946900e-02  5.4213976641222864e-02  5.8319750587848468e-02 
 6.2728159317194276e-02  6.7460592342610315e-02  7.2539851978689132e-02  7.7990236075490563e-02 
 8.3837624459453766e-02  9.0109569118950752e-02  9.6835388155273511e-02  1.0404626350017838e-01 
 1.1177534237859063e-01  1.2005784246948968e-01  1.2893116068914556e-01  1.3843498548841496e-01 
 1.4861141251952550e-01  1.5950506348736071e-01  1.7116320795533632e-01  1.8363588782648729e-01 
 1.9697604416560055e-01  2.1123964596831668e-01  2.2648582041738380e-01  2.4277698409451262e-01 
 2.6017897453827699e-01  2.7876118145366507e-01  2.9859667678722640e-01  3.1976234278265075e-01 
 3.4233899702494447e-01  3.6641151336670402e-01  3.9206893750723126e-01  4.1940459586380835e-01 
 4.4851619623452355e-01  4.7950591860312047e-01  5.1248049427824705e-01  5.4755127139256232e-01 
 5.8483426461052324e-01  6.2445018670852170e-01  6.6652445949628869e-01  7.1118720134537428e-01 
 7.5857318837910404e-01  8.0882178615888656e-01  8.6207684847608634e-01  9.1848657962630720e-01 
 9.7820335630708033e-01  1.0413835050410314e+00  1.1081870307874362e+00  1.1787772921688202e+00 
 1.2533206185084420e+00  1.3319858636545769e+00  1.4149438913622756e+00  1.5023669868200520e+00 
 1.5944281887538696e+00  1.6913005364233773e+00  1.7931562257546365e+00  1.9001656688419881e+00 
 2.0124964511115295e+00  2.1303121805859018e+00  2.2537712239407499e+00  2.3830253244166171e+00 
 2.5182180971671295e+00  2.6594833983060520e+00  2.8069435647882841e+00  2.9607075233458953e+00 
 3.1208687680266887e+00  3.2875032074746260e+00  3.4606668849728752e+00  3.6403935764635507e+00 
 3.8266922742818568e+00  4.0195445672094854e+00  4.2189019306683351e+00  4.4246829444383931e+00 
 4.6367704591766534e+00  4.8550087372095758e+00  5.0792005975222798e+00  5.3091045995104746e+00 
 5.5444323048095070e+00  5.7848456612600145e+00  6.0299545576825251e+00  6.2793146024540922e+00 
 6.5324251827378603e+00  6.7887278644099833e+00  7.0476051950507941e+00  7.3083799735988997e+00 
 7.5703150501934378e+00  7.8326137181456632e+00  8.0944207567103241e+00  8.3548241782313557e+00 
 8.6128577262360242e+00  8.8675041621376725e+00  9.1176993674614586e+00  9.3623372761083168e+00 
 9.6002756374125671e+00  9.8303425960275490e+00  1.0051344059501563e+01  1.0262071809383261e+01 
 1.0461312297488123e+01  1.0647856056259135e+01  1.0820507641640404e+01  1.0978096019137952e+01 
 1.1119485299208932e+01  1.1243585727008076e+01  1.1349364833743966e+01  1.1435858662011180e+01 
 1.1502182984615599e+01  1.1547544444326347e+01  1.1571251548994278e+01  1.1572725460575562e+01 
 1.1551510515586303e+01  1.1507284406183683e+01  1.1439867933452261e+01  1.1349234216151984e+01 
 1.1235517198625221e+01  1.1099019251467690e+01  1.0940217600197355e+01  1.0759769254551117e+01 
 1.0558514050118342e+01  1.0337475362477951e+01  1.0097858020933471e+01  9.8410429441741698e+00 
 9.5685780533384950e+00  9.2821650971639329e+00  8.9836421544452723e+00  8.6749617618425248e+00 
 8.3581648455502737e+00  8.0353509024060070e+00  7.7086451620107654e+00  7.3801637427667677e+00 
 7.0519780635324203e+00  6.7260799592819884e+00  6.4043490457779075e+00  6.0885238621366256e+00 
 5.7801781774312895e+00  5.4807035759715728e+00  5.1912990469324836e+00  4.9129678226821563e+00 
 4.6465211741877308e+00  4.3925883289292234e+00  4.1516311805851283e+00  3.9239620653491336e+00 
 3.7097626376045261e+00  3.5091018275516168e+00  3.3219510276692246e+00  3.1481950327875485e+00 
 2.9876378222401812e+00  2.8400029675254479e+00  2.7049292000563332e+00  2.5819623976179726e+00 
 2.4705458698487419e+00  2.3700112899700247e+00  2.2795729081168985e+00  2.1983277856657626e+00 
 2.1252646977302749e+00  2.0592840117206301e+00  1.9992301563339132e+00  1.9439371040610347e+00 
 1.8922905621964123e+00  1.8433118248817335e+00  1.7962154723704762e+00  1.7504644260299131e+00 
 1.7058078848531042e+00  1.6621853225323440e+00  1.6195592458135124e+00  1.5778930655097660e+00 
 1.5371511854885735e+00  1.4972990834315341e+00  1.4583033833382284e+00  1.4201319197884121e+00 
 1.3827537940189933e+00  1.3461394219123168e+00  1.3102605740299826e+00  1.2750904078608487e+00 
 1.2406034924828642e+00  1.2067758258656234e+00  1.1735848450640549e+00  1.1410094295734405e+00 
 1.1090298981322235e+00  1.0776279992719635e+00  1.0467868959236617e+00  1.0164911443966778e+00 
 9.8672666805097253e-01  9.5748072598555389e-01  9.2874187706612987e-01  9.0049993961315589e-01 
 8.7274594706798747e-01  8.4547209994973693e-01  8.1867171440900921e-01  7.9233916767686163e-01 
 7.6646984069853885e-01  7.4106005823173549e-01  7.1610702667876969e-01  6.9160876991130849e-01 
 6.6756406333568030e-01  6.4397236643673506e-01  6.2083375402936736e-01  5.9814884643978394e-01 
 5.7591873883419054e-01  5.5414492991157838e-01  5.3282925018045690e-01  5.1197379004747523e-01 
 4.9158082795941627e-01  4.7165275885937785e-01  4.5219202324305030e-01  4.3320103713138447e-01 
 4.1468212331070542e-01  3.9663744422883002e-01  3.7906893697407479e-01  3.6197825080042501e-01 
 3.4536668769375750e-01  3.2923514649757413e-01  3.1358407112911674e-01  2.9841340341508593e-01 
 2.8372254105817807e-01  2.6951030120978725e-01  2.5577489006997983e-01  2.4251387886390113e-01 
 2.2972418645584775e-01  2.1740206876119711e-01  2.0554311500589093e-01  1.9414225076753844e-01 
 1.8319374761603208e-01  1.7269123905943909e-01  1.6262774239710936e-01  1.5299568599007854e-01 
 1.4378694138191334e-01  1.3499285964311747e-01  1.2660431127027327e-01  1.1861172894744051e-01 
 1.1100515247146137e-01  1.0377427515349455e-01  9.6908491034631880e-02  9.0396942291743304e-02 
 8.4228566258478091e-02  7.8392141543246877e-02  7.2876332788693390e-02  6.7669733683402677e-02 
 6.2760907904334723e-02  5.8138427735872945e-02  5.3790910176813020e-02  4.9707050408711359e-02 
 4.5875652556605188e-02  4.2285657725275858e-02  3.8926169340246869e-02  3.5786475862065979e-02 
 3.2856070974819344e-02  3.0124671375143422e-02  2.7582232306325567e-02  2.5218960993678062e-02 
 2.3025328142685424e-02  2.0992077661072518e-02  1.9110234760678451e-02  1.7371112585721483e-02 
 1.5766317501653353e-02  1.4287753164315516e-02  1.2927623473500459e-02  1.1678434499215257e-02 
 1.0532995453768223e-02  9.4844187689533486e-03  8.5261193256369345e-03  7.6518128733324550e-03 
 6.8555136700927293e-03  6.1315313682970256e-03  5.4744671695664254e-03  4.8792092718850264e-03 
 4.3409276337252898e-03  3.8550680832007750e-03  3.4173458045922036e-03  3.0237382396025242e-03 
 2.6704774459982202e-03  2.3540419615286964e-03  2.0711482258726310e-03  1.8187416175850068e-03 
 1.5939871664180962e-03  1.3942600038300411e-03  1.2171356159001597e-03  1.0603799632164096e-03 
 9.2193953160833047e-04  7.9993137592637709e-04  6.9263321650346924e-04  5.9847364458539328e-04 
 5.1602248900670686e-04  4.4398139184852241e-04  3.8117463587659971e-04  3.2654026135219135e-04 
 2.7912150445712767e-04  2.3805858419214678e-04  2.0258085929526204e-04  1.7199937157392323e-04 
 1.4569978712603975e-04  1.2313574230204117e-04  1.0382259698100044e-04  8.7331593833542149e-05 
 7.3284418745995681e-05  6.1348154496386248e-05  5.1230617106121665e-05  4.2676062036003676e-05 
 3.5461245538809626e-05  2.9391825004642236e-05  2.4299081016466094e-05  2.0036943045175203e-05 
 1.6479300227184797e-05  1.3517578452431226e-05  1.1058565015643254e-05  9.0224623177094629e-06 
 7.3411525164500365e-06  5.9566555877984048e-06  4.8197639415442411e-06  3.8888375144743413e-06 
 3.1287441141321608e-06  2.5099306868767244e-06  2.0076121151238236e-06  1.6010650935712612e-06 
 1.2730155780958840e-06  1.0091092313134970e-06  7.9745519506157705e-07  6.2823439380768203e-07 
 4.9336440752763352e-07  3.8621374290959510e-07  3.0135907427754588e-07  2.3437971815316298e-07 
 1.8168424679084310e-07  1.4036473620274649e-07  1.0807468383256579e-07  8.2927121501409386e-08 
 6.3409892433959386e-08  4.8315459385338691e-08  3.6682966736092967e-08  2.7750595713314997e-08 
 2.0916531556275005e-08  1.5707107445692330e-08  1.1750905311888731e-08  8.7577811181105730e-09 
 6.5019446663590954e-09  4.8083640445298631e-09  3.5418850194060200e-09  2.5985583026623073e-09 
 1.8987548192636962e-09  1.3817228490166805e-09  1.0013029698116947e-09  7.2256870466184519e-10 
 5.1920409258982624e-10  3.7146533266435091e-10  2.6460330682066065e-10  1.8764814659323705e-10 
 1.3247691981629719e-10  9.3101708189105363e-11  6.5128453869063770e-11  4.5347508899264026e-11 
 3.1425279524682818e-11  2.1673100928217578e-11  1.4874826995938072e-11  1.0158841041875626e-11 
 6.9035075869023727e-12  4.6676737191175267e-12  3.1398395867784556e-12  2.1011717293308073e-12 
 1.3987276182824516e-12  9.2617316108833418e-13  6.0996962043337420e-13  3.9953202442375104e-13 
 2.6025040145013420e-13  1.6857615453003117e-13  1.0857601293549907e-13  6.9530015025689790e-14 
 4.4266857866254460e-14  2.8016884151663062e-14  1.7626339517164773e-14  1.1022282604720492e-14 
 6.8503628755327894e-15  4.2311000899238052e-15  2.5969005118502598e-15  1.5837395406659482e-15 
 9.5962668845054996e-16  5.7766251581023415e-16  3.4543162002021686e-16  2.0517680276884190e-16 
 1.2104153823494964e-16  7.0915612674654497e-17  4.1258294222713530e-17  2.3834326512725762e-17 
 1.3670248542711025e-17  7.7837884663748089e-18  4.3995207887637496e-18  2.4681842056009870e-18 
 1.3742482097913214e-18  7.5932069882412178e-19  4.1630750869130415e-19  2.2645826780673455e-19 
 1.2220882432762680e-19  6.5420301475896983e-20  3.4735460929937234e-20  1.8291078346427447e-20 
 9.5514089164764571e-21  4.9455684342092922e-21  2.5389273125586545e-21  1.2922507372831232e-21 
 6.5209283279693262e-22  3.2628510220974310e-22  1.6195171644281955e-22  7.9816815150481859e-23 
 3.9143558249123605e-23  0.0000000000000000e+00  0.0000000000000000e+00  0.0000000000000000e+00 
 0.0000000000000000e+00  0.0000000000000000e+00  0.0000000000000000e+00  0.0000000000000000e+00 
 0.0000000000000000e+00  0.0000000000000000e+00  0.0000000000000000e+00  0.0000000000000000e+00 
 0.0000000000000000e+00  0.0000000000000000e+00  0.0000000000000000e+00  0.0000000000000000e+00 
 0.0000000000000000e+00  0.0000000000000000e+00  0.0000000000000000e+00  0.0000000000000000e+00 
 0.0000000000000000e+00  0.0000000000000000e+00  0.0000000000000000e+00  0.0000000000000000e+00 
 0.0000000000000000e+00  0.0000000000000000e+00  0.0000000000000000e+00  0.0000000000000000e+00 
 0.0000000000000000e+00  0.0000000000000000e+00  0.0000000000000000e+00  0.0000000000000000e+00 
 0.0000000000000000e+00  0.0000000000000000e+00  0.0000000000000000e+00  0.0000000000000000e+00 
 0.0000000000000000e+00  0.0000000000000000e+00  0.0000000000000000e+00  0.0000000000000000e+00 
 0.0000000000000000e+00  0.0000000000000000e+00  0.0000000000000000e+00  0.0000000000000000e+00 
 0.0000000000000000e+00  0.0000000000000000e+00  0.0000000000000000e+00  0.0000000000000000e+00 
 0.0000000000000000e+00  0.0000000000000000e+00  0.0000000000000000e+00  0.0000000000000000e+00 
 0.0000000000000000e+00  0.0000000000000000e+00  0.0000000000000000e+00  0.0000000000000000e+00 
 0.0000000000000000e+00  0.0000000000000000e+00  0.0000000000000000e+00  0.0000000000000000e+00 
 0.0000000000000000e+00  0.0000000000000000e+00  0.0000000000000000e+00  0.0000000000000000e+00 
 0.0000000000000000e+00  0.0000000000000000e+00  0.0000000000000000e+00  0.0000000000000000e+00 
 0.0000000000000000e+00  0.0000000000000000e+00  0.0000000000000000e+00  0.0000000000000000e+00 
 0.0000000000000000e+00  0.0000000000000000e+00  0.0000000000000000e+00 
</PP_RHOATOM>
