Running Quantum Espresso 6.7


     Program PWSCF v.6.7MaX starts on  4Jan2026 at 22:59:27 

     This program is part of the open-source Quantum ESPRESSO suite
     for quantum simulation of materials; please cite
         "P. Giannozzi et al., J. Phys.:Condens. Matter 21 395502 (2009);
         "P. Giannozzi et al., J. Phys.:Condens. Matter 29 465901 (2017);
          URL http://www.quantum-espresso.org", 
     in publications or presentations arising from this work. More details at
     http://www.quantum-espresso.org/quote

     Parallel version (MPI & OpenMP), running on     120 processor cores
     Number of MPI processes:               120
     Threads/MPI process:                     1

     MPI processes distributed on     1 nodes
     K-points division:     npool     =      10
     R & G space division:  proc/nbgrp/npool/nimage =      12
     Waiting for input...
     Reading input from standard input
Warning: card &CELL ignored
Warning: card   CELL_DYNAMICS     = 'BFGS' ignored
Warning: card   PRESS_CONV_THR    = 0.5D0 ignored
Warning: card / ignored

     Current dimensions of program PWSCF are:
     Max number of different atomic species (ntypx) = 10
     Max number of k-points (npk) =  40000
     Max angular momentum in pseudopotentials (lmaxx) =  3
     Presently stress not available with electric field and gates

     Message from routine scan_end:
     No INFO block end statement, possibly corrupted file
     Message from routine scan_end:
     No INFO block end statement, possibly corrupted file

     IMPORTANT: XC functional enforced from input :
     Exchange-correlation= PBESOL
                           (   1   4  10   8   0   0   0)
     Any further DFT definition will be discarded
     Please, verify this is what you really want


     Subspace diagonalization in iterative solution of the eigenvalue problem:
     one sub-group per band group will be used
     scalapack distributed-memory algorithm (size of sub-group:  3*  3 procs)

     Message from routine setup:
     no reason to have ecutrho>4*ecutwfc
 
     Parallelization info
     --------------------
     sticks:   dense  smooth     PW     G-vecs:    dense   smooth      PW
     Min         237     118     34                66773    23594    3572
     Max         238     120     35                66800    23602    3579
     Sum        2851    1431    409               801463   283191   42907
 

     Title: 
     hfo2                                                                       


     bravais-lattice index     =            0
     lattice parameter (alat)  =       9.6571  a.u.
     unit-cell volume          =    5930.7170 (a.u.)^3
     number of atoms/cell      =           32
     number of atomic types    =            2
     number of electrons       =       264.00
     number of Kohn-Sham states=          158
     kinetic-energy cutoff     =      50.0000  Ry
     charge density cutoff     =     400.0000  Ry
     scf convergence threshold =      1.0E-07
     mixing beta               =       0.3000
     number of iterations used =            8  local-TF  mixing
     energy convergence thresh.=      1.0E-06
     force convergence thresh. =      1.0E-05
     Exchange-correlation= PBESOL
                           (   1   4  10   8   0   0   0)
     nstep                     =          300


     celldm(1)=   9.657120  celldm(2)=   0.000000  celldm(3)=   0.000000
     celldm(4)=   0.000000  celldm(5)=   0.000000  celldm(6)=   0.000000

     crystal axes: (cart. coord. in units of alat)
               a(1) = (   1.000000   0.000000   0.000000 )  
               a(2) = (   0.000000   0.961491   0.000000 )  
               a(3) = (   0.000000   0.000000   6.848876 )  

     reciprocal axes: (cart. coord. in units 2 pi/alat)
               b(1) = (  1.000000  0.000000  0.000000 )  
               b(2) = (  0.000000  1.040052  0.000000 )  
               b(3) = (  0.000000  0.000000  0.146009 )  


     PseudoPot. # 1 for Hf read from file:
     ./hf.upf
     MD5 check sum: 6e148b7243e2ebe265e1add78b9e9d1f
     Pseudo is Norm-conserving, Zval = 12.0
     Generated by new atomic code, or converted to UPF format
     Using radial grid of 1186 points,  3 beta functions with: 
                l(1) =   0
                l(2) =   1
                l(3) =   2

     PseudoPot. # 2 for O  read from file:
     ./o.upf
     MD5 check sum: 6afdad5913fe366ac5de9e6b2d735f4a
     Pseudo is Norm-conserving, Zval =  6.0
     Generated by new atomic code, or converted to UPF format
     Using radial grid of 1130 points,  1 beta functions with: 
                l(1) =   1

     atomic species   valence    mass     pseudopotential
        Hf            12.00   178.49000     Hf( 1.00)
        O              6.00    15.99940     O ( 1.00)

     No symmetry found


                                    s                        frac. trans.

      isym =  1     identity                                     

 cryst.   s( 1) = (     1          0          0      )
                  (     0          1          0      )
                  (     0          0          1      )

 cart.    s( 1) = (  1.0000000  0.0000000  0.0000000 )
                  (  0.0000000  1.0000000  0.0000000 )
                  (  0.0000000  0.0000000  1.0000000 )


   Cartesian axes

     site n.     atom                  positions (alat units)
         1           Hf  tau(   1) = (   0.7842235   0.7399451   1.2040302  )
         2           Hf  tau(   2) = (   0.7842235   0.7399451   2.1672450  )
         3           Hf  tau(   3) = (   0.7842235   0.7399451   3.1304597  )
         4           Hf  tau(   4) = (   0.2841847   0.2215480   1.2040279  )
         5           Hf  tau(   5) = (   0.2841847   0.2215480   2.1672426  )
         6           Hf  tau(   6) = (   0.2841847   0.2215480   3.1304574  )
         7           Hf  tau(   7) = (   0.7158050   0.2215535   1.6856126  )
         8           Hf  tau(   8) = (   0.7158050   0.2215535   2.6488274  )
         9           Hf  tau(   9) = (   0.7158050   0.2215535   3.6120421  )
        10           Hf  tau(  10) = (   0.2157889   0.7399347   1.6856271  )
        11           Hf  tau(  11) = (   0.2157889   0.7399347   2.6488417  )
        12           Hf  tau(  12) = (   0.2157889   0.7399347   3.6120564  )
        13           O   tau(  13) = (   0.6204684   0.4082464   1.3320954  )
        14           O   tau(  14) = (   0.6204684   0.4082464   2.2953099  )
        15           O   tau(  15) = (   0.6204684   0.4082464   3.2585247  )
        16           O   tau(  16) = (   0.1203901   0.5531334   1.3322803  )
        17           O   tau(  17) = (   0.1203901   0.5531334   2.2954951  )
        18           O   tau(  18) = (   0.1203901   0.5531334   3.2587098  )
        19           O   tau(  19) = (   0.9887994   0.0405952   1.4441234  )
        20           O   tau(  20) = (   0.9887994   0.0405952   2.4073382  )
        21           O   tau(  21) = (   0.9887994   0.0405952   3.3705529  )
        22           O   tau(  22) = (   0.3796168   0.4083067   1.8139144  )
        23           O   tau(  23) = (   0.3796168   0.4083067   2.7771289  )
        24           O   tau(  24) = (   0.8796408   0.5531426   1.8138361  )
        25           O   tau(  25) = (   0.8796408   0.5531426   2.7770509  )
        26           O   tau(  26) = (   0.4887886  -0.0406127   1.4441043  )
        27           O   tau(  27) = (   0.5112017  -0.0407244   1.9257246  )
        28           O   tau(  28) = (   0.4887886  -0.0406127   2.4073190  )
        29           O   tau(  29) = (   0.5112017  -0.0407244   2.8889394  )
        30           O   tau(  30) = (   0.4887886  -0.0406127   3.3705337  )
        31           O   tau(  31) = (   1.0111960   0.0406209   1.9257141  )
        32           O   tau(  32) = (   1.0111960   0.0406209   2.8889286  )

   Crystallographic axes

     site n.     atom                  positions (cryst. coord.)
         1           Hf  tau(   1) = (  0.7842235  0.7695812  0.1757997  )
         2           Hf  tau(   2) = (  0.7842235  0.7695812  0.3164381  )
         3           Hf  tau(   3) = (  0.7842235  0.7695812  0.4570764  )
         4           Hf  tau(   4) = (  0.2841847  0.2304214  0.1757993  )
         5           Hf  tau(   5) = (  0.2841847  0.2304214  0.3164377  )
         6           Hf  tau(   6) = (  0.2841847  0.2304214  0.4570761  )
         7           Hf  tau(   7) = (  0.7158050  0.2304271  0.2461152  )
         8           Hf  tau(   8) = (  0.7158050  0.2304271  0.3867536  )
         9           Hf  tau(   9) = (  0.7158050  0.2304271  0.5273920  )
        10           Hf  tau(  10) = (  0.2157889  0.7695704  0.2461173  )
        11           Hf  tau(  11) = (  0.2157889  0.7695704  0.3867557  )
        12           Hf  tau(  12) = (  0.2157889  0.7695704  0.5273941  )
        13           O   tau(  13) = (  0.6204684  0.4245974  0.1944984  )
        14           O   tau(  14) = (  0.6204684  0.4245974  0.3351367  )
        15           O   tau(  15) = (  0.6204684  0.4245974  0.4757751  )
        16           O   tau(  16) = (  0.1203901  0.5752874  0.1945254  )
        17           O   tau(  17) = (  0.1203901  0.5752874  0.3351638  )
        18           O   tau(  18) = (  0.1203901  0.5752874  0.4758021  )
        19           O   tau(  19) = (  0.9887994  0.0422212  0.2108555  )
        20           O   tau(  20) = (  0.9887994  0.0422212  0.3514939  )
        21           O   tau(  21) = (  0.9887994  0.0422212  0.4921323  )
        22           O   tau(  22) = (  0.3796168  0.4246601  0.2648485  )
        23           O   tau(  23) = (  0.3796168  0.4246601  0.4054868  )
        24           O   tau(  24) = (  0.8796408  0.5752969  0.2648371  )
        25           O   tau(  25) = (  0.8796408  0.5752969  0.4054754  )
        26           O   tau(  26) = (  0.4887886 -0.0422393  0.2108527  )
        27           O   tau(  27) = (  0.5112017 -0.0423555  0.2811738  )
        28           O   tau(  28) = (  0.4887886 -0.0422393  0.3514911  )
        29           O   tau(  29) = (  0.5112017 -0.0423555  0.4218122  )
        30           O   tau(  30) = (  0.4887886 -0.0422393  0.4921295  )
        31           O   tau(  31) = (  1.0111960  0.0422478  0.2811723  )
        32           O   tau(  32) = (  1.0111960  0.0422478  0.4218106  )

     number of k points=    10  Fermi-Dirac smearing, width (Ry)=  0.0100
                       cart. coord. in units 2pi/alat
        k(    1) = (   0.0000000   0.0000000   0.0000000), wk =   0.1250000
        k(    2) = (   0.0000000   0.2600129   0.0000000), wk =   0.2500000
        k(    3) = (   0.0000000  -0.5200259   0.0000000), wk =   0.1250000
        k(    4) = (   0.2500000   0.0000000   0.0000000), wk =   0.2500000
        k(    5) = (   0.2500000   0.2600129   0.0000000), wk =   0.2500000
        k(    6) = (   0.2500000  -0.5200259   0.0000000), wk =   0.2500000
        k(    7) = (   0.2500000  -0.2600129   0.0000000), wk =   0.2500000
        k(    8) = (  -0.5000000   0.0000000   0.0000000), wk =   0.1250000
        k(    9) = (  -0.5000000   0.2600129   0.0000000), wk =   0.2500000
        k(   10) = (  -0.5000000  -0.5200259   0.0000000), wk =   0.1250000

                       cryst. coord.
        k(    1) = (   0.0000000   0.0000000   0.0000000), wk =   0.1250000
        k(    2) = (   0.0000000   0.2500000   0.0000000), wk =   0.2500000
        k(    3) = (   0.0000000  -0.5000000   0.0000000), wk =   0.1250000
        k(    4) = (   0.2500000   0.0000000   0.0000000), wk =   0.2500000
        k(    5) = (   0.2500000   0.2500000   0.0000000), wk =   0.2500000
        k(    6) = (   0.2500000  -0.5000000   0.0000000), wk =   0.2500000
        k(    7) = (   0.2500000  -0.2500000   0.0000000), wk =   0.2500000
        k(    8) = (  -0.5000000   0.0000000   0.0000000), wk =   0.1250000
        k(    9) = (  -0.5000000   0.2500000   0.0000000), wk =   0.2500000
        k(   10) = (  -0.5000000  -0.5000000   0.0000000), wk =   0.1250000

     Dense  grid:   801463 G-vectors     FFT dimensions: (  64,  60, 432)

     Smooth grid:   283191 G-vectors     FFT dimensions: (  45,  45, 300)

     Dynamical RAM for                 wfc:       7.11 MB

     Dynamical RAM for     wfc (w. buffer):       7.11 MB

     Dynamical RAM for           str. fact:       2.04 MB

     Dynamical RAM for           local pot:       0.00 MB

     Dynamical RAM for          nlocal pot:       7.56 MB

     Dynamical RAM for                qrad:       0.92 MB

     Dynamical RAM for          rho,v,vnew:       6.22 MB

     Dynamical RAM for               rhoin:       2.07 MB

     Dynamical RAM for            rho*nmix:      16.31 MB

     Dynamical RAM for           G-vectors:       4.00 MB

     Dynamical RAM for          h,s,v(r/c):       0.50 MB

     Dynamical RAM for          <psi|beta>:       0.41 MB

     Dynamical RAM for                 psi:      14.22 MB

     Dynamical RAM for                hpsi:      14.22 MB

     Dynamical RAM for      wfcinit/wfcrot:      14.80 MB

     Estimated static dynamical RAM per process >      54.57 MB

     Estimated max dynamical RAM per process >      83.93 MB

     Estimated total dynamical RAM >       9.84 GB

     Atomic positions and unit cell read from directory:
     ./hfo2.save/
 

     The initial density is read from file :
     ./hfo2.save/charge-density

 
     Adding external electric field

     Computed dipole along edir(3) : 
        Elec. dipole         -2.8558 Ry au,         -7.2587 Debye
        Ion. dipole          -2.8549 Ry au,         -7.2564 Debye
        Dipole                0.4315 Ry au,          1.0969 Debye
        Dipole field          0.0009 Ry au, 
 
        E field amplitude [Ha a.u.]:  1.0000E-03
        Potential amp.        0.0108 Ry
        Total length         62.8334 bohr
 
     Starting wfcs from file

     total cpu time spent up to now is        9.5 secs

     Self-consistent Calculation

     iteration #  1     ecut=    50.00 Ry     beta= 0.30
     Davidson diagonalization with overlap
     ethr =  1.00E-05,  avg # of iterations =  3.0

     negative rho (up, down):  1.374E-05 0.000E+00
 
     Adding external electric field

     Computed dipole along edir(3) : 
        Elec. dipole         -2.8558 Ry au,         -7.2587 Debye
        Ion. dipole          -2.8549 Ry au,         -7.2564 Debye
        Dipole                0.4347 Ry au,          1.1048 Debye
        Dipole field          0.0009 Ry au, 
 
        E field amplitude [Ha a.u.]:  1.0000E-03
        Potential amp.        0.0099 Ry
        Total length         62.8334 bohr
 

     total cpu time spent up to now is       18.0 secs

     total energy              =   -1821.50457908 Ry
     estimated scf accuracy    <       0.03938467 Ry

     iteration #  2     ecut=    50.00 Ry     beta= 0.30
     Davidson diagonalization with overlap
     ethr =  1.49E-05,  avg # of iterations =  1.0

     negative rho (up, down):  3.454E-05 0.000E+00
 
     Adding external electric field

     Computed dipole along edir(3) : 
        Elec. dipole         -2.8558 Ry au,         -7.2587 Debye
        Ion. dipole          -2.8549 Ry au,         -7.2564 Debye
        Dipole                0.4379 Ry au,          1.1131 Debye
        Dipole field          0.0009 Ry au, 
 
        E field amplitude [Ha a.u.]:  1.0000E-03
        Potential amp.        0.0091 Ry
        Total length         62.8334 bohr
 

     total cpu time spent up to now is       36.0 secs

     total energy              =   -1821.50463114 Ry
     estimated scf accuracy    <       0.00439254 Ry

     iteration #  3     ecut=    50.00 Ry     beta= 0.30
     Davidson diagonalization with overlap
     ethr =  1.66E-06,  avg # of iterations =  1.2

     negative rho (up, down):  5.010E-05 0.000E+00
 
     Adding external electric field

     Computed dipole along edir(3) : 
        Elec. dipole         -2.8558 Ry au,         -7.2588 Debye
        Ion. dipole          -2.8549 Ry au,         -7.2564 Debye
        Dipole                0.4443 Ry au,          1.1292 Debye
        Dipole field          0.0009 Ry au, 
 
        E field amplitude [Ha a.u.]:  1.0000E-03
        Potential amp.        0.0074 Ry
        Total length         62.8334 bohr
 

     total cpu time spent up to now is       45.0 secs

     total energy              =   -1821.50464548 Ry
     estimated scf accuracy    <       0.00003545 Ry

     iteration #  4     ecut=    50.00 Ry     beta= 0.30
     Davidson diagonalization with overlap
     ethr =  1.34E-08,  avg # of iterations =  2.2

     negative rho (up, down):  3.701E-05 0.000E+00
 
     Adding external electric field

     Computed dipole along edir(3) : 
        Elec. dipole         -2.8558 Ry au,         -7.2588 Debye
        Ion. dipole          -2.8549 Ry au,         -7.2564 Debye
        Dipole                0.4465 Ry au,          1.1349 Debye
        Dipole field          0.0009 Ry au, 
 
        E field amplitude [Ha a.u.]:  1.0000E-03
        Potential amp.        0.0068 Ry
        Total length         62.8334 bohr
 

     total cpu time spent up to now is       50.7 secs

     total energy              =   -1821.50464848 Ry
     estimated scf accuracy    <       0.00000516 Ry

     iteration #  5     ecut=    50.00 Ry     beta= 0.30
     Davidson diagonalization with overlap
     ethr =  1.96E-09,  avg # of iterations =  2.0

     negative rho (up, down):  1.593E-05 0.000E+00
 
     Adding external electric field

     Computed dipole along edir(3) : 
        Elec. dipole         -2.8558 Ry au,         -7.2588 Debye
        Ion. dipole          -2.8549 Ry au,         -7.2564 Debye
        Dipole                0.4488 Ry au,          1.1406 Debye
        Dipole field          0.0010 Ry au, 
 
        E field amplitude [Ha a.u.]:  1.0000E-03
        Potential amp.        0.0062 Ry
        Total length         62.8334 bohr
 

     total cpu time spent up to now is       58.4 secs

     total energy              =   -1821.50464811 Ry
     estimated scf accuracy    <       0.00008913 Ry

     iteration #  6     ecut=    50.00 Ry     beta= 0.30
     Davidson diagonalization with overlap
     ethr =  1.96E-09,  avg # of iterations =  2.0

     negative rho (up, down):  8.616E-06 0.000E+00
 
     Adding external electric field

     Computed dipole along edir(3) : 
        Elec. dipole         -2.8558 Ry au,         -7.2588 Debye
        Ion. dipole          -2.8549 Ry au,         -7.2564 Debye
        Dipole                0.4490 Ry au,          1.1413 Debye
        Dipole field          0.0010 Ry au, 
 
        E field amplitude [Ha a.u.]:  1.0000E-03
        Potential amp.        0.0061 Ry
        Total length         62.8334 bohr
 

     total cpu time spent up to now is       70.5 secs

     total energy              =   -1821.50464848 Ry
     estimated scf accuracy    <       0.00001145 Ry

     iteration #  7     ecut=    50.00 Ry     beta= 0.30
     Davidson diagonalization with overlap
     ethr =  1.96E-09,  avg # of iterations =  1.0
 
     Adding external electric field

     Computed dipole along edir(3) : 
        Elec. dipole         -2.8558 Ry au,         -7.2588 Debye
        Ion. dipole          -2.8549 Ry au,         -7.2564 Debye
        Dipole                0.4498 Ry au,          1.1432 Debye
        Dipole field          0.0010 Ry au, 
 
        E field amplitude [Ha a.u.]:  1.0000E-03
        Potential amp.        0.0059 Ry
        Total length         62.8334 bohr
 

     total cpu time spent up to now is       74.0 secs

     total energy              =   -1821.50464838 Ry
     estimated scf accuracy    <       0.00001160 Ry

     iteration #  8     ecut=    50.00 Ry     beta= 0.30
     Davidson diagonalization with overlap
     ethr =  1.96E-09,  avg # of iterations =  1.3
 
     Adding external electric field

     Computed dipole along edir(3) : 
        Elec. dipole         -2.8558 Ry au,         -7.2588 Debye
        Ion. dipole          -2.8549 Ry au,         -7.2564 Debye
        Dipole                0.4499 Ry au,          1.1436 Debye
        Dipole field          0.0010 Ry au, 
 
        E field amplitude [Ha a.u.]:  1.0000E-03
        Potential amp.        0.0059 Ry
        Total length         62.8334 bohr
 

     total cpu time spent up to now is       77.5 secs

     total energy              =   -1821.50464845 Ry
     estimated scf accuracy    <       0.00000019 Ry

     iteration #  9     ecut=    50.00 Ry     beta= 0.30
     Davidson diagonalization with overlap
     c_bands:  1 eigenvalues not converged
     ethr =  7.08E-11,  avg # of iterations =  7.0
 
     Adding external electric field

     Computed dipole along edir(3) : 
        Elec. dipole         -2.8558 Ry au,         -7.2588 Debye
        Ion. dipole          -2.8549 Ry au,         -7.2564 Debye
        Dipole                0.4497 Ry au,          1.1430 Debye
        Dipole field          0.0010 Ry au, 
 
        E field amplitude [Ha a.u.]:  1.0000E-03
        Potential amp.        0.0059 Ry
        Total length         62.8334 bohr
 

     total cpu time spent up to now is       82.6 secs

     total energy              =   -1821.50464844 Ry
     estimated scf accuracy    <       0.00000011 Ry

     iteration # 10     ecut=    50.00 Ry     beta= 0.30
     Davidson diagonalization with overlap
     ethr =  4.21E-11,  avg # of iterations =  2.1
 
     Adding external electric field

     Computed dipole along edir(3) : 
        Elec. dipole         -2.8558 Ry au,         -7.2588 Debye
        Ion. dipole          -2.8549 Ry au,         -7.2564 Debye
        Dipole                0.4519 Ry au,          1.1486 Debye
        Dipole field          0.0010 Ry au, 
 
        E field amplitude [Ha a.u.]:  1.0000E-03
        Potential amp.        0.0053 Ry
        Total length         62.8334 bohr
 

     total cpu time spent up to now is       84.8 secs

     End of self-consistent calculation

          k = 0.0000 0.0000 0.0000 ( 35385 PWs)   bands (ev):

   -59.3937 -59.3803 -59.1357 -59.1255 -59.1244 -59.1101 -58.9432 -58.9279
   -58.7984 -58.7833 -58.6029 -58.5881 -29.2333 -29.1727 -29.0753 -28.9957
   -28.9484 -28.9065 -28.8772 -28.8378 -28.8286 -28.7996 -28.7830 -28.7542
   -28.7312 -28.7104 -28.7071 -28.6541 -28.6401 -28.6304 -28.6193 -28.5983
   -28.5515 -28.5336 -28.4770 -28.4752 -28.4274 -28.4260 -28.4026 -28.3997
   -28.3476 -28.3420 -28.3189 -28.2775 -28.1770 -28.1754 -28.1285 -28.1041
   -17.9489 -17.5244 -17.0109 -16.7851 -16.4696 -16.4670 -16.3059 -16.1991
   -16.1118 -16.0775 -16.0200 -15.8628 -15.6605 -15.5178 -15.4980 -15.3912
   -15.3524 -15.2552 -15.2145 -15.1455  -5.5667  -5.5490  -5.3617  -5.3276
    -5.1481  -5.0672  -4.7704  -4.7444  -4.5192  -4.5007  -4.3635  -4.2867
    -4.2192  -4.0163  -3.8969  -3.7494  -3.7320  -3.5478  -3.5083  -3.4185
    -3.2194  -3.1599  -2.9643  -2.9041  -2.8648  -2.7386  -2.7003  -2.6186
    -2.5347  -2.4094  -2.2389  -2.1072  -2.0982  -2.0873  -1.9630  -1.9081
    -1.8096  -1.8075  -1.7970  -1.7095  -1.6848  -1.3948  -1.3154  -1.3112
    -1.2336  -0.9851  -0.9631  -0.9372  -0.8893  -0.7221  -0.6504  -0.6116
    -0.3272  -0.2969  -0.0638  -0.0115   0.0281   0.1254   0.1922   0.2985
     2.0353   2.7965   3.5017   3.9858   4.2305   4.2909   4.3598   4.6846
     4.9111   5.0367   5.0541   5.3546   5.4757   5.7134   5.8880   5.8887
     6.0729   6.1390   6.2073   6.2869   6.3235   6.3411   6.5312   6.5336
     6.6045   6.7597   6.7811   6.8384   6.9094   6.9604

     occupation numbers 
     1.0000   1.0000   1.0000   1.0000   1.0000   1.0000   1.0000   1.0000
     1.0000   1.0000   1.0000   1.0000   1.0000   1.0000   1.0000   1.0000
     1.0000   1.0000   1.0000   1.0000   1.0000   1.0000   1.0000   1.0000
     1.0000   1.0000   1.0000   1.0000   1.0000   1.0000   1.0000   1.0000
     1.0000   1.0000   1.0000   1.0000   1.0000   1.0000   1.0000   1.0000
     1.0000   1.0000   1.0000   1.0000   1.0000   1.0000   1.0000   1.0000
     1.0000   1.0000   1.0000   1.0000   1.0000   1.0000   1.0000   1.0000
     1.0000   1.0000   1.0000   1.0000   1.0000   1.0000   1.0000   1.0000
     1.0000   1.0000   1.0000   1.0000   1.0000   1.0000   1.0000   1.0000
     1.0000   1.0000   1.0000   1.0000   1.0000   1.0000   1.0000   1.0000
     1.0000   1.0000   1.0000   1.0000   1.0000   1.0000   1.0000   1.0000
     1.0000   1.0000   1.0000   1.0000   1.0000   1.0000   1.0000   1.0000
     1.0000   1.0000   1.0000   1.0000   1.0000   1.0000   1.0000   1.0000
     1.0000   1.0000   1.0000   1.0000   1.0000   1.0000   1.0000   1.0000
     1.0000   1.0000   1.0000   1.0000   1.0000   1.0000   1.0000   1.0000
     1.0000   1.0000   1.0000   1.0000   1.0000   1.0000   1.0000   1.0000
     1.0000   0.9998   0.9713   0.4906   0.1375   0.0928   0.0581   0.0056
     0.0011   0.0004   0.0004   0.0000   0.0000   0.0000   0.0000   0.0000
     0.0000   0.0000   0.0000   0.0000   0.0000   0.0000   0.0000   0.0000
     0.0000   0.0000   0.0000   0.0000   0.0000   0.0000

          k = 0.0000 0.2600 0.0000 ( 35369 PWs)   bands (ev):

   -59.3920 -59.3819 -59.1347 -59.1254 -59.1238 -59.1118 -58.9414 -58.9296
   -58.7967 -58.7850 -58.6012 -58.5898 -29.2176 -29.1216 -29.0517 -28.9978
   -28.9265 -28.8903 -28.8748 -28.8343 -28.8302 -28.8265 -28.7701 -28.7600
   -28.7372 -28.7107 -28.7027 -28.6556 -28.6443 -28.6360 -28.6277 -28.5857
   -28.5437 -28.5340 -28.5219 -28.4778 -28.4628 -28.4323 -28.4183 -28.3947
   -28.3516 -28.3368 -28.3285 -28.2942 -28.1783 -28.1671 -28.1550 -28.1341
   -17.6897 -17.3128 -16.8996 -16.7247 -16.4544 -16.3981 -16.2354 -16.1491
   -16.1100 -16.0816 -16.0554 -15.8783 -15.7320 -15.6697 -15.5669 -15.5309
   -15.4722 -15.3339 -15.3132 -15.2182  -5.5190  -5.3681  -5.1899  -5.0788
    -5.0117  -4.8284  -4.7111  -4.6378  -4.6089  -4.4348  -4.3917  -4.2569
    -4.0419  -3.9955  -3.7947  -3.7572  -3.6592  -3.5715  -3.4564  -3.4303
    -3.3664  -3.3379  -3.1016  -3.0136  -2.9141  -2.8065  -2.7293  -2.6189
    -2.5331  -2.4491  -2.3949  -2.2837  -2.2581  -2.1216  -2.0340  -1.9805
    -1.7812  -1.6582  -1.6512  -1.5479  -1.4451  -1.3396  -1.3257  -1.2604
    -1.2085  -1.0440  -0.9693  -0.9030  -0.8319  -0.8194  -0.7634  -0.6660
    -0.5642  -0.4370  -0.3366  -0.3193  -0.0428  -0.0350   0.1293   0.2350
     2.3848   3.1605   3.4916   4.0817   4.1026   4.2423   4.5735   4.7518
     4.7810   4.9758   5.0250   5.1740   5.2972   5.5244   5.5856   5.6719
     5.7311   5.7764   5.9580   6.0181   6.0999   6.3122   6.4389   6.5989
     6.6195   6.8403   6.8519   6.8968   6.9444   7.0449

     occupation numbers 
     1.0000   1.0000   1.0000   1.0000   1.0000   1.0000   1.0000   1.0000
     1.0000   1.0000   1.0000   1.0000   1.0000   1.0000   1.0000   1.0000
     1.0000   1.0000   1.0000   1.0000   1.0000   1.0000   1.0000   1.0000
     1.0000   1.0000   1.0000   1.0000   1.0000   1.0000   1.0000   1.0000
     1.0000   1.0000   1.0000   1.0000   1.0000   1.0000   1.0000   1.0000
     1.0000   1.0000   1.0000   1.0000   1.0000   1.0000   1.0000   1.0000
     1.0000   1.0000   1.0000   1.0000   1.0000   1.0000   1.0000   1.0000
     1.0000   1.0000   1.0000   1.0000   1.0000   1.0000   1.0000   1.0000
     1.0000   1.0000   1.0000   1.0000   1.0000   1.0000   1.0000   1.0000
     1.0000   1.0000   1.0000   1.0000   1.0000   1.0000   1.0000   1.0000
     1.0000   1.0000   1.0000   1.0000   1.0000   1.0000   1.0000   1.0000
     1.0000   1.0000   1.0000   1.0000   1.0000   1.0000   1.0000   1.0000
     1.0000   1.0000   1.0000   1.0000   1.0000   1.0000   1.0000   1.0000
     1.0000   1.0000   1.0000   1.0000   1.0000   1.0000   1.0000   1.0000
     1.0000   1.0000   1.0000   1.0000   1.0000   1.0000   1.0000   1.0000
     1.0000   1.0000   1.0000   1.0000   1.0000   1.0000   1.0000   1.0000
     1.0000   0.9976   0.9733   0.3225   0.2899   0.1276   0.0126   0.0034
     0.0028   0.0007   0.0005   0.0002   0.0001   0.0000   0.0000   0.0000
     0.0000   0.0000   0.0000   0.0000   0.0000   0.0000   0.0000   0.0000
     0.0000   0.0000   0.0000   0.0000   0.0000   0.0000

          k = 0.0000-0.5200 0.0000 ( 35392 PWs)   bands (ev):

   -59.3894 -59.3844 -59.1333 -59.1267 -59.1213 -59.1142 -58.9389 -58.9321
   -58.7943 -58.7875 -58.5988 -58.5923 -29.1992 -29.0518 -29.0181 -28.9998
   -28.9115 -28.9071 -28.8793 -28.8280 -28.8253 -28.8184 -28.8020 -28.7444
   -28.7404 -28.7154 -28.6929 -28.6825 -28.6467 -28.6197 -28.6112 -28.5885
   -28.5638 -28.5386 -28.5162 -28.5029 -28.4768 -28.4558 -28.4393 -28.4066
   -28.3805 -28.3652 -28.2872 -28.2520 -28.2310 -28.2020 -28.1547 -28.1421
   -17.3195 -16.9984 -16.7480 -16.6624 -16.4330 -16.3280 -16.3071 -16.1582
   -16.1119 -16.0904 -16.0658 -16.0143 -15.9169 -15.7636 -15.7580 -15.5435
   -15.5402 -15.4041 -15.3870 -15.2789  -5.3207  -5.2331  -5.0860  -4.8806
    -4.7148  -4.6495  -4.5805  -4.5616  -4.3613  -4.3466  -4.3227  -4.2411
    -4.1422  -4.0511  -3.9714  -3.9384  -3.8405  -3.6643  -3.6557  -3.3678
    -3.2785  -3.2382  -3.1993  -2.9790  -2.9447  -2.8485  -2.7378  -2.6857
    -2.5219  -2.4527  -2.3667  -2.3201  -2.0963  -1.9941  -1.9697  -1.9286
    -1.7259  -1.6694  -1.6244  -1.5686  -1.4390  -1.4306  -1.3714  -1.2842
    -1.2611  -1.2373  -1.1640  -1.1198  -1.0358  -0.9392  -0.8388  -0.6749
    -0.6389  -0.5086  -0.3804  -0.3630  -0.2145  -0.0724   0.0677   0.2293
     2.9979   3.1573   3.6620   4.0016   4.2300   4.3823   4.3889   4.4498
     4.8500   4.9351   5.0563   5.1182   5.1807   5.1882   5.2790   5.3628
     5.4425   5.5636   5.7034   5.9029   6.0466   6.2008   6.3482   6.4517
     6.5729   6.8273   6.8835   6.9839   7.0121   7.1157

     occupation numbers 
     1.0000   1.0000   1.0000   1.0000   1.0000   1.0000   1.0000   1.0000
     1.0000   1.0000   1.0000   1.0000   1.0000   1.0000   1.0000   1.0000
     1.0000   1.0000   1.0000   1.0000   1.0000   1.0000   1.0000   1.0000
     1.0000   1.0000   1.0000   1.0000   1.0000   1.0000   1.0000   1.0000
     1.0000   1.0000   1.0000   1.0000   1.0000   1.0000   1.0000   1.0000
     1.0000   1.0000   1.0000   1.0000   1.0000   1.0000   1.0000   1.0000
     1.0000   1.0000   1.0000   1.0000   1.0000   1.0000   1.0000   1.0000
     1.0000   1.0000   1.0000   1.0000   1.0000   1.0000   1.0000   1.0000
     1.0000   1.0000   1.0000   1.0000   1.0000   1.0000   1.0000   1.0000
     1.0000   1.0000   1.0000   1.0000   1.0000   1.0000   1.0000   1.0000
     1.0000   1.0000   1.0000   1.0000   1.0000   1.0000   1.0000   1.0000
     1.0000   1.0000   1.0000   1.0000   1.0000   1.0000   1.0000   1.0000
     1.0000   1.0000   1.0000   1.0000   1.0000   1.0000   1.0000   1.0000
     1.0000   1.0000   1.0000   1.0000   1.0000   1.0000   1.0000   1.0000
     1.0000   1.0000   1.0000   1.0000   1.0000   1.0000   1.0000   1.0000
     1.0000   1.0000   1.0000   1.0000   1.0000   1.0000   1.0000   1.0000
     0.9993   0.9977   0.9123   0.4616   0.1379   0.0496   0.0474   0.0308
     0.0017   0.0009   0.0004   0.0002   0.0001   0.0001   0.0001   0.0000
     0.0000   0.0000   0.0000   0.0000   0.0000   0.0000   0.0000   0.0000
     0.0000   0.0000   0.0000   0.0000   0.0000   0.0000

          k = 0.2500 0.0000 0.0000 ( 35470 PWs)   bands (ev):

   -59.3917 -59.3822 -59.1340 -59.1260 -59.1232 -59.1123 -58.9409 -58.9301
   -58.7962 -58.7855 -58.6007 -58.5903 -29.1965 -29.1422 -29.0465 -28.9853
   -28.9235 -28.9117 -28.8732 -28.8217 -28.8193 -28.8073 -28.7776 -28.7648
   -28.7461 -28.7102 -28.7078 -28.6810 -28.6352 -28.6319 -28.6080 -28.5946
   -28.5477 -28.5345 -28.5139 -28.4915 -28.4507 -28.4367 -28.4163 -28.3961
   -28.3604 -28.3342 -28.3172 -28.2975 -28.1764 -28.1702 -28.1584 -28.1351
   -17.6804 -17.3014 -16.8809 -16.7861 -16.4724 -16.4241 -16.3099 -16.2217
   -16.0875 -16.0821 -15.9757 -15.9178 -15.6750 -15.6547 -15.5214 -15.5121
   -15.4494 -15.4031 -15.2654 -15.2617  -5.3189  -5.1892  -5.0681  -4.9992
    -4.8905  -4.7635  -4.6720  -4.6334  -4.4359  -4.4225  -4.2673  -4.1893
    -4.1468  -4.0966  -4.0281  -3.8139  -3.8083  -3.6276  -3.4903  -3.4575
    -3.3658  -3.2965  -3.1417  -3.1108  -2.9084  -2.8679  -2.6800  -2.6067
    -2.4911  -2.4080  -2.3755  -2.3051  -2.1894  -2.0018  -1.9944  -1.9361
    -1.8784  -1.7977  -1.7372  -1.6741  -1.6406  -1.5699  -1.4666  -1.3391
    -1.2757  -1.2258  -1.1059  -0.9949  -0.8561  -0.7474  -0.7166  -0.5924
    -0.5416  -0.3646  -0.3136  -0.2619  -0.1665  -0.1125   0.0073   0.0134
     2.3343   3.1363   3.4141   4.0957   4.1964   4.4983   4.5575   4.7315
     4.8242   4.8976   5.0429   5.4247   5.5806   5.7328   5.7916   5.8065
     5.8615   6.0302   6.0662   6.1893   6.2523   6.4115   6.4991   6.5470
     6.5926   6.6644   6.7644   6.7919   6.9393   7.0213

     occupation numbers 
     1.0000   1.0000   1.0000   1.0000   1.0000   1.0000   1.0000   1.0000
     1.0000   1.0000   1.0000   1.0000   1.0000   1.0000   1.0000   1.0000
     1.0000   1.0000   1.0000   1.0000   1.0000   1.0000   1.0000   1.0000
     1.0000   1.0000   1.0000   1.0000   1.0000   1.0000   1.0000   1.0000
     1.0000   1.0000   1.0000   1.0000   1.0000   1.0000   1.0000   1.0000
     1.0000   1.0000   1.0000   1.0000   1.0000   1.0000   1.0000   1.0000
     1.0000   1.0000   1.0000   1.0000   1.0000   1.0000   1.0000   1.0000
     1.0000   1.0000   1.0000   1.0000   1.0000   1.0000   1.0000   1.0000
     1.0000   1.0000   1.0000   1.0000   1.0000   1.0000   1.0000   1.0000
     1.0000   1.0000   1.0000   1.0000   1.0000   1.0000   1.0000   1.0000
     1.0000   1.0000   1.0000   1.0000   1.0000   1.0000   1.0000   1.0000
     1.0000   1.0000   1.0000   1.0000   1.0000   1.0000   1.0000   1.0000
     1.0000   1.0000   1.0000   1.0000   1.0000   1.0000   1.0000   1.0000
     1.0000   1.0000   1.0000   1.0000   1.0000   1.0000   1.0000   1.0000
     1.0000   1.0000   1.0000   1.0000   1.0000   1.0000   1.0000   1.0000
     1.0000   1.0000   1.0000   1.0000   1.0000   1.0000   1.0000   1.0000
     1.0000   0.9980   0.9847   0.3004   0.1701   0.0218   0.0142   0.0040
     0.0020   0.0012   0.0004   0.0000   0.0000   0.0000   0.0000   0.0000
     0.0000   0.0000   0.0000   0.0000   0.0000   0.0000   0.0000   0.0000
     0.0000   0.0000   0.0000   0.0000   0.0000   0.0000

          k = 0.2500 0.2600 0.0000 ( 35420 PWs)   bands (ev):

   -59.3905 -59.3834 -59.1333 -59.1268 -59.1220 -59.1135 -58.9397 -58.9313
   -58.7950 -58.7867 -58.5996 -58.5915 -29.2112 -29.1485 -29.0559 -28.9962
   -28.9352 -28.8972 -28.8736 -28.8372 -28.8276 -28.8123 -28.7687 -28.7652
   -28.7562 -28.7273 -28.7094 -28.6677 -28.6382 -28.6179 -28.6059 -28.5824
   -28.5648 -28.5328 -28.5230 -28.4799 -28.4471 -28.4335 -28.4103 -28.4010
   -28.3830 -28.3153 -28.2946 -28.2661 -28.2238 -28.1664 -28.1565 -28.1122
   -17.5011 -17.1685 -16.8535 -16.7991 -16.5144 -16.4540 -16.3261 -16.2507
   -16.1223 -16.0829 -16.0328 -15.8699 -15.7457 -15.6445 -15.5854 -15.5311
   -15.4679 -15.4073 -15.2808 -15.2283  -5.2916  -5.1516  -4.9022  -4.8595
    -4.7855  -4.7245  -4.5893  -4.4962  -4.4430  -4.3799  -4.2794  -4.1837
    -4.0805  -4.0195  -3.9302  -3.7301  -3.6054  -3.4896  -3.4393  -3.3930
    -3.3385  -3.2736  -3.2487  -3.1240  -3.0412  -2.9498  -2.8481  -2.6265
    -2.4984  -2.4588  -2.3498  -2.2773  -2.2292  -2.1128  -1.9965  -1.9082
    -1.8829  -1.8189  -1.7195  -1.6761  -1.5666  -1.5373  -1.4805  -1.3663
    -1.2854  -1.2434  -1.1233  -1.0793  -0.9960  -0.8136  -0.7523  -0.6812
    -0.5879  -0.5658  -0.4688  -0.3664  -0.2486  -0.2033  -0.0817   0.0349
     2.6252   3.3552   3.5064   3.9428   4.0640   4.2941   4.4656   4.7385
     4.7892   5.0395   5.0923   5.1233   5.3656   5.3907   5.5141   5.6796
     5.7579   5.7712   5.8501   5.9542   6.0967   6.2354   6.4063   6.5229
     6.6079   6.6570   6.7621   6.8750   6.9255   7.0422

     occupation numbers 
     1.0000   1.0000   1.0000   1.0000   1.0000   1.0000   1.0000   1.0000
     1.0000   1.0000   1.0000   1.0000   1.0000   1.0000   1.0000   1.0000
     1.0000   1.0000   1.0000   1.0000   1.0000   1.0000   1.0000   1.0000
     1.0000   1.0000   1.0000   1.0000   1.0000   1.0000   1.0000   1.0000
     1.0000   1.0000   1.0000   1.0000   1.0000   1.0000   1.0000   1.0000
     1.0000   1.0000   1.0000   1.0000   1.0000   1.0000   1.0000   1.0000
     1.0000   1.0000   1.0000   1.0000   1.0000   1.0000   1.0000   1.0000
     1.0000   1.0000   1.0000   1.0000   1.0000   1.0000   1.0000   1.0000
     1.0000   1.0000   1.0000   1.0000   1.0000   1.0000   1.0000   1.0000
     1.0000   1.0000   1.0000   1.0000   1.0000   1.0000   1.0000   1.0000
     1.0000   1.0000   1.0000   1.0000   1.0000   1.0000   1.0000   1.0000
     1.0000   1.0000   1.0000   1.0000   1.0000   1.0000   1.0000   1.0000
     1.0000   1.0000   1.0000   1.0000   1.0000   1.0000   1.0000   1.0000
     1.0000   1.0000   1.0000   1.0000   1.0000   1.0000   1.0000   1.0000
     1.0000   1.0000   1.0000   1.0000   1.0000   1.0000   1.0000   1.0000
     1.0000   1.0000   1.0000   1.0000   1.0000   1.0000   1.0000   1.0000
     1.0000   0.9900   0.9703   0.5692   0.3515   0.0908   0.0275   0.0038
     0.0026   0.0004   0.0003   0.0002   0.0000   0.0000   0.0000   0.0000
     0.0000   0.0000   0.0000   0.0000   0.0000   0.0000   0.0000   0.0000
     0.0000   0.0000   0.0000   0.0000   0.0000   0.0000

          k = 0.2500-0.5200 0.0000 ( 35366 PWs)   bands (ev):

   -59.3887 -59.3851 -59.1323 -59.1277 -59.1202 -59.1152 -58.9379 -58.9330
   -58.7933 -58.7884 -58.5979 -58.5932 -29.2176 -29.1596 -29.0545 -29.0389
   -28.9073 -28.8971 -28.8759 -28.8652 -28.8269 -28.8134 -28.7822 -28.7703
   -28.7297 -28.7292 -28.6998 -28.6902 -28.6479 -28.6328 -28.6080 -28.5905
   -28.5339 -28.5329 -28.4991 -28.4743 -28.4590 -28.4348 -28.4206 -28.4058
   -28.3380 -28.3271 -28.2951 -28.2818 -28.1778 -28.1658 -28.1449 -28.1390
   -17.2641 -16.9660 -16.8471 -16.7642 -16.5722 -16.4777 -16.4082 -16.3487
   -16.2249 -16.1222 -16.0770 -15.8519 -15.8176 -15.6640 -15.5526 -15.5120
   -15.4376 -15.3851 -15.3072 -15.2476  -5.1613  -5.1412  -4.9133  -4.6896
    -4.6727  -4.5816  -4.4555  -4.4095  -4.3030  -4.2648  -4.1492  -4.1404
    -4.0308  -3.9402  -3.9000  -3.8432  -3.7251  -3.6433  -3.5194  -3.4321
    -3.3920  -3.1142  -3.0820  -2.9686  -2.8924  -2.8480  -2.7616  -2.7189
    -2.5685  -2.4609  -2.3981  -2.3826  -2.3458  -2.1675  -2.1071  -2.0007
    -1.9835  -1.8289  -1.8185  -1.6449  -1.5896  -1.5117  -1.4876  -1.3689
    -1.2988  -1.2475  -1.1119  -1.0845  -1.0004  -0.9205  -0.8742  -0.8018
    -0.6616  -0.6151  -0.5199  -0.4112  -0.3550  -0.3184  -0.1582   0.0575
     3.1668   3.3079   3.5901   3.9085   3.9950   4.1208   4.3491   4.5301
     4.8479   4.9101   4.9953   5.0319   5.1272   5.1935   5.2722   5.3700
     5.4345   5.6084   5.6253   5.9100   6.0151   6.0759   6.3437   6.5121
     6.5940   6.7596   6.8064   6.9045   6.9485   7.0931

     occupation numbers 
     1.0000   1.0000   1.0000   1.0000   1.0000   1.0000   1.0000   1.0000
     1.0000   1.0000   1.0000   1.0000   1.0000   1.0000   1.0000   1.0000
     1.0000   1.0000   1.0000   1.0000   1.0000   1.0000   1.0000   1.0000
     1.0000   1.0000   1.0000   1.0000   1.0000   1.0000   1.0000   1.0000
     1.0000   1.0000   1.0000   1.0000   1.0000   1.0000   1.0000   1.0000
     1.0000   1.0000   1.0000   1.0000   1.0000   1.0000   1.0000   1.0000
     1.0000   1.0000   1.0000   1.0000   1.0000   1.0000   1.0000   1.0000
     1.0000   1.0000   1.0000   1.0000   1.0000   1.0000   1.0000   1.0000
     1.0000   1.0000   1.0000   1.0000   1.0000   1.0000   1.0000   1.0000
     1.0000   1.0000   1.0000   1.0000   1.0000   1.0000   1.0000   1.0000
     1.0000   1.0000   1.0000   1.0000   1.0000   1.0000   1.0000   1.0000
     1.0000   1.0000   1.0000   1.0000   1.0000   1.0000   1.0000   1.0000
     1.0000   1.0000   1.0000   1.0000   1.0000   1.0000   1.0000   1.0000
     1.0000   1.0000   1.0000   1.0000   1.0000   1.0000   1.0000   1.0000
     1.0000   1.0000   1.0000   1.0000   1.0000   1.0000   1.0000   1.0000
     1.0000   1.0000   1.0000   1.0000   1.0000   1.0000   1.0000   1.0000
     0.9975   0.9929   0.9464   0.6296   0.4737   0.2631   0.0625   0.0173
     0.0017   0.0011   0.0006   0.0004   0.0002   0.0001   0.0001   0.0000
     0.0000   0.0000   0.0000   0.0000   0.0000   0.0000   0.0000   0.0000
     0.0000   0.0000   0.0000   0.0000   0.0000   0.0000

          k = 0.2500-0.2600 0.0000 ( 35420 PWs)   bands (ev):

   -59.3905 -59.3834 -59.1333 -59.1268 -59.1220 -59.1135 -58.9397 -58.9313
   -58.7950 -58.7867 -58.5996 -58.5915 -29.2112 -29.1484 -29.0559 -28.9963
   -28.9351 -28.8972 -28.8737 -28.8373 -28.8276 -28.8123 -28.7685 -28.7651
   -28.7562 -28.7272 -28.7094 -28.6679 -28.6383 -28.6179 -28.6060 -28.5825
   -28.5646 -28.5329 -28.5230 -28.4798 -28.4470 -28.4335 -28.4102 -28.4011
   -28.3831 -28.3154 -28.2946 -28.2659 -28.2240 -28.1664 -28.1564 -28.1121
   -17.5012 -17.1685 -16.8538 -16.7993 -16.5147 -16.4530 -16.3266 -16.2505
   -16.1232 -16.0821 -16.0322 -15.8699 -15.7454 -15.6446 -15.5863 -15.5314
   -15.4680 -15.4067 -15.2804 -15.2284  -5.2915  -5.1513  -4.9020  -4.8595
    -4.7851  -4.7245  -4.5891  -4.4959  -4.4430  -4.3797  -4.2793  -4.1835
    -4.0806  -4.0193  -3.9300  -3.7300  -3.6052  -3.4896  -3.4394  -3.3930
    -3.3386  -3.2738  -3.2487  -3.1243  -3.0412  -2.9502  -2.8483  -2.6266
    -2.4982  -2.4597  -2.3499  -2.2778  -2.2293  -2.1128  -1.9966  -1.9085
    -1.8834  -1.8191  -1.7195  -1.6764  -1.5668  -1.5374  -1.4810  -1.3661
    -1.2854  -1.2435  -1.1231  -1.0792  -0.9955  -0.8130  -0.7520  -0.6814
    -0.5878  -0.5656  -0.4687  -0.3667  -0.2487  -0.2036  -0.0818   0.0353
     2.6254   3.3555   3.5063   3.9431   4.0643   4.2938   4.4657   4.7385
     4.7892   5.0394   5.0919   5.1234   5.3653   5.3908   5.5143   5.6800
     5.7579   5.7712   5.8497   5.9544   6.0969   6.2355   6.4066   6.5231
     6.6083   6.6565   6.7622   6.8749   6.9256   7.0433

     occupation numbers 
     1.0000   1.0000   1.0000   1.0000   1.0000   1.0000   1.0000   1.0000
     1.0000   1.0000   1.0000   1.0000   1.0000   1.0000   1.0000   1.0000
     1.0000   1.0000   1.0000   1.0000   1.0000   1.0000   1.0000   1.0000
     1.0000   1.0000   1.0000   1.0000   1.0000   1.0000   1.0000   1.0000
     1.0000   1.0000   1.0000   1.0000   1.0000   1.0000   1.0000   1.0000
     1.0000   1.0000   1.0000   1.0000   1.0000   1.0000   1.0000   1.0000
     1.0000   1.0000   1.0000   1.0000   1.0000   1.0000   1.0000   1.0000
     1.0000   1.0000   1.0000   1.0000   1.0000   1.0000   1.0000   1.0000
     1.0000   1.0000   1.0000   1.0000   1.0000   1.0000   1.0000   1.0000
     1.0000   1.0000   1.0000   1.0000   1.0000   1.0000   1.0000   1.0000
     1.0000   1.0000   1.0000   1.0000   1.0000   1.0000   1.0000   1.0000
     1.0000   1.0000   1.0000   1.0000   1.0000   1.0000   1.0000   1.0000
     1.0000   1.0000   1.0000   1.0000   1.0000   1.0000   1.0000   1.0000
     1.0000   1.0000   1.0000   1.0000   1.0000   1.0000   1.0000   1.0000
     1.0000   1.0000   1.0000   1.0000   1.0000   1.0000   1.0000   1.0000
     1.0000   1.0000   1.0000   1.0000   1.0000   1.0000   1.0000   1.0000
     1.0000   0.9900   0.9703   0.5687   0.3510   0.0910   0.0275   0.0038
     0.0026   0.0004   0.0003   0.0002   0.0000   0.0000   0.0000   0.0000
     0.0000   0.0000   0.0000   0.0000   0.0000   0.0000   0.0000   0.0000
     0.0000   0.0000   0.0000   0.0000   0.0000   0.0000

          k =-0.5000 0.0000 0.0000 ( 35502 PWs)   bands (ev):

   -59.3870 -59.3869 -59.1301 -59.1300 -59.1184 -59.1172 -58.9356 -58.9354
   -58.7915 -58.7903 -58.5956 -58.5954 -29.1307 -29.1304 -28.9972 -28.9970
   -28.9083 -28.9080 -28.8373 -28.8371 -28.8094 -28.8090 -28.7766 -28.7763
   -28.7584 -28.7582 -28.6723 -28.6721 -28.6427 -28.6426 -28.5873 -28.5872
   -28.5620 -28.5619 -28.5090 -28.5089 -28.4607 -28.4604 -28.4330 -28.4326
   -28.3673 -28.3670 -28.2643 -28.2642 -28.2220 -28.2217 -28.1510 -28.1510
   -17.0848 -17.0838 -16.7778 -16.7768 -16.5827 -16.5816 -16.3449 -16.3437
   -16.0690 -16.0677 -15.9256 -15.9250 -15.6993 -15.6989 -15.5605 -15.5597
   -15.5296 -15.5285 -15.4018 -15.4012  -4.9500  -4.9490  -4.7102  -4.7091
    -4.5065  -4.5060  -4.3847  -4.3840  -4.2902  -4.2898  -4.0985  -4.0975
    -3.9731  -3.9725  -3.8958  -3.8950  -3.7559  -3.7553  -3.6148  -3.6143
    -3.5193  -3.5185  -3.3736  -3.3730  -3.2365  -3.2358  -2.7551  -2.7546
    -2.6150  -2.6140  -2.4359  -2.4355  -2.2767  -2.2757  -2.0793  -2.0787
    -1.8669  -1.8667  -1.7192  -1.7188  -1.4794  -1.4792  -1.3870  -1.3867
    -1.2448  -1.2442  -1.1418  -1.1409  -0.8458  -0.8454  -0.7198  -0.7193
    -0.5558  -0.5557  -0.5211  -0.5200  -0.3115  -0.3109  -0.1852  -0.1845
     2.9430   2.9435   3.8540   3.8548   4.4146   4.4152   4.8841   4.8847
     4.9219   4.9224   5.0509   5.0515   5.3940   5.3944   5.7465   5.7477
     5.8166   5.8178   6.0707   6.0712   6.2414   6.2419   6.5247   6.5250
     6.7027   6.7031   6.9093   6.9101   6.9706   6.9717

     occupation numbers 
     1.0000   1.0000   1.0000   1.0000   1.0000   1.0000   1.0000   1.0000
     1.0000   1.0000   1.0000   1.0000   1.0000   1.0000   1.0000   1.0000
     1.0000   1.0000   1.0000   1.0000   1.0000   1.0000   1.0000   1.0000
     1.0000   1.0000   1.0000   1.0000   1.0000   1.0000   1.0000   1.0000
     1.0000   1.0000   1.0000   1.0000   1.0000   1.0000   1.0000   1.0000
     1.0000   1.0000   1.0000   1.0000   1.0000   1.0000   1.0000   1.0000
     1.0000   1.0000   1.0000   1.0000   1.0000   1.0000   1.0000   1.0000
     1.0000   1.0000   1.0000   1.0000   1.0000   1.0000   1.0000   1.0000
     1.0000   1.0000   1.0000   1.0000   1.0000   1.0000   1.0000   1.0000
     1.0000   1.0000   1.0000   1.0000   1.0000   1.0000   1.0000   1.0000
     1.0000   1.0000   1.0000   1.0000   1.0000   1.0000   1.0000   1.0000
     1.0000   1.0000   1.0000   1.0000   1.0000   1.0000   1.0000   1.0000
     1.0000   1.0000   1.0000   1.0000   1.0000   1.0000   1.0000   1.0000
     1.0000   1.0000   1.0000   1.0000   1.0000   1.0000   1.0000   1.0000
     1.0000   1.0000   1.0000   1.0000   1.0000   1.0000   1.0000   1.0000
     1.0000   1.0000   1.0000   1.0000   1.0000   1.0000   1.0000   1.0000
     0.9995   0.9995   0.7173   0.7161   0.0396   0.0394   0.0013   0.0013
     0.0010   0.0010   0.0004   0.0004   0.0000   0.0000   0.0000   0.0000
     0.0000   0.0000   0.0000   0.0000   0.0000   0.0000   0.0000   0.0000
     0.0000   0.0000   0.0000   0.0000   0.0000   0.0000

          k =-0.5000 0.2600 0.0000 ( 35450 PWs)   bands (ev):

   -59.3870 -59.3868 -59.1300 -59.1300 -59.1183 -59.1171 -58.9356 -58.9353
   -58.7915 -58.7903 -58.5957 -58.5955 -29.1851 -29.1848 -29.0442 -29.0441
   -28.9110 -28.9109 -28.8593 -28.8591 -28.8055 -28.8054 -28.7905 -28.7905
   -28.7319 -28.7316 -28.6911 -28.6909 -28.6434 -28.6432 -28.5998 -28.5996
   -28.5393 -28.5391 -28.4806 -28.4804 -28.4525 -28.4524 -28.4103 -28.4101
   -28.3304 -28.3302 -28.2878 -28.2876 -28.1735 -28.1734 -28.1435 -28.1435
   -17.0919 -17.0912 -16.8045 -16.8036 -16.6412 -16.6403 -16.4283 -16.4274
   -16.1244 -16.1235 -15.9481 -15.9478 -15.6722 -15.6719 -15.5323 -15.5317
   -15.4110 -15.4105 -15.3017 -15.3012  -5.0012  -5.0004  -4.6837  -4.6835
    -4.4680  -4.4676  -4.3587  -4.3583  -4.2183  -4.2180  -4.0310  -4.0302
    -3.9597  -3.9593  -3.8511  -3.8507  -3.7336  -3.7331  -3.5426  -3.5424
    -3.3385  -3.3382  -3.2091  -3.2087  -3.0047  -3.0044  -2.7872  -2.7864
    -2.6102  -2.6098  -2.3807  -2.3803  -2.2894  -2.2888  -2.0892  -2.0887
    -1.9934  -1.9928  -1.7602  -1.7596  -1.6601  -1.6597  -1.4683  -1.4677
    -1.3171  -1.3166  -1.1400  -1.1397  -0.9935  -0.9929  -0.7597  -0.7593
    -0.6525  -0.6520  -0.5386  -0.5381  -0.3767  -0.3763  -0.1656  -0.1650
     3.1457   3.1461   3.7725   3.7731   4.1224   4.1231   4.6655   4.6661
     4.8666   4.8670   5.0006   5.0011   5.3985   5.3993   5.4865   5.4869
     5.6915   5.6922   5.9418   5.9427   6.1241   6.1242   6.3872   6.3874
     6.5803   6.5808   6.6976   6.6980   6.8972   6.8975

     occupation numbers 
     1.0000   1.0000   1.0000   1.0000   1.0000   1.0000   1.0000   1.0000
     1.0000   1.0000   1.0000   1.0000   1.0000   1.0000   1.0000   1.0000
     1.0000   1.0000   1.0000   1.0000   1.0000   1.0000   1.0000   1.0000
     1.0000   1.0000   1.0000   1.0000   1.0000   1.0000   1.0000   1.0000
     1.0000   1.0000   1.0000   1.0000   1.0000   1.0000   1.0000   1.0000
     1.0000   1.0000   1.0000   1.0000   1.0000   1.0000   1.0000   1.0000
     1.0000   1.0000   1.0000   1.0000   1.0000   1.0000   1.0000   1.0000
     1.0000   1.0000   1.0000   1.0000   1.0000   1.0000   1.0000   1.0000
     1.0000   1.0000   1.0000   1.0000   1.0000   1.0000   1.0000   1.0000
     1.0000   1.0000   1.0000   1.0000   1.0000   1.0000   1.0000   1.0000
     1.0000   1.0000   1.0000   1.0000   1.0000   1.0000   1.0000   1.0000
     1.0000   1.0000   1.0000   1.0000   1.0000   1.0000   1.0000   1.0000
     1.0000   1.0000   1.0000   1.0000   1.0000   1.0000   1.0000   1.0000
     1.0000   1.0000   1.0000   1.0000   1.0000   1.0000   1.0000   1.0000
     1.0000   1.0000   1.0000   1.0000   1.0000   1.0000   1.0000   1.0000
     1.0000   1.0000   1.0000   1.0000   1.0000   1.0000   1.0000   1.0000
     0.9978   0.9978   0.8221   0.8214   0.2608   0.2598   0.0065   0.0064
     0.0015   0.0015   0.0006   0.0006   0.0000   0.0000   0.0000   0.0000
     0.0000   0.0000   0.0000   0.0000   0.0000   0.0000   0.0000   0.0000
     0.0000   0.0000   0.0000   0.0000   0.0000   0.0000

          k =-0.5000-0.5200 0.0000 ( 35320 PWs)   bands (ev):

   -59.3869 -59.3868 -59.1300 -59.1300 -59.1183 -59.1171 -58.9356 -58.9353
   -58.7914 -58.7903 -58.5957 -58.5955 -29.2243 -29.2241 -29.0903 -29.0902
   -28.9332 -28.9330 -28.8609 -28.8607 -28.8179 -28.8177 -28.7847 -28.7846
   -28.7519 -28.7517 -28.6862 -28.6859 -28.6174 -28.6172 -28.6080 -28.6078
   -28.5316 -28.5314 -28.4704 -28.4703 -28.4300 -28.4299 -28.3928 -28.3927
   -28.3060 -28.3057 -28.2839 -28.2838 -28.1667 -28.1666 -28.1139 -28.1138
   -17.1037 -17.1031 -16.8327 -16.8318 -16.6819 -16.6812 -16.5030 -16.5023
   -16.1726 -16.1720 -15.9720 -15.9717 -15.6398 -15.6395 -15.4780 -15.4774
   -15.3120 -15.3115 -15.2405 -15.2401  -4.8716  -4.8705  -4.6416  -4.6412
    -4.4766  -4.4762  -4.3029  -4.3026  -4.2003  -4.1999  -4.1097  -4.1090
    -3.9794  -3.9789  -3.9247  -3.9241  -3.6932  -3.6928  -3.2789  -3.2788
    -3.1568  -3.1564  -3.0153  -3.0151  -2.9007  -2.9005  -2.8151  -2.8149
    -2.6725  -2.6724  -2.4337  -2.4332  -2.1958  -2.1954  -2.0615  -2.0609
    -1.9962  -1.9958  -1.9068  -1.9066  -1.7435  -1.7429  -1.4245  -1.4239
    -1.3482  -1.3475  -1.2415  -1.2406  -0.9773  -0.9771  -0.8531  -0.8530
    -0.7552  -0.7550  -0.5752  -0.5739  -0.4901  -0.4897  -0.2542  -0.2534
     3.5028   3.5029   3.6596   3.6607   3.8012   3.8019   4.3477   4.3480
     4.9343   4.9345   4.9747   4.9750   5.1298   5.1307   5.3582   5.3587
     5.4833   5.4836   5.7767   5.7772   5.9731   5.9738   6.3188   6.3191
     6.5054   6.5059   6.7017   6.7021   6.9397   6.9400

     occupation numbers 
     1.0000   1.0000   1.0000   1.0000   1.0000   1.0000   1.0000   1.0000
     1.0000   1.0000   1.0000   1.0000   1.0000   1.0000   1.0000   1.0000
     1.0000   1.0000   1.0000   1.0000   1.0000   1.0000   1.0000   1.0000
     1.0000   1.0000   1.0000   1.0000   1.0000   1.0000   1.0000   1.0000
     1.0000   1.0000   1.0000   1.0000   1.0000   1.0000   1.0000   1.0000
     1.0000   1.0000   1.0000   1.0000   1.0000   1.0000   1.0000   1.0000
     1.0000   1.0000   1.0000   1.0000   1.0000   1.0000   1.0000   1.0000
     1.0000   1.0000   1.0000   1.0000   1.0000   1.0000   1.0000   1.0000
     1.0000   1.0000   1.0000   1.0000   1.0000   1.0000   1.0000   1.0000
     1.0000   1.0000   1.0000   1.0000   1.0000   1.0000   1.0000   1.0000
     1.0000   1.0000   1.0000   1.0000   1.0000   1.0000   1.0000   1.0000
     1.0000   1.0000   1.0000   1.0000   1.0000   1.0000   1.0000   1.0000
     1.0000   1.0000   1.0000   1.0000   1.0000   1.0000   1.0000   1.0000
     1.0000   1.0000   1.0000   1.0000   1.0000   1.0000   1.0000   1.0000
     1.0000   1.0000   1.0000   1.0000   1.0000   1.0000   1.0000   1.0000
     1.0000   1.0000   1.0000   1.0000   1.0000   1.0000   1.0000   1.0000
     0.9710   0.9710   0.9137   0.9131   0.7890   0.7882   0.0631   0.0630
     0.0009   0.0009   0.0007   0.0007   0.0002   0.0002   0.0000   0.0000
     0.0000   0.0000   0.0000   0.0000   0.0000   0.0000   0.0000   0.0000
     0.0000   0.0000   0.0000   0.0000   0.0000   0.0000

     the Fermi energy is     3.9807 ev

!    total energy              =   -1821.50464842 Ry
     estimated scf accuracy    <       0.00000005 Ry
     smearing contrib. (-TS)   =      -0.03981215 Ry
     internal energy E=F+TS    =   -1821.46483627 Ry

     The total energy is F=E-TS. E is the sum of the following terms:
     one-electron contribution =  -40687.31503182 Ry
     hartree contribution      =   20366.69382434 Ry
     xc contribution           =    -282.22583876 Ry
     ewald contribution        =   18781.38268108 Ry
     electric field correction =      -0.00047110 Ry

     convergence has been achieved in  10 iterations

     Forces acting on atoms (cartesian axes, Ry/au):

     atom    1 type  1   force =     0.01548776   -0.01595195    0.07361027
     atom    2 type  1   force =     0.00032109   -0.00188196    0.01135213
     atom    3 type  1   force =    -0.00136088   -0.00164097    0.02353584
     atom    4 type  1   force =     0.01555008    0.01591560    0.07360242
     atom    5 type  1   force =     0.00054559    0.00177751    0.01133926
     atom    6 type  1   force =    -0.00108113    0.00151628    0.02353024
     atom    7 type  1   force =    -0.00383965    0.00882026    0.01413724
     atom    8 type  1   force =    -0.00017217    0.00047407    0.00999002
     atom    9 type  1   force =     0.00195030   -0.00243770   -0.05950292
     atom   10 type  1   force =    -0.00360637   -0.00893333    0.01412118
     atom   11 type  1   force =     0.00005350   -0.00057752    0.00997511
     atom   12 type  1   force =     0.00200933    0.00245044   -0.05940021
     atom   13 type  2   force =    -0.01641732    0.02029873   -0.02541360
     atom   14 type  2   force =    -0.00081939    0.00148808   -0.00476995
     atom   15 type  2   force =     0.00740552   -0.02048560    0.01775540
     atom   16 type  2   force =    -0.01631208   -0.02026248   -0.02560912
     atom   17 type  2   force =    -0.00070437   -0.00143902   -0.00504649
     atom   18 type  2   force =     0.00748096    0.02056988    0.01762959
     atom   19 type  2   force =     0.00407210   -0.00234421   -0.06068009
     atom   20 type  2   force =     0.00065575   -0.00003172   -0.00562972
     atom   21 type  2   force =    -0.00720860   -0.00342623    0.02295606
     atom   22 type  2   force =     0.00093074    0.00325960   -0.00286238
     atom   23 type  2   force =     0.00158965    0.00197162   -0.00436265
     atom   24 type  2   force =     0.00085040   -0.00322949   -0.00261528
     atom   25 type  2   force =     0.00151037   -0.00193994   -0.00411621
     atom   26 type  2   force =     0.00407425    0.00231522   -0.06066889
     atom   27 type  2   force =    -0.00078684   -0.00000748   -0.00806528
     atom   28 type  2   force =     0.00066779   -0.00002031   -0.00558525
     atom   29 type  2   force =    -0.00241402   -0.00034812   -0.00218554
     atom   30 type  2   force =    -0.00722009    0.00337290    0.02302041
     atom   31 type  2   force =    -0.00079508    0.00019388   -0.00795083
     atom   32 type  2   force =    -0.00241719    0.00053395   -0.00209075
     The non-local contrib.  to forces
     atom    1 type  1   force =    -0.01956508    0.01740994   -0.07791060
     atom    2 type  1   force =    -0.03044366    0.06473997    0.03128639
     atom    3 type  1   force =    -0.03250849    0.06236887    0.03345662
     atom    4 type  1   force =    -0.01942395   -0.01733242   -0.07796621
     atom    5 type  1   force =    -0.03065732   -0.06478169    0.03124071
     atom    6 type  1   force =    -0.03276405   -0.06238977    0.03341438
     atom    7 type  1   force =     0.03181844   -0.07182417    0.01686458
     atom    8 type  1   force =     0.02997579   -0.06347541    0.03255038
     atom    9 type  1   force =     0.02381345    0.02977074    0.20952119
     atom   10 type  1   force =     0.03191991    0.07182290    0.01688191
     atom   11 type  1   force =     0.03008209    0.06347107    0.03255513
     atom   12 type  1   force =     0.02381454   -0.02971384    0.20960683
     atom   13 type  2   force =    -0.08639739    0.07697387    0.03698665
     atom   14 type  2   force =    -0.05390087    0.04747505    0.03059412
     atom   15 type  2   force =    -0.04794416    0.02153797    0.04203210
     atom   16 type  2   force =    -0.08578256   -0.07647471    0.03655527
     atom   17 type  2   force =    -0.05326849   -0.04696756    0.03006837
     atom   18 type  2   force =    -0.04743283   -0.02102532    0.04171551
     atom   19 type  2   force =    -0.04569921   -0.15013732   -0.04351546
     atom   20 type  2   force =    -0.05229385   -0.14661249    0.00427085
     atom   21 type  2   force =    -0.06368371   -0.15318138    0.03446534
     atom   22 type  2   force =     0.05496797    0.04910022    0.03537847
     atom   23 type  2   force =     0.05506209    0.04873729    0.03059866
     atom   24 type  2   force =     0.05507587   -0.04938901    0.03529926
     atom   25 type  2   force =     0.05517199   -0.04902064    0.03052118
     atom   26 type  2   force =    -0.04563676    0.15009038   -0.04351161
     atom   27 type  2   force =     0.05230272    0.14639895   -0.00158041
     atom   28 type  2   force =    -0.05223565    0.14651235    0.00435940
     atom   29 type  2   force =     0.05001759    0.14575857    0.00927406
     atom   30 type  2   force =    -0.06366503    0.15307615    0.03460957
     atom   31 type  2   force =     0.05229781   -0.14655062   -0.00147368
     atom   32 type  2   force =     0.05002579   -0.14591324    0.00935255
     The ionic contribution  to forces
     atom    1 type  1   force =    -1.52878808    1.02840281 -237.78231591
     atom    2 type  1   force =    -1.80683990   -2.70690181  -42.76464393
     atom    3 type  1   force =    -1.75302464   -3.04784155  155.33637591
     atom    4 type  1   force =    -1.52591414   -1.02735424 -237.78276561
     atom    5 type  1   force =    -1.80393555    2.70532331  -42.76586103
     atom    6 type  1   force =    -1.75048472    3.04611171  155.33464689
     atom    7 type  1   force =     1.80523599    2.50029628 -141.80273907
     atom    8 type  1   force =     1.79709504    2.73015640   56.23084452
     atom    9 type  1   force =     0.27603445    4.68883314  241.18143690
     atom   10 type  1   force =     1.81764136   -2.50027600 -141.80048182
     atom   11 type  1   force =     1.80942475   -2.73008543   56.23333306
     atom   12 type  1   force =     0.28293619   -4.68615729  241.18413121
     atom   13 type  2   force =     0.85453143    0.36071970 -107.24614829
     atom   14 type  2   force =     0.86615882    0.79800762   -9.16680142
     atom   15 type  2   force =     0.76748491    1.00188437   90.07620680
     atom   16 type  2   force =     0.85580018   -0.36221577 -107.22971943
     atom   17 type  2   force =     0.86681198   -0.79909339   -9.14911801
     atom   18 type  2   force =     0.76721302   -1.00274829   90.09465385
     atom   19 type  2   force =     0.37642857    2.31165776  -96.57007854
     atom   20 type  2   force =     0.36310007    2.42121377    3.08920701
     atom   21 type  2   force =     0.41788004    2.37319273  101.52243420
     atom   22 type  2   force =    -0.86357032    0.78167571  -58.61288036
     atom   23 type  2   force =    -0.86403294    0.80684188   40.36431636
     atom   24 type  2   force =    -0.86708022   -0.77987103  -58.61611865
     atom   25 type  2   force =    -0.86753962   -0.80505772   40.36108355
     atom   26 type  2   force =     0.37578779   -2.31348714  -96.57175413
     atom   27 type  2   force =    -0.36302161   -2.41328701  -46.43656159
     atom   28 type  2   force =     0.36260550   -2.42261538    3.08776437
     atom   29 type  2   force =    -0.36184484   -2.42454096   52.55855584
     atom   30 type  2   force =     0.41757404   -2.37500631  101.52067472
     atom   31 type  2   force =    -0.36240806    2.41550441  -46.43640766
     atom   32 type  2   force =    -0.36125950    2.42671775   52.55873028
     The local contribution  to forces
     atom    1 type  1   force =     1.56385050   -1.06177181  237.93267469
     atom    2 type  1   force =     1.83760539    2.64027872   42.74329799
     atom    3 type  1   force =     1.78417277    2.98383130 -155.34748313
     atom    4 type  1   force =     1.56089797    1.06060851  237.93317197
     atom    5 type  1   force =     1.83513931   -2.63876388   42.74454795
     atom    6 type  1   force =     1.78216808   -2.98220615 -155.34571742
     atom    7 type  1   force =    -1.84089145   -2.41965747  141.79868139
     atom    8 type  1   force =    -1.82724035   -2.66621088  -56.25474336
     atom    9 type  1   force =    -0.29789108   -4.72103656 -241.45159655
     atom   10 type  1   force =    -1.85316492    2.41952444  141.79639085
     atom   11 type  1   force =    -1.83945070    2.66603993  -56.25725162
     atom   12 type  1   force =    -0.30473479    4.71831580 -241.45427378
     atom   13 type  2   force =    -0.78454523   -0.41740083  107.18309810
     atom   14 type  2   force =    -0.81307707   -0.84399075    9.13062589
     atom   15 type  2   force =    -0.71213219   -1.04390567  -90.10110520
     atom   16 type  2   force =    -0.78632335    0.41843303  107.16690509
     atom   17 type  2   force =    -0.81424745    0.84461725    9.11319158
     atom   18 type  2   force =    -0.71229621    1.04434027  -90.11936154
     atom   19 type  2   force =    -0.32665548   -2.16386078   96.55224083
     atom   20 type  2   force =    -0.31014722   -2.27463236   -3.09991892
     atom   21 type  2   force =    -0.36140671   -2.22343621 -101.53456227
     atom   22 type  2   force =     0.80953408   -0.82751817   58.57389524
     atom   23 type  2   force =     0.81056071   -0.85361172  -40.39997957
     atom   24 type  2   force =     0.81285585    0.82603163   58.57745988
     atom   25 type  2   force =     0.81387825    0.85214172  -40.39642285
     atom   26 type  2   force =    -0.32607486    2.16570723   96.55392378
     atom   27 type  2   force =     0.30993479    2.26687886   46.42931103
     atom   28 type  2   force =    -0.30969885    2.27608115   -3.09852043
     atom   29 type  2   force =     0.30941664    2.27843462  -52.57068142
     atom   30 type  2   force =    -0.36113089    2.22530085 -101.53288258
     atom   31 type  2   force =     0.30931802   -2.26875920   46.42916478
     atom   32 type  2   force =     0.30881994   -2.28027183  -52.57083956
     The core correction contribution to forces
     atom    1 type  1   force =     0.00000000    0.00000000    0.00000000
     atom    2 type  1   force =     0.00000000    0.00000000    0.00000000
     atom    3 type  1   force =     0.00000000    0.00000000    0.00000000
     atom    4 type  1   force =     0.00000000    0.00000000    0.00000000
     atom    5 type  1   force =     0.00000000    0.00000000    0.00000000
     atom    6 type  1   force =     0.00000000    0.00000000    0.00000000
     atom    7 type  1   force =     0.00000000    0.00000000    0.00000000
     atom    8 type  1   force =     0.00000000    0.00000000    0.00000000
     atom    9 type  1   force =     0.00000000    0.00000000    0.00000000
     atom   10 type  1   force =     0.00000000    0.00000000    0.00000000
     atom   11 type  1   force =     0.00000000    0.00000000    0.00000000
     atom   12 type  1   force =     0.00000000    0.00000000    0.00000000
     atom   13 type  2   force =     0.00000000    0.00000000    0.00000000
     atom   14 type  2   force =     0.00000000    0.00000000    0.00000000
     atom   15 type  2   force =     0.00000000    0.00000000    0.00000000
     atom   16 type  2   force =     0.00000000    0.00000000    0.00000000
     atom   17 type  2   force =     0.00000000    0.00000000    0.00000000
     atom   18 type  2   force =     0.00000000    0.00000000    0.00000000
     atom   19 type  2   force =     0.00000000    0.00000000    0.00000000
     atom   20 type  2   force =     0.00000000    0.00000000    0.00000000
     atom   21 type  2   force =     0.00000000    0.00000000    0.00000000
     atom   22 type  2   force =     0.00000000    0.00000000    0.00000000
     atom   23 type  2   force =     0.00000000    0.00000000    0.00000000
     atom   24 type  2   force =     0.00000000    0.00000000    0.00000000
     atom   25 type  2   force =     0.00000000    0.00000000    0.00000000
     atom   26 type  2   force =     0.00000000    0.00000000    0.00000000
     atom   27 type  2   force =     0.00000000    0.00000000    0.00000000
     atom   28 type  2   force =     0.00000000    0.00000000    0.00000000
     atom   29 type  2   force =     0.00000000    0.00000000    0.00000000
     atom   30 type  2   force =     0.00000000    0.00000000    0.00000000
     atom   31 type  2   force =     0.00000000    0.00000000    0.00000000
     atom   32 type  2   force =     0.00000000    0.00000000    0.00000000
     The Hubbard contrib.    to forces
     atom    1 type  1   force =     0.00000000    0.00000000    0.00000000
     atom    2 type  1   force =     0.00000000    0.00000000    0.00000000
     atom    3 type  1   force =     0.00000000    0.00000000    0.00000000
     atom    4 type  1   force =     0.00000000    0.00000000    0.00000000
     atom    5 type  1   force =     0.00000000    0.00000000    0.00000000
     atom    6 type  1   force =     0.00000000    0.00000000    0.00000000
     atom    7 type  1   force =     0.00000000    0.00000000    0.00000000
     atom    8 type  1   force =     0.00000000    0.00000000    0.00000000
     atom    9 type  1   force =     0.00000000    0.00000000    0.00000000
     atom   10 type  1   force =     0.00000000    0.00000000    0.00000000
     atom   11 type  1   force =     0.00000000    0.00000000    0.00000000
     atom   12 type  1   force =     0.00000000    0.00000000    0.00000000
     atom   13 type  2   force =     0.00000000    0.00000000    0.00000000
     atom   14 type  2   force =     0.00000000    0.00000000    0.00000000
     atom   15 type  2   force =     0.00000000    0.00000000    0.00000000
     atom   16 type  2   force =     0.00000000    0.00000000    0.00000000
     atom   17 type  2   force =     0.00000000    0.00000000    0.00000000
     atom   18 type  2   force =     0.00000000    0.00000000    0.00000000
     atom   19 type  2   force =     0.00000000    0.00000000    0.00000000
     atom   20 type  2   force =     0.00000000    0.00000000    0.00000000
     atom   21 type  2   force =     0.00000000    0.00000000    0.00000000
     atom   22 type  2   force =     0.00000000    0.00000000    0.00000000
     atom   23 type  2   force =     0.00000000    0.00000000    0.00000000
     atom   24 type  2   force =     0.00000000    0.00000000    0.00000000
     atom   25 type  2   force =     0.00000000    0.00000000    0.00000000
     atom   26 type  2   force =     0.00000000    0.00000000    0.00000000
     atom   27 type  2   force =     0.00000000    0.00000000    0.00000000
     atom   28 type  2   force =     0.00000000    0.00000000    0.00000000
     atom   29 type  2   force =     0.00000000    0.00000000    0.00000000
     atom   30 type  2   force =     0.00000000    0.00000000    0.00000000
     atom   31 type  2   force =     0.00000000    0.00000000    0.00000000
     atom   32 type  2   force =     0.00000000    0.00000000    0.00000000
     The SCF correction term to forces
     atom    1 type  1   force =     0.00000000    0.00000000    0.00000000
     atom    2 type  1   force =     0.00000000    0.00000000    0.00000000
     atom    3 type  1   force =     0.00000000    0.00000000    0.00000000
     atom    4 type  1   force =     0.00000000    0.00000000    0.00000000
     atom    5 type  1   force =     0.00000000    0.00000000    0.00000000
     atom    6 type  1   force =     0.00000000    0.00000000    0.00000000
     atom    7 type  1   force =     0.00000000    0.00000000    0.00000000
     atom    8 type  1   force =     0.00000000    0.00000000    0.00000000
     atom    9 type  1   force =     0.00000000    0.00000000    0.00000000
     atom   10 type  1   force =     0.00000000    0.00000000    0.00000000
     atom   11 type  1   force =     0.00000000    0.00000000    0.00000000
     atom   12 type  1   force =     0.00000000    0.00000000    0.00000000
     atom   13 type  2   force =     0.00000000    0.00000000    0.00000000
     atom   14 type  2   force =     0.00000000    0.00000000    0.00000000
     atom   15 type  2   force =     0.00000000    0.00000000    0.00000000
     atom   16 type  2   force =     0.00000000    0.00000000    0.00000000
     atom   17 type  2   force =     0.00000000    0.00000000    0.00000000
     atom   18 type  2   force =     0.00000000    0.00000000    0.00000000
     atom   19 type  2   force =     0.00000000    0.00000000    0.00000000
     atom   20 type  2   force =     0.00000000    0.00000000    0.00000000
     atom   21 type  2   force =     0.00000000    0.00000000    0.00000000
     atom   22 type  2   force =     0.00000000    0.00000000    0.00000000
     atom   23 type  2   force =     0.00000000    0.00000000    0.00000000
     atom   24 type  2   force =     0.00000000    0.00000000    0.00000000
     atom   25 type  2   force =     0.00000000    0.00000000    0.00000000
     atom   26 type  2   force =     0.00000000    0.00000000    0.00000000
     atom   27 type  2   force =     0.00000000    0.00000000    0.00000000
     atom   28 type  2   force =     0.00000000    0.00000000    0.00000000
     atom   29 type  2   force =     0.00000000    0.00000000    0.00000000
     atom   30 type  2   force =     0.00000000    0.00000000    0.00000000
     atom   31 type  2   force =     0.00000000    0.00000000    0.00000000
     atom   32 type  2   force =     0.00000000    0.00000000    0.00000000

     Total force =     0.000000     Total SCF correction =     0.000000

     BFGS Geometry Optimization
     Energy error            =      0.0E+00
     Gradient error          =      0.0E+00

     bfgs converged in   1 scf cycles and   0 bfgs steps
     (criteria: energy <  1.0E-06 Ry, force <  1.0E-05 Ry/Bohr)

     End of BFGS Geometry Optimization

     Final energy   =   -1821.5046484208 Ry
Begin final coordinates

ATOMIC_POSITIONS (angstrom)
Hf            4.0076390000        3.7813620000        6.1529890000    0   0   0
Hf            4.0076390000        3.7813620000       11.0753320000    0   0   0
Hf            4.0076390000        3.7813620000       15.9976750000    0   0   0
Hf            1.4522770000        1.1321830000        6.1529770000    0   0   0
Hf            1.4522770000        1.1321830000       11.0753200000    0   0   0
Hf            1.4522770000        1.1321830000       15.9976630000    0   0   0
Hf            3.6579980000        1.1322110000        8.6140330000    0   0   0
Hf            3.6579980000        1.1322110000       13.5363760000    0   0   0
Hf            3.6579980000        1.1322110000       18.4587190000    0   0   0
Hf            1.1027520000        3.7813090000        8.6141070000    0   0   0
Hf            1.1027520000        3.7813090000       13.5364490000    0   0   0
Hf            1.1027520000        3.7813090000       18.4587920000    0   0   0
O             3.1707970000        2.0862730000        6.8074440000    0   0   0
O             3.1707970000        2.0862730000       11.7297860000    0   0   0
O             3.1707970000        2.0862730000       16.6521290000    0   0   0
O             0.6152330000        2.8266930000        6.8083890000    0   0   0
O             0.6152330000        2.8266930000       11.7307320000    0   0   0
O             0.6152330000        2.8266930000       16.6530750000    0   0   0
O             5.0530890000        0.2074550000        7.3799440000    0   0   0
O             5.0530890000        0.2074550000       12.3022870000    0   0   0
O             5.0530890000        0.2074550000       17.2246300000    0   0   0
O             1.9399660000        2.0865810000        9.2696970000    0   0   0
O             1.9399660000        2.0865810000       14.1920390000    0   0   0
O             4.4952530000        2.8267400000        9.2692970000    0   0   0
O             4.4952530000        2.8267400000       14.1916400000    0   0   0
O             2.4978700000       -0.2075440000        7.3798460000    0   0   0
O             2.6124080000       -0.2081150000        9.8410840000    0   0   0
O             2.4978700000       -0.2075440000       12.3021890000    0   0   0
O             2.6124080000       -0.2081150000       14.7634270000    0   0   0
O             2.4978700000       -0.2075440000       17.2245320000    0   0   0
O             5.1675430000        0.2075860000        9.8410300000    0   0   0
O             5.1675430000        0.2075860000       14.7633720000    0   0   0
End final coordinates



     Writing output data file ./hfo2.save/
 
     init_run     :      0.66s CPU      1.64s WALL (       1 calls)
     electrons    :     60.75s CPU     75.64s WALL (       1 calls)
     forces       :      0.44s CPU      0.47s WALL (       1 calls)

     Called by init_run:
     wfcinit      :      0.08s CPU      0.56s WALL (       1 calls)
     potinit      :      0.15s CPU      0.54s WALL (       1 calls)
     hinit0       :      0.21s CPU      0.30s WALL (       1 calls)

     Called by electrons:
     c_bands      :     13.72s CPU     19.96s WALL (      10 calls)
     sum_band     :      2.35s CPU      2.66s WALL (      10 calls)
     v_of_rho     :      1.59s CPU      1.97s WALL (      11 calls)
     v_h          :      0.14s CPU      0.16s WALL (      11 calls)
     v_xc         :      1.39s CPU      1.73s WALL (      11 calls)
     mix_rho      :     42.79s CPU     49.47s WALL (      10 calls)

     Called by c_bands:
     init_us_2    :      0.07s CPU      0.08s WALL (      20 calls)
     cegterg      :     13.16s CPU     18.70s WALL (      10 calls)

     Called by sum_band:
     sum_band:wei :      0.02s CPU      0.02s WALL (      10 calls)
     sum_band:loo :      2.19s CPU      2.36s WALL (      10 calls)
     sum_band:buf :      0.00s CPU      0.00s WALL (      10 calls)
     sum_band:ini :      0.06s CPU      0.07s WALL (      10 calls)

     Called by *egterg:
     cdiaghg      :      0.57s CPU      4.75s WALL (      45 calls)
     cegterg:over :      1.13s CPU      1.17s WALL (      36 calls)
     cegterg:upda :      1.04s CPU      1.12s WALL (      36 calls)
     cegterg:last :      1.37s CPU      1.49s WALL (      17 calls)
     cdiaghg:chol :      0.07s CPU      1.62s WALL (      45 calls)
     cdiaghg:inve :      0.09s CPU      0.41s WALL (      45 calls)
     cdiaghg:para :      0.08s CPU      0.70s WALL (      90 calls)
     h_psi        :      8.47s CPU      9.54s WALL (      46 calls)
     g_psi        :      0.06s CPU      0.06s WALL (      36 calls)

     Called by h_psi:
     h_psi:calbec :      0.76s CPU      0.86s WALL (      46 calls)
     vloc_psi     :      6.97s CPU      7.90s WALL (      46 calls)
     add_vuspsi   :      0.58s CPU      0.58s WALL (      46 calls)

     General routines
     calbec       :      0.86s CPU      0.97s WALL (      50 calls)
     fft          :      1.00s CPU      1.38s WALL (     131 calls)
     ffts         :     20.06s CPU     24.65s WALL (   10094 calls)
     fftw         :      8.54s CPU      9.56s WALL (    8386 calls)
     interpolate  :      0.12s CPU      0.16s WALL (      11 calls)
 
     Parallel routines
     fft_scatt_xy :      2.00s CPU      2.32s WALL (   18611 calls)
     fft_scatt_yz :     10.57s CPU     13.64s WALL (   18611 calls)
 
     PWSCF        :   1m 4.13s CPU   1m29.02s WALL

 
   This run was terminated on:  23: 0:56   4Jan2026            

=------------------------------------------------------------------------------=
   JOB DONE.
=------------------------------------------------------------------------------=
