  <PP_INFO>

############################################################
#    Opium Parameter File                                  #
############################################################
#-----------------------------------------------------------
#Command line   : ../../../opium o o.log all ke rpt upf 
 
#Opium version  : 3.7 
#Compile Host   : onefish 
#Compile OS     : Linux 2.6.37-ARCH Intel(R) Core(TM)2 Duo CPU E7500 @ 2.93GHz 
#Compile Date   : Fri Jul 20 04:33:21 EDT 2012 
#-----------------------------------------------------------
#Execution Host : thidwick 
#Execution Date : Fri May 16 15:35:09 2014
 
#-----------------------------------------------------------
############################################################
[Atom]
O  
3
100   2.00   -
200   2.00   -
210   4.00   -

[Pseudo]
2  1.34 1.53
opt

[Optinfo]
7.07  10
7.07  10
conmax

[Configs]
2
#
200  2.00  -
210  4.20  -
#
200  2.00  -
210  4.40  -

[XC]
pbesol
############################################################
  </PP_INFO>



<PP_HEADER>
   0         Version Number
   O        Element
   NC        Norm - Conserving pseudopotential
    F      Nonlinear Core Correction
SLA PW PSX PSC PBEsol    Exchange-Correlation functional
 6          Z valence
 0          Total energy
 0.000000   0.000000     Suggested cutoff for wfc and rho
 1           Max angular momentum component
 1130           Number of points in mesh
 2  1     Number of Wavefuncitons, Number of Projectors
 Wavefunctions         nl  l   occ
                       S  0  2.000000
                       P  1  4.000000
</PP_HEADER>
<PP_MESH>
  <PP_R>
 5.0000000000000009e-05  5.0654243367990460e-05  5.1317047423672103e-05  5.1988524182507883e-05 
 5.2668787125668225e-05  5.3357951219209659e-05  5.4056132933504183e-05  5.4763450262923291e-05 
 5.5480022745779141e-05  5.6205971484526852e-05  5.6941419166231099e-05  5.7686490083300517e-05 
 5.8441310154493449e-05  5.9206006946198454e-05  5.9980709693993451e-05  6.0765549324486566e-05 
 6.1560658477443416e-05  6.2366171528203268e-05  6.3182224610388901e-05  6.4008955638913503e-05 
 6.4846504333288587e-05  6.5695012241236955e-05  6.6554622762614576e-05  6.7425481173645578e-05 
 6.8307734651474022e-05  6.9201532299037602e-05  7.0107025170266043e-05  7.1024366295609773e-05 
 7.1953710707902313e-05  7.2895215468561300e-05  7.3849039694132113e-05  7.4815344583179110e-05 
 7.5794293443528482e-05  7.6786051719867504e-05  7.7790787021705414e-05  7.8808669151699581e-05 
 7.9839870134352638e-05  8.0884564245085029e-05  8.1942928039687926e-05  8.3015140384161615e-05 
 8.4101382484944379e-05  8.5201837919536436e-05  8.6316692667525528e-05  8.7446135142017493e-05 
 8.8590356221478737e-05  8.9749549281995021e-05  9.0923910229952565e-05  9.2113637535146681e-05 
 9.3318932264323603e-05  9.4539998115161292e-05  9.5777041450694861e-05  9.7030271334192132e-05 
 9.8299899564486325e-05  9.9586140711770176e-05  1.0088921215385896e-04  1.0220933411292785e-04 
 1.0354672969272992e-04  1.0490162491630129e-04  1.0627424876415963e-04  1.0766483321300200e-04 
 1.0907361327491011e-04  1.1050082703706741e-04  1.1194671570199664e-04  1.1341152362832352e-04 
 1.1489549837207399e-04  1.1639889072851173e-04  1.1792195477452322e-04  1.1946494791155725e-04 
 1.2102813090912659e-04  1.2261176794887811e-04  1.2421612666924087e-04  1.2584147821065713e-04 
 1.2748809726140589e-04  1.2915626210402580e-04  1.3084625466234571e-04  1.3255836054913031e-04 
 1.3429286911434955e-04  1.3605007349407901e-04  1.3783027066004131e-04  1.3963376146979454e-04 
 1.4146085071757800e-04  1.4331184718582325e-04  1.4518706369733898e-04  1.4708681716817882e-04 
 1.4901142866120094e-04  1.5096122344032838e-04  1.5293653102551959e-04  1.5493768524845798e-04 
 1.5696502430896989e-04  1.5901889083218195e-04  1.6109963192642500e-04  1.6320759924189635e-04 
 1.6534314903008944e-04  1.6750664220400129e-04  1.6969844439912779e-04  1.7191892603525631e-04 
 1.7416846237906848e-04  1.7644743360756049e-04  1.7875622487229412e-04  1.8109522636448828e-04 
 1.8346483338096221e-04  1.8586544639094158e-04  1.8829747110373873e-04  1.9076131853731866e-04 
 1.9325740508776174e-04  1.9578615259963617e-04  1.9834798843728976e-04  2.0094334555707661e-04 
 2.0357266258052724e-04  2.0623638386847661e-04  2.0893495959616230e-04  2.1166884582930515e-04 
 2.1443850460118566e-04  2.1724440399072798e-04  2.2008701820160743e-04  2.2296682764239134e-04 
 2.2588431900772945e-04  2.2883998536060636e-04  2.3183432621567057e-04  2.3486784762365330e-04 
 2.3794106225689265e-04  2.4105448949597616e-04  2.4420865551751748e-04  2.4740409338308176e-04 
 2.5064134312927317e-04  2.5392095185900409e-04  2.5724347383395562e-04  2.6060947056824943e-04 
 2.6401951092334508e-04  2.6747417120417868e-04  2.7097403525656047e-04  2.7451969456584481e-04 
 2.7811174835689413e-04  2.8175080369534871e-04  2.8543747559022197e-04  2.8917238709783873e-04 
 2.9295616942713333e-04  2.9678946204632513e-04  3.0067291279099035e-04  3.0460717797354788e-04 
 3.0859292249417751e-04  3.1263081995318997e-04  3.1672155276486579e-04  3.2086581227278683e-04 
 3.2506429886667361e-04  3.2931772210075341e-04  3.3362680081367623e-04  3.3799226325000059e-04 
 3.4241484718326883e-04  3.4689530004069119e-04  3.5143437902946479e-04  3.5603285126474223e-04 
 3.6069149389927598e-04  3.6541109425475938e-04  3.7019244995488562e-04  3.7503636906014803e-04 
 3.7994367020440444e-04  3.8491518273322812e-04  3.8995174684406910e-04  3.9505421372824955e-04 
 4.0022344571481771e-04  4.0546031641628186e-04  4.1076571087625511e-04  4.1614052571902860e-04 
 4.2158566930110367e-04  4.2710206186470493e-04  4.3269063569330556e-04  4.3835233526918392e-04 
 4.4408811743304374e-04  4.4989895154572243e-04  4.5578581965201537e-04  4.6174971664664384e-04 
 4.6779165044239461e-04  4.7391264214045951e-04  4.8011372620300409e-04  4.8639595062799406e-04 
 4.9276037712630964e-04  4.9920808130117685e-04  5.0574015282994799e-04  5.1235769564825738e-04 
 5.1906182813659231e-04  5.2585368330929961e-04  5.3273440900606923e-04  5.3970516808591999e-04 
 5.4676713862372771e-04  5.5392151410932149e-04  5.6116950364918652e-04  5.6851233217080602e-04 
 5.7595124062967678e-04  5.8348748621903351e-04  5.9112234258231801e-04  5.9885710002842722e-04 
 6.0669306574977916e-04  6.1463156404323088e-04  6.2267393653388855e-04  6.3082154240184463e-04 
 6.3907575861188351e-04  6.4743798014618942e-04  6.5590962024010492e-04  6.6449211062096945e-04 
 6.7318690175008496e-04  6.8199546306784570e-04  6.9091928324207998e-04  6.9995987041963697e-04 
 7.0911875248126708e-04  7.1839747729983774e-04  7.2779761300192751e-04  7.3732074823284338e-04 
 7.4696849242510534e-04  7.5674247607044438e-04  7.6664435099535954e-04  7.7667579064028078e-04 
 7.8683849034238366e-04  7.9713416762210621e-04  8.0756456247341396e-04  8.1813143765786074e-04 
 8.2883657900250382e-04  8.3968179570170949e-04  8.5066892062291336e-04  8.6179981061637611e-04 
 8.7307634682899996e-04  8.8450043502224412e-04  8.9607400589420360e-04  9.0779901540590196e-04 
 9.1967744511185345e-04  9.3171130249495009e-04  9.4390262130573152e-04  9.5625346190609303e-04 
 9.6876591161749255e-04  9.8144208507371187e-04  9.9428412457823597e-04  1.0072942004663060e-03 
 1.0204745114717135e-03  1.0338272850983867e-03  1.0473547779968507e-03  1.0610592763456016e-03 
 1.0749430962374799e-03  1.0890085840710897e-03  1.1032581169473533e-03  1.1176941030712421e-03 
 1.1323189821587701e-03  1.1471352258493116e-03  1.1621453381233146e-03  1.1773518557254784e-03 
 1.1927573485934714e-03  1.2083644202922545e-03  1.2241757084540913e-03  1.2401938852243132e-03 
 1.2564216577129197e-03  1.2728617684520846e-03  1.2895169958596533e-03  1.3063901547086963e-03 
 1.3234840966032200e-03  1.3408017104600900e-03  1.3583459229972665e-03  1.3761196992284231e-03 
 1.3941260429640473e-03  1.4123679973190874e-03  1.4308486452272468e-03  1.4495711099620078e-03 
 1.4685385556644720e-03  1.4877541878781072e-03  1.5072212540904926e-03  1.5269430442821517e-03 
 1.5469228914825669e-03  1.5671641723334685e-03  1.5876703076594968e-03  1.6084447630463285e-03 
 1.6294910494263708e-03  1.6508127236721109e-03  1.6724133891972456e-03  1.6942966965656603e-03 
 1.7164663441083861e-03  1.7389260785486207e-03  1.7616796956349424e-03  1.7847310407827944e-03 
 1.8080840097243712e-03  1.8317425491670063e-03  1.8557106574601751e-03  1.8799923852712255e-03 
 1.9045918362699506e-03  1.9295131678221181e-03  1.9547605916920754e-03  1.9803383747545480e-03 
 2.0062508397157511e-03  2.0325023658439374e-03  2.0590973897095053e-03  2.0860404059347831e-03 
 2.1133359679536422e-03  2.1409886887810291e-03  2.1690032417925821e-03  2.1973843615144340e-03 
 2.2261368444233690e-03  2.2552655497574329e-03  2.2847754003371555e-03  2.3146713833975220e-03 
 2.3449585514308245e-03  2.3756420230405468e-03  2.4067269838064205e-03  2.4382186871608020e-03 
 2.4701224552765091e-03  2.5024436799662882e-03  2.5351878235940393e-03  2.5683604199979704e-03 
 2.6019670754258285e-03  2.6360134694823657e-03  2.6705053560892125e-03  2.7054485644572995e-03 
 2.7408490000720089e-03  2.7767126456912164e-03  2.8130455623563934e-03  2.8498538904169258e-03 
 2.8871438505678674e-03  2.9249217449012362e-03  2.9631939579710903e-03  3.0019669578725296e-03 
 3.0412472973348212e-03  3.0810416148288251e-03  3.1213566356889121e-03  3.1621991732495641e-03 
 3.2035761299968324e-03  3.2454944987348913e-03  3.2879613637678273e-03  3.3309839020969063e-03 
 3.3745693846335039e-03  3.4187251774279053e-03  3.4634587429141894e-03  3.5087776411713927e-03 
 3.5546895312011870e-03  3.6012021722222564e-03  3.6483234249816408e-03  3.6960612530832098e-03 
 3.7444237243335335e-03  3.7934190121053598e-03  3.8430553967189365e-03  3.8933412668414021e-03 
 3.9442851209044926e-03  3.9958955685408006e-03  4.0481813320388050e-03  4.1011512478169882e-03 
 4.1548142679171890e-03  4.2091794615175277e-03  4.2642560164651167e-03  4.3200532408288307e-03 
 4.3765805644723895e-03  4.4338475406480284e-03  4.4918638476110278e-03  4.5506392902553393e-03 
 4.6101838017706667e-03  4.6705074453211757e-03  4.7316204157462037e-03  4.7935330412832078e-03 
 4.8562557853132609e-03  4.9197992481293902e-03  4.9841741687280516e-03  5.0493914266240489e-03 
 5.1154620436891819e-03  5.1823971860149925e-03  5.2502081657998462e-03  5.3189064432607232e-03 
 5.3885036285700235e-03  5.4590114838177122e-03  5.5304419249991420e-03  5.6028070240288826e-03 
 5.6761190107809121e-03  5.7503902751554706e-03  5.8256333691730161e-03  5.9018610090955225e-03 
 5.9790860775755664e-03  6.0573216258335240e-03  6.1365808758632578e-03  6.2168772226666698e-03 
 6.2982242365174817e-03  6.3806356652546525e-03  6.4641254366057770e-03  6.5487076605409318e-03 
 6.6343966316572750e-03  6.7212068315948741e-03  6.8091529314841361e-03  6.8982497944252612e-03 
 6.9885124780001452e-03  7.0799562368171476e-03  7.1725965250891595e-03  7.2664489992453783e-03 
 7.3615295205773212e-03  7.4578541579193944e-03  7.5554391903645702e-03  7.6543011100155935e-03 
 7.7544566247721870e-03  7.8559226611547243e-03  7.9587163671648517e-03  8.0628551151835526e-03 
 8.1683565049070865e-03  8.2752383663214305e-03  8.3835187627155482e-03  8.4932159937341524e-03 
 8.6043485984703717e-03  8.7169353585989165e-03  8.8309953015502131e-03  8.9465477037260939e-03 
 9.0636120937575629e-03  9.1822082558051417e-03  9.3023562329024954e-03  9.4240763303437176e-03 
 9.5473891191149816e-03  9.6723154393710854e-03  9.7988764039574888e-03  9.9270934019784346e-03 
 1.0056988102411759e-02  1.0188582457771003e-02  1.0321898707815415e-02  1.0456959383308564e-02 
 1.0593787309826066e-02  1.0732405611613169e-02  1.0872837715492798e-02  1.1015107354824751e-02 
 1.1159238573516689e-02  1.1305255730087621e-02  1.1453183501784548e-02  1.1603046888752952e-02 
 1.1754871218261929e-02  1.1908682148984525e-02  1.2064505675334113e-02  1.2222368131857524e-02 
 1.2382296197685636e-02  1.2544316901042222e-02  1.2708457623811769e-02  1.2874746106167113e-02 
 1.3043210451257527e-02  1.3213879129958308e-02  1.3386780985682361e-02  1.3561945239254828e-02 
 1.3739401493851472e-02  1.3919179740001680e-02  1.4101310360656944e-02  1.4285824136325641e-02 
 1.4472752250275034e-02  1.4662126293801260e-02  1.4853978271568419e-02  1.5048340607017378e-02 
 1.5245246147845429e-02  1.5444728171557625e-02  1.5646820391090763e-02  1.5851556960510941e-02 
 1.6058972480785687e-02  1.6269102005631603e-02  1.6481981047438497e-02  1.6697645583271116e-02 
 1.6916132060949322e-02  1.7137477405207855e-02  1.7361719023936725e-02  1.7588894814503212e-02 
 1.7819043170156621e-02  1.8052202986516830e-02  1.8288413668147770e-02  1.8527715135216800e-02 
 1.8770147830241439e-02  1.9015752724924156e-02  1.9264571327076718e-02  1.9516645687635097e-02 
 1.9772018407766191e-02  2.0030732646067514e-02  2.0292832125861106e-02  2.0558361142582887e-02 
 2.0827364571268638e-02  2.1099887874138076e-02  2.1375977108278016e-02  2.1655678933426147e-02 
 2.1939040619856638e-02  2.2226110056368927e-02  2.2516935758381033e-02  2.2811566876128789e-02 
 2.3110053202972370e-02  2.3412445183811394e-02  2.3718793923610367e-02  2.4029151196035454e-02 
 2.4343569452204374e-02  2.4662101829550767e-02  2.4984802160804544e-02  2.5311724983089742e-02 
 2.5642925547141437e-02  2.5978459826643263e-02  2.6318384527687019e-02  2.6662757098356256e-02 
 2.7011635738435055e-02  2.7365079409243955e-02  2.7723147843604554e-02  2.8085901555934496e-02 
 2.8453401852474552e-02  2.8825710841649529e-02  2.9202891444564748e-02  2.9585007405639779e-02 
 2.9972123303381545e-02  3.0364304561298135e-02  3.0761617458955566e-02  3.1164129143179186e-02 
 3.1571907639401646e-02  3.1985021863159359e-02  3.2403541631739391e-02  3.2827537675978784e-02 
 3.3257081652218100e-02  3.3692246154411715e-02  3.4133104726396225e-02  3.4579731874319591e-02 
 3.5032203079232827e-02  3.5490594809846482e-02  3.5954984535454051e-02  3.6425450739024451e-02 
 3.6902072930465879e-02  3.7384931660063028e-02  3.7874108532090479e-02  3.8369686218603892e-02 
 3.8871748473411821e-02  3.9380380146230270e-02  3.9895667197022554e-02  4.0417696710526675e-02 
 4.0946556910972910e-02  4.1482337176993900e-02  4.2025128056729741e-02  4.2575021283131044e-02 
 4.3132109789461859e-02  4.3696487725005687e-02  4.4268250470976912e-02  4.4847494656640452e-02 
 4.5434318175642335e-02  4.6028820202553979e-02  4.6631101209632937e-02  4.7241262983802816e-02 
 4.7859408643855732e-02  4.8485642657879482e-02  4.9120070860912940e-02  4.9762800472832408e-02 
 5.0413940116472059e-02  5.1073599835981455e-02  5.1741891115423239e-02  5.2418926897614279e-02 
 5.3104821603213087e-02  5.3799691150057456e-02  5.4503652972754654e-02  5.5216826042528207e-02 
 5.5939330887324341e-02  5.6671289612181451e-02  5.7412825919866170e-02  5.8164065131779422e-02 
 5.8925134209136108e-02  5.9696161774421601e-02  6.0477278133129607e-02  6.1268615295783889e-02 
 6.2070307000248390e-02  6.2882488734329264e-02  6.3705297758672660e-02  6.4538873129962024e-02 
 6.5383355724419126e-02  6.6238888261612422e-02  6.7105615328576840e-02  6.7983683404249637e-02 
 6.8873240884225487e-02  6.9774438105835751e-02  7.0687427373555822e-02  7.1612362984744937e-02 
 7.2549401255722831e-02  7.3498700548187523e-02  7.4460421295978949e-02  7.5434726032192340e-02 
 7.6421779416647101e-02  7.7421748263714521e-02  7.8434801570509749e-02  7.9461110545452809e-02 
 8.0500848637203193e-02  8.1554191563973061e-02  8.2621317343224102e-02  8.3702406321752965e-02 
 8.4797641206169935e-02  8.5907207093777360e-02  8.7031291503851083e-02  8.8170084409331842e-02 
 8.9323778268931120e-02  9.0492568059657080e-02  9.1676651309766183e-02  9.2876228132145938e-02 
 9.4091501258134522e-02  9.5322676071782519e-02  9.6569960644563843e-02  9.7833565770539935e-02 
 9.9113705001984603e-02  1.0041059468547482e-01  1.0172445399845381e-01  1.0305550498627257e-01 
 1.0440397259971609e-01  1.0577008473302060e-01  1.0715407226238795e-01  1.0855616908500469e-01 
 1.0997661215857098e-01  1.1141564154134705e-01  1.1287350043272361e-01  1.1435043521432314e-01 
 1.1584669549163899e-01  1.1736253413621929e-01  1.1889820732840288e-01  1.2045397460061411e-01 
 1.2203009888122496e-01  1.2362684653899017e-01  1.2524448742806432e-01  1.2688329493360781e-01 
 1.2854354601798962e-01  1.3022552126759451e-01  1.3192950494024297e-01  1.3365578501323144e-01 
 1.3540465323200074e-01  1.3717640515944240e-01  1.3897134022584914e-01  1.4078976177951927e-01 
 1.4263197713802339e-01  1.4449829764014174e-01  1.4638903869848122e-01  1.4830451985278081e-01 
 1.5024506482391461e-01  1.5221100156860146e-01  1.5420266233483029e-01  1.5622038371801097e-01 
 1.5826450671785988e-01  1.6033537679602869e-01  1.6243334393448974e-01  1.6455876269468278e-01 
 1.6671199227743699e-01  1.6889339658367677e-01  1.7110334427592180e-01  1.7334220884059201e-01 
 1.7561036865112747e-01  1.7790820703193463e-01  1.8023611232316894e-01  1.8259447794636527e-01 
 1.8498370247092705e-01  1.8740418968148551e-01  1.8985634864614023e-01  1.9234059378559265e-01 
 1.9485734494318405e-01  1.9740702745585015e-01  1.9999007222600448e-01  2.0260691579436041e-01 
 2.0525800041370962e-01  2.0794377412366263e-01  2.1066469082636885e-01  2.1342121036322706e-01 
 2.1621379859259982e-01  2.1904292746854445e-01  2.2190907512057462e-01  2.2481272593446525e-01 
 2.2775437063411483e-01  2.3073450636447901e-01  2.3375363677558925e-01  2.3681227210767081e-01 
 2.3991092927737470e-01  2.4305013196513767e-01  2.4623041070368559e-01  2.4945230296769461e-01 
 2.5271635326462627e-01  2.5602311322674853e-01  2.5937314170436593e-01  2.6276700486026450e-01 
 2.6620527626539536e-01  2.6968853699580941e-01  2.7321737573086052e-01  2.7679238885269392e-01 
 2.8041418054703615e-01  2.8408336290530367e-01  2.8780055602804805e-01  2.9156638812975433e-01 
 2.9538149564501082e-01  2.9924652333606777e-01  3.0316212440180423e-01  3.0712896058811978e-01 
 3.1114770229977134e-01  3.1521902871367319e-01  3.1934362789368004e-01  3.2352219690686906e-01 
 3.2775544194134948e-01  3.3204407842560762e-01  3.3638883114941676e-01  3.4079043438632806e-01 
 3.4524963201776487e-01  3.4976717765874021e-01  3.5434383478521958e-01  3.5898037686315026e-01 
 3.6367758747917889e-01  3.6843626047307926e-01  3.7325720007191360e-01  3.7814122102594827e-01 
 3.8308914874634908e-01  3.8810181944467720e-01  3.9318008027421136e-01  3.9832478947311850e-01 
 4.0353681650949885e-01  4.0881704222832521e-01  4.1416635900031235e-01  4.1958567087272647e-01 
 4.2507589372217258e-01  4.3063795540937955e-01  4.3627279593601059e-01  4.4198136760352635e-01 
 4.4776463517412551e-01  4.5362357603379222e-01  4.5955918035747667e-01  4.6557245127643682e-01 
 4.7166440504777019e-01  4.7783607122616351e-01  4.8408849283789013e-01  4.9042272655708380e-01 
 4.9683984288431915e-01  5.0334092632752880e-01  5.0992707558528882e-01  5.1659940373249769e-01 
 5.2335903840849385e-01  5.3020712200762621e-01  5.3714481187232210e-01  5.4417328048868108e-01 
 5.5129371568462759e-01  5.5850732083065724e-01  5.6581531504320870e-01  5.7321893339069763e-01 
 5.8071942710224622e-01  5.8831806377914342e-01  5.9601612760907319e-01  6.0381491958314493e-01 
 6.1171575771576414e-01  6.1971997726737993e-01  6.2782893097014758e-01  6.3604398925654260e-01 
 6.4436654049096942e-01  6.5279799120439286e-01  6.6133976633205205e-01  6.6999330945427416e-01 
 6.7876008304044277e-01  6.8764156869616000e-01  6.9663926741364024e-01  7.0575469982538230e-01 
 7.1498940646115927e-01  7.2434494800837212e-01  7.3382290557580954e-01  7.4342488096085868e-01 
 7.5315249692021335e-01  7.6300739744412327e-01  7.7299124803423280e-01  7.8310573598505395e-01 
 7.9335257066912401e-01  8.0373348382589305e-01  8.1425022985439355e-01  8.2490458610973239e-01 
 8.3569835320347641e-01  8.4663335530795469e-01  8.5771144046454939e-01  8.6893448089601877e-01 
 8.8030437332290778e-01  8.9182303928409778e-01  9.0349242546155206e-01  9.1531450400930858e-01 
 9.2729127288677982e-01  9.3942475619641186e-01  9.5171700452576291e-01  9.6417009529405728e-01 
 9.7678613310327445e-01  9.8956725009383162e-01  1.0025156063049203e+00  1.0156333900395589e+00 
 1.0289228182344214e+00  1.0423861368344998e+00  1.0560256211726831e+00  1.0698435763542875e+00 
 1.0838423376466271e+00  1.0980242708736787e+00  1.1123917728159118e+00  1.1269472716153508e+00 
 1.1416932271859364e+00  1.1566321316292567e+00  1.1717665096557188e+00  1.1870989190112302e+00 
 1.2026319509094650e+00  1.2183682304697838e+00  1.2343104171608861e+00  1.2504612052502668e+00 
 1.2668233242595537e+00  1.2833995394258022e+00  1.3001926521688312e+00  1.3172055005646588e+00 
 1.3344409598251581e+00  1.3519019427839667e+00  1.3695914003887630e+00  1.3875123221999852e+00 
 1.4056677368960726e+00  1.4240607127853206e+00  1.4426943583244318e+00  1.4615718226438517e+00 
 1.4806962960799810e+00  1.5000710107143480e+00  1.5196992409198400e+00  1.5395843039140786e+00 
 1.5597295603200383e+00  1.5801384147339992e+00  1.6008143163009325e+00  1.6217607592974137e+00 
 1.6429812837221665e+00  1.6644794758943200e+00  1.6862589690595216e+00  1.7083234440039539e+00 
 1.7306766296763978e+00  1.7533223038184347e+00  1.7762642936028938e+00  1.7995064762806525e+00 
 1.8230527798359024e+00  1.8469071836499864e+00  1.8710737191739248e+00  1.8955564706097403e+00 
 1.9203595756006966e+00  1.9454872259305709e+00  1.9709436682320753e+00  1.9967332047045474e+00 
 2.0228601938410331e+00  2.0493290511648805e+00  2.0761442499759801e+00  2.1033103221067462e+00 
 2.1308318586880302e+00  2.1587135109250184e+00  2.1869599908832997e+00  2.2155760722852169e+00 
 2.2445665913166359e+00  2.2739364474442727e+00  2.3036906042437164e+00  2.3338340902382839e+00 
 2.3643719997488524e+00  2.3953094937548127e+00  2.4266518007662858e+00  2.4584042177077543e+00 
 2.4905721108132557e+00  2.5231609165332869e+00  2.5561761424535789e+00  2.5896233682258925e+00 
 2.6235082465109949e+00  2.6578365039339564e+00  2.6926139420519908e+00  2.7278464383349137e+00 
 2.7635399471584536e+00  2.7997005008105558e+00  2.8363342105108531e+00  2.8734472674434763e+00 
 2.9110459438033800e+00  2.9491365938563572e+00  2.9877256550129268e+00  3.0268196489162698e+00 
 3.0664251825444029e+00  3.1065489493267746e+00  3.1471977302754697e+00  3.1883783951312163e+00 
 3.2300979035243893e+00  3.2723633061512030e+00  3.3151817459653037e+00  3.3585604593849196e+00 
 3.4025067775158711e+00  3.4470281273905172e+00  3.4921320332229535e+00  3.5378261176806158e+00 
 3.5841181031725351e+00  3.6310158131544381e+00  3.6785271734509331e+00  3.7266602135949918e+00 
 3.7754230681849603e+00  3.8248239782593236e+00  3.8748712926894640e+00  3.9255734695906375e+00 
 3.9769390777514166e+00  4.0289767980818354e+00  4.0816954250804844e+00  4.1351038683208019e+00 
 4.1892111539568200e+00  4.2440264262485776e+00  4.2995589491075652e+00  4.3558181076623175e+00 
 4.4128134098445333e+00  4.4705544879959360e+00  4.5290511004961616e+00  4.5883131334119511e+00 
 4.6483506021679162e+00  4.7091736532391719e+00  4.7707925658661141e+00  4.8332177537916357e+00 
 4.8964597670210734e+00  4.9605292936051857e+00  5.0254371614464572e+00  5.0911943401290394e+00 
 5.1578119427726383e+00  5.2253012279106574e+00  5.2936736013929249e+00  5.3629406183132744e+00 
 5.4331139849624357e+00  5.5042055608063931e+00  5.5762273604906678e+00  5.6491915558708268e+00 
 5.7231104780695494e+00  5.7979966195606227e+00  5.8738626362801947e+00  5.9507213497656597e+00 
 6.0285857493225272e+00  6.1074689942196478e+00  6.1873844159131579e+00  6.2683455202995315e+00 
 6.3503659899981040e+00  6.4334596866634719e+00  6.5176406533281419e+00  6.6029231167758402e+00 
 6.6893214899458808e+00  6.7768503743689434e+00  6.8655245626348327e+00  6.9553590408924206e+00 
 7.0463689913823471e+00  7.1385697950028568e+00  7.2319770339092084e+00  7.3266064941470956e+00 
 7.4224741683205258e+00  7.5195962582946088e+00  7.6179891779337101e+00  7.7176695558754336e+00 
 7.8186542383409003e+00  7.9209602919817996e+00  8.0246050067646966e+00  8.1296058988930717e+00 
 8.2359807137676100e+00  8.3437474289852034e+00  8.4529242573772390e+00  8.5635296500875313e+00 
 8.6755822996907188e+00  8.7891011433512798e+00  8.9041053660239768e+00  9.0206144036961646e+00 
 9.1386479466725117e+00  9.2582259429027136e+00  9.3793686013527395e+00  9.5020963954201978e+00 
 9.6264300663943896e+00  9.7523906269616383e+00  9.8799993647564772e+00  1.0009277845959312e+01 
 1.0140247918941165e+01  1.0272931717956091e+01  1.0407351666881922e+01  1.0543530483009960e+01 
 1.0681491180884267e+01  1.0821257076191108e+01  1.0962851789699464e+01  1.1106299251252926e+01 
 1.1251623703813918e+01  1.1398849707560807e+01  1.1548002144038637e+01  1.1699106220364174e+01 
 1.1852187473485957e+01  1.2007271774500110e+01  1.2164385333022624e+01  1.2323554701618832e+01 
 1.2484806780290866e+01  1.2648168821023816e+01  1.2813668432391385e+01  1.2981333584221799e+01 
 1.3151192612324776e+01  1.3323274223280347e+01  1.3497607499290357e+01  1.3674221903093335e+01 
 1.3853147282943906e+01  1.4034413877657126e+01  1.4218052321718934e+01  1.4404093650463452e+01 
 1.4592569305318033e+01  1.4783511139116941e+01  1.4976951421484547e+01  1.5172922844288975e+01 
 1.5371458527167112e+01  1.5572592023121901e+01  1.5776357324192871e+01  1.5982788867200886e+01 
 1.6191921539568042e+01  1.6403790685213728e+01  1.6618432110527820e+01  1.6835882090422068e+01 
 1.7056177374460656e+01  1.7279355193070849e+01  1.7505453263835211e+01  1.7734509797865829e+01 
 1.7966563506262137e+01  1.8201653606653164e+01  1.8439819829825410e+01  1.8681102426437452e+01 
 1.8925542173822393e+01  1.9173180382879334e+01  1.9424058905055002e+01  1.9678220139416766e+01 
 1.9935707039818155e+01  2.0196563122158189e+01  2.0460832471735639e+01  2.0728559750699574e+01 
 2.0999790205597357e+01  2.1274569675021414e+01  2.1552944597356124e+01  2.1834962018625841e+01 
 2.2120669600446028e+01  2.2410115628078024e+01  2.2703349018589410e+01  2.3000419329121105e+01 
 2.3301376765262642e+01  2.3606272189537041e+01  2.3915157129996683e+01  2.4228083788931681e+01 
 2.4545105051692193e+01  2.4866274495626165e+01  2.5191646399134036e+01  2.5521275750841916e+01 
 2.5855218258894794e+01  2.6193530360371344e+01  2.6536269230821937e+01  2.6883492793931424e+01 
 2.7235259731308446e+01  2.7591629492402568e+01  2.7952662304551648e+01  2.8318419183160241e+01 
 2.8688961942011368e+01  2.9064353203713196e+01  2.9444656410282423e+01  2.9829935833866120e+01 
 3.0220256587603874e+01  3.0615684636632068e+01  3.1016286809232142e+01  3.1422130808124738e+01 
 3.1833285221911620e+01  3.2249819536667303e+01  3.2671804147682373e+01  3.3099310371360460e+01 
 3.3532410457270863e+01  3.3971177600358985e+01  3.4415685953316199e+01  3.4866010639112183e+01 
 3.5322227763690663e+01  3.5784414428831518e+01  3.6252648745181219e+01  3.6727009845453658e+01 
 3.7207577897803823e+01  3.7694434119376346e+01  3.8187660790031451e+01  3.8687341266250392e+01 
 3.9193559995222948e+01  3.9706402529119153e+01  4.0225955539547869e+01  4.0752306832204425e+01 
 4.1285545361710064e+01  4.1825761246645420e+01  4.2373045784780814e+01  4.2927491468505863e+01 
 4.3489192000460598e+01  4.4058242309371899e+01  4.4634738566096352e+01  4.5218778199873476e+01 
 4.5810459914791451e+01  4.6409883706468342e+01  4.7017150878951647e+01  4.7632364061838857e+01 
 4.8255627227622156e+01  4.8887045709259979e+01  4.9526726217978570e+01  5.0174776861306398e+01 
 5.0831307161344611e+01  5.1496428073276519e+01  5.2170252004119284e+01  5.2852892831721000e+01 
 5.3544465924006275e+01  5.4245088158473806e+01  5.4954877941948588e+01  5.5673955230593478e+01 
 5.6402441550181742e+01  5.7140460016635252e+01  5.7888135356831398e+01  5.8645593929682214e+01 
 5.9412963747489329e+01  6.0190374497578368e+01  6.0977957564216418e+01  6.1775846050816256e+01 
 6.2584174802431164e+01  6.3403080428544087e+01  6.4232701326154881e+01  6.5073177703169861e+01 
 6.5924651602097114e+01  6.6787266924052176e+01  6.7661169453077562e+01  6.8546506880780768e+01 
 6.9443428831294028e+01  7.0352086886561850e+01  7.1272634611958281e+01  7.2205227582239885e+01 
 7.3150023407838319e+01  7.4107181761496818e+01  7.5076864405255265e+01  7.6059235217788398e+01 
 7.7054460222101667e+01  7.8062707613589552e+01  7.9084147788460939e+01  8.0118953372536481e+01 
 8.1167299250422843e+01  8.2229362595068565e+01  8.3305322897706674e+01  8.4395361998189230e+01 
 8.5499664115718602e+01  8.6618415879981171e+01  8.7751806362687503e+01  8.8900027109526917e+01 
 9.0063272172538504e+01  9.1241738142906556e+01  9.2435624184184917e+01  9.3645132065956133e+01 
 9.4870466197930966e+01  9.6111833664494142e+01  9.7369444259702078e+01  9.8643510522738609e+01 
 9.9934247773834571e+01  1.0124187415065748e+02  1.0256661064517732e+02  1.0390868114101464e+02 
 1.0526831245127751e+02  1.0664573435689341e+02  1.0804117964544280e+02  1.0945488415050092e+02 
 1.1088708679149349e+02  1.1233802961407581e+02  1.1380795783103829e+02  1.1529711986374818e+02 
 1.1680576738413333e+02  1.1833415535721542e+02 
  </PP_R>
  <PP_RAB>
 6.5000000000000013e-07  6.5850516378387596e-07  6.6712161650773727e-07  6.7585081437260243e-07 
 6.8469423263368687e-07  6.9365336584972550e-07  7.0272972813555430e-07  7.1192485341800278e-07 
 7.2124029569512884e-07  7.3067762929884900e-07  7.4023844916100429e-07  7.4992437108290664e-07 
 7.5973703200841483e-07  7.6967809030057986e-07  7.7974922602191484e-07  7.8995214121832527e-07 
 8.0028856020676433e-07  8.1076022986664247e-07  8.2136891993505566e-07  8.3211642330587547e-07 
 8.4300455633275163e-07  8.5403515913608035e-07  8.6521009591398940e-07  8.7653125525739243e-07 
 8.8800055046916223e-07  8.9961991988748880e-07  9.1139132721345850e-07  9.2331676184292700e-07 
 9.3539823920273007e-07  9.4763780109129686e-07  9.6003751602371740e-07  9.7259947958132838e-07 
 9.8532581476587020e-07  9.9821867235827757e-07  1.0112802312821703e-06  1.0245126989720946e-06 
 1.0379183117465842e-06  1.0514993351861052e-06  1.0652580645159429e-06  1.0791968249941011e-06 
 1.0933179723042768e-06  1.1076238929539737e-06  1.1221170046778318e-06  1.1367997568462274e-06 
 1.1516746308792236e-06  1.1667441406659352e-06  1.1820108329893834e-06  1.1974772879569067e-06 
 1.2131461194362067e-06  1.2290199754970967e-06  1.2451015388590331e-06  1.2613935273444976e-06 
 1.2778986943383221e-06  1.2946198292530122e-06  1.3115597580001664e-06  1.3287213434680618e-06 
 1.3461074860054889e-06  1.3637211239119168e-06  1.3815652339340751e-06  1.3996428317690260e-06 
 1.4179569725738314e-06  1.4365107514818763e-06  1.4553073041259562e-06  1.4743498071682057e-06 
 1.4936414788369618e-06  1.5131855794706524e-06  1.5329854120688017e-06  1.5530443228502441e-06 
 1.5733657018186455e-06  1.5939529833354154e-06  1.6148096467001312e-06  1.6359392167385425e-06 
 1.6573452643982765e-06  1.6790314073523353e-06  1.7010013106104941e-06  1.7232586871386939e-06 
 1.7458072984865441e-06  1.7686509554230271e-06  1.7917935185805368e-06  1.8152388991073290e-06 
 1.8389910593285138e-06  1.8630540134157023e-06  1.8874318280654066e-06  1.9121286231863244e-06 
 1.9371485725956120e-06  1.9624959047242689e-06  1.9881749033317544e-06  2.0141899082299537e-06 
 2.0405453160166085e-06  2.0672455808183652e-06  2.0942952150435249e-06  2.1216987901446525e-06 
 2.1494609373911628e-06  2.1775863486520165e-06  2.2060797771886611e-06  2.2349460384583320e-06 
 2.2641900109278901e-06  2.2938166368982862e-06  2.3238309233398234e-06  2.3542379427383477e-06 
 2.3850428339525088e-06  2.4162508030822405e-06  2.4478671243486033e-06  2.4798971409851425e-06 
 2.5123462661409026e-06  2.5452199837952703e-06  2.5785238496847668e-06  2.6122634922419957e-06 
 2.6464446135468539e-06  2.6810729902901957e-06  2.7161544747501097e-06  2.7516949957809669e-06 
 2.7877005598154137e-06  2.8241772518794635e-06  2.8611312366208966e-06  2.8985687593510875e-06 
 2.9364961471004825e-06  2.9749198096878825e-06  3.0138462408037172e-06  3.0532820191074929e-06 
 3.0932338093396043e-06  3.1337083634476901e-06  3.1747125217277269e-06  3.2162532139800629e-06 
 3.2583374606805509e-06  3.3009723741670529e-06  3.3441651598414231e-06  3.3879231173872424e-06 
 3.4322536420034859e-06  3.4771642256543224e-06  3.5226624583352859e-06  3.5687560293559822e-06 
 3.6154527286396238e-06  3.6627604480395331e-06  3.7106871826728853e-06  3.7592410322719032e-06 
 3.8084302025527329e-06  3.8582630066022267e-06  3.9087478662828744e-06  3.9598933136561225e-06 
 4.0117079924243079e-06  4.0642006593914698e-06  4.1173801859432552e-06  4.1712555595462283e-06 
 4.2258358852667568e-06  4.2811303873097944e-06  4.3371484105777904e-06  4.3938994222500071e-06 
 4.4513930133824949e-06  4.5096389005289848e-06  4.5686469273830421e-06  4.6284270664416491e-06 
 4.6889894206905873e-06  4.7503442253118715e-06  4.8125018494135125e-06  4.8754727977819245e-06 
 4.9392677126572578e-06  5.0038973755319655e-06  5.0693727089728985e-06  5.1357047784672437e-06 
 5.2029047942926296e-06  5.2709841134116642e-06  5.3399542413913166e-06  5.4098268343473716e-06 
 5.4806137009143473e-06  5.5523268042411643e-06  5.6249782640129717e-06  5.6985803584993904e-06 
 5.7731455266295683e-06  5.8486863700943916e-06  5.9252156554761996e-06  6.0027463164063700e-06 
 6.0812914557511299e-06  6.1608643478259733e-06  6.2414784406390525e-06  6.3231473581639226e-06 
 6.4058849026420252e-06  6.4897050569152983e-06  6.5746219867893234e-06  6.6606500434273457e-06 
 6.7478037657757001e-06  6.8360978830208943e-06  6.9255473170788999e-06  7.0161671851169597e-06 
 7.1079728021084598e-06  7.2009796834211789e-06  7.2952035474394241e-06  7.3906603182204781e-06 
 7.4873661281857980e-06  7.5853373208474352e-06  7.6845904535701346e-06  7.7851423003695528e-06 
 7.8870098547471292e-06  7.9902103325620004e-06  8.0947611749405513e-06  8.2006800512239799e-06 
 8.3079848619544849e-06  8.4166937419004624e-06  8.5268250631213639e-06  8.6383974380726030e-06 
 8.7514297227511046e-06  8.8659410198819942e-06  8.9819506821470400e-06  9.0994783154552794e-06 
 9.2185437822564711e-06  9.3391672048978900e-06  9.4613689690250579e-06  9.5851697270269637e-06 
 9.7105904015263692e-06  9.8376521889157769e-06  9.9663765629396732e-06  1.0096785278323649e-05 
 1.0228900374450987e-05  1.0362744179087380e-05  1.0498339312154381e-05  1.0635708689552189e-05 
 1.0774875527032549e-05  1.0915863344122223e-05  1.1058695968097873e-05  1.1203397538012889e-05 
 1.1349992508776999e-05  1.1498505655289173e-05  1.1648962076624646e-05  1.1801387200276725e-05 
 1.1955806786454094e-05  1.2112246932434351e-05  1.2270734076974509e-05  1.2431295004779209e-05 
 1.2593956851027402e-05  1.2758747105958254e-05  1.2925693619517067e-05  1.3094824606061978e-05 
 1.3266168649132274e-05  1.3439754706279026e-05  1.3615612113959057e-05  1.3793770592492821e-05 
 1.3974260251087237e-05  1.4157111592924165e-05  1.4342355520315592e-05  1.4530023339926147e-05 
 1.4720146768064010e-05  1.4912757936041049e-05  1.5107889395603089e-05  1.5305574124431217e-05 
 1.5505845531715127e-05  1.5708737463799310e-05  1.5914284209903184e-05  1.6122520507916071e-05 
 1.6333481550267954e-05  1.6547202989877100e-05  1.6763720946175492e-05  1.6983072011213053e-05 
 1.7205293255841860e-05  1.7430422235981169e-05  1.7658496998964464e-05  1.7889556089969500e-05 
 1.8123638558532615e-05  1.8360783965148137e-05  1.8601032387954206e-05  1.8844424429506099e-05 
 1.9091001223638135e-05  1.9340804442415392e-05  1.9593876303176402e-05  1.9850259575667972e-05 
 2.0109997589273368e-05  2.0373134240335088e-05  2.0639713999573458e-05  2.0909781919602270e-05 
 2.1183383642542820e-05  2.1460565407737443e-05  2.1741374059564191e-05  2.2025857055353584e-05 
 2.2314062473409018e-05  2.2606039021132069e-05  2.2901836043254249e-05  2.3201503530176326e-05 
 2.3505092126416826e-05  2.3812653139171079e-05  2.4124238546982275e-05  2.4439901008525931e-05 
 2.4759693871509357e-05  2.5083671181687533e-05  2.5411887691996977e-05  2.5744398871809123e-05 
 2.6081260916304763e-05  2.6422530755971185e-05  2.6768266066223566e-05  2.7118525277152179e-05 
 2.7473367583397347e-05  2.7832852954153377e-05  2.8197042143303568e-05  2.8565996699687639e-05 
 2.8939778977503797e-05  2.9318452146846628e-05  2.9702080204383019e-05  3.0090727984167785e-05 
 3.0484461168600718e-05  3.0883346299527109e-05  3.1287450789483467e-05  3.1696842933090423e-05 
 3.2111591918594615e-05  3.2531767839561746e-05  3.2957441706722512e-05  3.3388685459973612e-05 
 3.3825571980535766e-05  3.4268175103270755e-05  3.4716569629159764e-05  3.5170831337944892e-05 
 3.5631037000936113e-05  3.6097264393985814e-05  3.6569592310633112e-05  3.7048100575420030e-05 
 3.7532870057382273e-05  3.8023982683716069e-05  3.8521521453624169e-05  3.9025570452342881e-05 
 3.9536214865352672e-05  4.0053540992774725e-05  4.0577636263955857e-05  4.1108589252244329e-05 
 4.1646489689958817e-05  4.2191428483553587e-05  4.2743497728981755e-05  4.3302790727259779e-05 
 4.3869402000235546e-05  4.4443427306562768e-05  4.5024963657884461e-05  4.5614109335228101e-05 
 4.6210963905615427e-05  4.6815628238889328e-05  4.7428204524761331e-05  4.8048796290081722e-05 
 4.8677508416335929e-05  4.9314447157369674e-05  4.9959720157346172e-05  5.0613436468938227e-05 
 5.1275706571758404e-05  5.1946642391030405e-05  5.2626357316504463e-05  5.3314966221620845e-05 
 5.4012585482923452e-05  5.4719332999727858e-05  5.5435328214046518e-05  5.6160692130774796e-05 
 5.6895547338141061e-05  5.7640018028424365e-05  5.8394230018943356e-05  5.9158310773319410e-05 
 5.9932389423018661e-05  6.0716596789175281e-05  6.1511065404700645e-05  6.2315929536681692e-05 
 6.3131325209072388e-05  6.3957390225682074e-05  6.4794264193464662e-05  6.5642088546112628e-05 
 6.6501006567959358e-05  6.7371163418194899e-05  6.8252706155398000e-05  6.9145783762389397e-05 
 7.0050547171410308e-05  7.0967149289630259e-05  7.1895745024988847e-05  7.2836491312375473e-05 
 7.3789547140151851e-05  7.4755073577021115e-05  7.5733233799249209e-05  7.6724193118241795e-05 
 7.7728119008482361e-05  7.8745181135835802e-05  7.9775551386222353e-05  8.0819403894666708e-05 
 8.1876915074727256e-05  8.2948263648310478e-05  8.4033630675875090e-05  8.5133199587032109e-05 
 8.6247156211544571e-05  8.7375688810733355e-05  8.8518988109293764e-05  8.9677247327528387e-05 
 9.0850662214001882e-05  9.2039431078622916e-05  9.3243754826159071e-05  9.4463836990189918e-05 
 9.5699883767505175e-05  9.6952104052952130e-05  9.8220709474739406e-05  9.9505914430202705e-05 
 1.0080793612203842e-04  1.0212699459501142e-04  1.0346331277314307e-04  1.0481711649738618e-04 
 1.0618863456379212e-04  1.0757809876217859e-04  1.0898574391530212e-04  1.1041180791854398e-04 
 1.1185653178011482e-04  1.1332015966178591e-04  1.1480293892015277e-04  1.1630512014843922e-04 
 1.1782695721884831e-04  1.1936870732546683e-04  1.2093063102773244e-04  1.2251299229446832e-04 
 1.2411605854849476e-04  1.2574010071182411e-04  1.2738539325144734e-04  1.2905221422571965e-04 
 1.3074084533135286e-04  1.3245157195102304e-04  1.3418468320160038e-04  1.3594047198301133e-04 
 1.3771923502773885e-04  1.3952127295097119e-04  1.4134689030140637e-04  1.4319639561272176e-04 
 1.4507010145571695e-04  1.4696832449113907e-04  1.4889138552319912e-04  1.5083960955378838e-04 
 1.5281332583740509e-04  1.5481286793679882e-04  1.5683857377934347e-04  1.5889078571414782e-04 
 1.6096985056991326e-04  1.6307611971354887e-04  1.6520994910955298e-04  1.6737169938017246e-04 
 1.6956173586634785e-04  1.7178042868945799e-04  1.7402815281387070e-04  1.7630528811031276e-04 
 1.7861221942006911e-04  1.8094933662002183e-04  1.8331703468854027e-04  1.8571571377223333e-04 
 1.8814577925357543e-04  1.9060764181941638e-04  1.9310171753038943e-04  1.9562842789122589e-04 
 1.9818819992199058e-04  2.0078146623024912e-04  2.0340866508417990e-04  2.0607024048664222e-04 
 2.0876664225021391e-04  2.1149832607321085e-04  2.1426575361670045e-04  2.1706939258252450e-04 
 2.1990971679234118e-04  2.2278720626770212e-04  2.2570234731117742e-04  2.2865563258854174e-04 
 2.3164756121203607e-04  2.3467863882471878e-04  2.3774937768592099e-04  2.4086029675781837e-04 
 2.4401192179313871e-04  2.4720478542401402e-04  2.5043942725199732e-04  2.5371639393925624e-04 
 2.5703623930096049e-04  2.6039952439887770e-04  2.6380681763619437e-04  2.6725869485357754e-04 
 2.7075573942649228e-04  2.7429854236379496e-04  2.7788770240761421e-04  2.8152382613453990e-04 
 2.8520752805813628e-04  2.8893943073279605e-04  2.9272016485895342e-04  2.9655036938967426e-04 
 3.0043069163864080e-04  3.0436178738954810e-04  3.0834432100693474e-04  3.1237896554846088e-04 
 3.1646640287865682e-04  3.2060732378415995e-04  3.2480242809045904e-04  3.2905242478016664e-04 
 3.3335803211283866e-04  3.3771997774636239e-04  3.4213899885993126e-04  3.4661584227863132e-04 
 3.5115126459965568e-04  3.5574603232017138e-04  3.6040092196685917e-04  3.6511672022714845e-04 
 3.6989422408216917e-04  3.7473424094144387e-04  3.7963758877934169e-04  3.8460509627331711e-04 
 3.8963760294396008e-04  3.9473595929687572e-04  3.9990102696642235e-04  4.0513367886132941e-04 
 4.1043479931222139e-04  4.1580528422107164e-04  4.2124604121261206e-04  4.2675798978772416e-04 
 4.3234206147883526e-04  4.3799920000735227e-04  4.4373036144315089e-04  4.4953651436615465e-04 
 4.5541864003002672e-04  4.6137773252800425e-04  4.6741479896090263e-04  4.7353085960731784e-04 
 4.7972694809605640e-04  4.8600411158081935e-04  4.9236341091717616e-04  4.9880592084185053e-04 
 5.0533273015435369e-04  5.1194494190099347e-04  5.1864367356129317e-04  5.2543005723684679e-04 
 5.3230523984264776e-04  5.3927038330092063e-04  5.4632666473748660e-04  5.5347527668070352e-04 
 5.6071742726300413e-04  5.6805434042507389e-04  5.7548725612269983e-04  5.8301743053632590e-04 
 5.9064613628335028e-04  5.9837466263320171e-04  6.0620431572522813e-04  6.1413641878943655e-04 
 6.2217231237012450e-04  6.3031335455243328e-04  6.3856092119186816e-04  6.4691640614682124e-04 
 6.5538122151413670e-04  6.6395679786775889e-04  6.7264458450050205e-04  6.8144604966898555e-04 
 6.9036268084177014e-04  6.9939598495074695e-04  7.0854748864581046e-04  7.1781873855286671e-04 
 7.2721130153521635e-04  7.3672676495835886e-04  7.4636673695826019e-04  7.5613284671313240e-04 
 7.6602674471876935e-04  7.7605010306748079e-04  7.8620461573068485e-04  7.9649199884519056e-04 
 8.0691399100322905e-04  8.1747235354628044e-04  8.2816887086274455e-04  8.3900535068950628e-04 
 8.4998362441744864e-04  8.6110554740096139e-04  8.7237299927149883e-04  8.8378788425524523e-04 
 8.9535213149493124e-04  9.0706769537586475e-04  9.1893655585622560e-04  9.3096071880168418e-04 
 9.4314221632439677e-04  9.5548310712643774e-04  9.6798547684772633e-04  9.8065143841850042e-04 
 9.9348313241641234e-04  1.0064827274282888e-03  1.0196524204166267e-03  1.0329944370908865e-03 
 1.0465110322836414e-03  1.0602044903316498e-03  1.0740771254619133e-03  1.0881312821827884e-03 
 1.1023693356802091e-03  1.1167936922191056e-03  1.1314067895500639e-03  1.1462110973213138e-03 
 1.1612091174961045e-03  1.1764033847755421e-03  1.1917964670269602e-03  1.2073909657178972e-03 
 1.2231895163557487e-03  1.2391947889331728e-03  1.2554094883793299e-03  1.2718363550170192e-03 
 1.2884781650257997e-03  1.3053377309111727e-03  1.3224179019798994e-03  1.3397215648215434e-03 
 1.3572516437963091e-03  1.3750111015292678e-03  1.3930029394110433e-03  1.4112301981050609e-03 
 1.4296959580614227e-03  1.4484033400375116e-03  1.4673555056254068e-03  1.4865556577862008e-03 
 1.5060070413913068e-03  1.5257129437708508e-03  1.5456766952692373e-03  1.5659016698079834e-03 
 1.5863912854559245e-03  1.6071490050068721e-03  1.6281783365648362e-03  1.6494828341369016e-03 
 1.6710660982338650e-03  1.6929317764787285e-03  1.7150835642231585e-03  1.7375252051720087e-03 
 1.7602604920160096e-03  1.7832932670727511e-03  1.8066274229360387e-03  1.8302669031337504e-03 
 1.8542157027943041e-03  1.8784778693218425e-03  1.9030575030802557e-03  1.9279587580861505e-03 
 1.9531858427108899e-03  1.9787430203918187e-03  2.0046346103527938e-03  2.0308649883341427e-03 
 2.0574385873321785e-03  2.0843598983483727e-03  2.1116334711483668e-03  2.1392639150308759e-03 
 2.1672558996066807e-03  2.1956141555877981e-03  2.2243434755869831e-03  2.2534487149276959e-03 
 2.2829347924646572e-03  2.3128066914151501e-03  2.3430694602011963e-03  2.3737282133027486e-03 
 2.4047881321220513e-03  2.4362544658593113e-03  2.4681325323998231e-03  2.5004277192127045e-03 
 2.5331454842613924e-03  2.5662913569260517e-03  2.5998709389380582e-03  2.6338899053266851e-03 
 2.6683540053782247e-03  2.7032690636076143e-03  2.7386409807427948e-03  2.7744757347219515e-03 
 2.8107793817037973e-03  2.8475580570910776e-03  2.8848179765674697e-03  2.9225654371480480e-03 
 2.9608068182434928e-03  2.9995485827382269e-03  3.0387972780826600e-03  3.0785595373997205e-03 
 3.1188420806058711e-03  3.1596517155467897e-03  3.2009953391479128e-03  3.2428799385800298e-03 
 3.2853125924401415e-03  3.3283004719477306e-03  3.3718508421567571e-03  3.4159710631834384e-03 
 3.4606685914501394e-03  3.5059509809455222e-03  3.5518258845011865e-03  3.5983010550850207e-03 
 3.6453843471114700e-03  3.6930837177689474e-03  3.7414072283646245e-03  3.7903630456868061e-03 
 3.8399594433851402e-03  3.8902048033688809e-03  3.9411076172234548e-03  3.9926764876455573e-03 
 4.0449201298970276e-03  4.0978473732777515e-03  4.1514671626178400e-03  4.2057885597892976e-03 
 4.2608207452375429e-03  4.3165730195328985e-03  4.3730548049424178e-03  4.4302756470222648e-03 
 4.4882452162309430e-03  4.5469733095636223e-03  4.6064698522078540e-03  4.6667448992209534e-03 
 4.7278086372293257e-03  4.7896713861500300e-03  4.8523436009348768e-03  4.9158358733373273e-03 
 4.9801589337025382e-03  5.0453236527808034e-03  5.1113410435647474e-03  5.1782222631505401e-03 
 5.2459786146234850e-03  5.3146215489682279e-03  5.3841626670040601e-03  5.4546137213454440e-03 
 5.5259866183882435e-03  5.5982934203219342e-03  5.6715463471681375e-03  5.7457577788458426e-03 
 5.8209402572636315e-03  5.8971064884392986e-03  5.9742693446471961e-03  6.0524418665936783e-03 
 6.1316372656210118e-03  6.2118689259401255e-03  6.2931504068925717e-03  6.3754954452420890e-03 
 6.4589179574961490e-03  6.5434320422578744e-03  6.6290519826087543e-03  6.7157922485224699e-03 
 6.8036674993104196e-03  6.8926925860991403e-03  6.9828825543401868e-03  7.0742526463528537e-03 
 7.1668183039001587e-03  7.2605951707985436e-03  7.3555990955617130e-03  7.4518461340790688e-03 
 7.5493525523292002e-03  7.6481348291288637e-03  7.7482096589179513e-03  7.8495939545808833e-03 
 7.9523048503049327e-03  8.0563597044759384e-03  8.1617761026119180e-03  8.2685718603350538e-03 
 8.3767650263826023e-03  8.4863738856571069e-03  8.5974169623166761e-03  8.7099130229055643e-03 
 8.8238810795257562e-03  8.9393403930500791e-03  9.0563104763773227e-03  9.1748110977299697e-03 
 9.2948622839950697e-03  9.4164843241088380e-03  9.5396977724855232e-03  9.6645234524911621e-03 
 9.7909824599627729e-03  9.9190961667736024e-03  1.0048886224445027e-02  1.0180374567805701e-02 
 1.0313583418698612e-02  1.0448535289736610e-02  1.0585252988107115e-02  1.0723759619426520e-02 
 1.0864078591645192e-02  1.1006233619003410e-02  1.1150248726039142e-02  1.1296148251648243e-02 
 1.1443956853197801e-02  1.1593699510693271e-02  1.1745401531000177e-02  1.1899088552121011e-02 
 1.2054786547528137e-02  1.2212521830553354e-02  1.2372321058834916e-02  1.2534211238822745e-02 
 1.2698219730342568e-02  1.2864374251219810e-02  1.3032702881963964e-02  1.3203234070514264e-02 
 1.3375996637047478e-02  1.3551019778848497e-02  1.3728333075244879e-02  1.3907966492605736e-02 
 1.4089950389406152e-02  1.4274315521357822e-02  1.4461093046606853e-02  1.4650314530999560e-02 
 1.4842011953417172e-02  1.5036217711180336e-02  1.5232964625524344e-02  1.5432285947145992e-02 
 1.5634215361823044e-02  1.5838786996107190e-02  1.6046035423091517e-02  1.6255995668253469e-02 
 1.6468703215374199e-02  1.6684194012535427e-02  1.6902504478194805e-02  1.7123671507340562e-02 
 1.7347732477727053e-02  1.7574725256191567e-02  1.7804688205053917e-02  1.8037660188599806e-02 
 1.8273680579648944e-02  1.8512789266209168e-02  1.8755026658217613e-02  1.9000433694370069e-02 
 1.9249051849039751e-02  1.9500923139286523e-02  1.9756090131957917e-02  2.0014595950883021e-02 
 2.0276484284160498e-02  2.0541799391541989e-02  2.0810586111912121e-02  2.1082889870866376e-02 
 2.1358756688388162e-02  2.1638233186626159e-02  2.1921366597773780e-02  2.2208204772051401e-02 
 2.2498796185793171e-02  2.2793189949639650e-02  2.3091435816837619e-02  2.3393584191648480e-02 
 2.3699686137866730e-02  2.4009793387449824e-02  2.4323958349261023e-02  2.4642234117926622e-02 
 2.4964674482809056e-02  2.5291333937097420e-02  2.5622267687016979e-02  2.5957531661159116e-02 
 2.6297182519933428e-02  2.6641277665143445e-02  2.6989875249687739e-02  2.7343034187387698e-02 
 2.7700814162944391e-02  2.8063275642025237e-02  2.8430479881482895e-02  2.8802488939707820e-02 
 2.9179365687116265e-02  2.9561173816775543e-02  2.9947977855168312e-02  3.0339843173097691e-02 
 3.0736835996735080e-02  3.1139023418812563e-02  3.1546473409961716e-02  3.1959254830200803e-02 
 3.2377437440572324e-02  3.2801091914932731e-02  3.3230289851896522e-02  3.3665103786936601e-02 
 3.4105607204642931e-02  3.4551874551141434e-02  3.5003981246675878e-02  3.5462003698353874e-02 
 3.5926019313059894e-02  3.6396106510537221e-02  3.6872344736641090e-02  3.7354814476765190e-02 
 3.7843597269443939e-02  3.8338775720132640e-02  3.8840433515168048e-02  3.9348655435911505e-02 
 3.9863527373077239e-02  4.0385136341248067e-02  4.0913570493581103e-02  4.1448919136705814e-02 
 4.1991272745817057e-02  4.2540722979965639e-02  4.3097362697548949e-02  4.3661285972003951e-02 
 4.4232588107706319e-02  4.4811365656076720e-02  4.5397716431898397e-02  4.5991739529848003e-02 
 4.6593535341242956e-02  4.7203205571007691e-02  4.7820853254862128e-02  4.8446582776734894e-02 
 4.9080499886404484e-02  4.9722711717371207e-02  5.0373326804963030e-02  5.1032455104678284e-02 
 5.1700208010768411e-02  5.2376698375063861e-02  5.3062040526046295e-02  5.3756350288170419e-02 
 5.4459745001438659e-02  5.5172343541231510e-02  5.5894266338398342e-02  5.6625635399610123e-02 
 5.7366574327978932e-02  5.8117208343947166e-02  5.8877664306450098e-02  5.9648070734355359e-02 
 6.0428557828182905e-02  6.1219257492109234e-02  6.2020303356259479e-02  6.2831830799291263e-02 
 6.3653976971273951e-02  6.4486880816867417e-02  6.5330683098803938e-02  6.6185526421677507e-02 
 6.7051555256044296e-02  6.7928915962838538e-02  6.8817756818108020e-02  6.9718228038072566e-02 
 7.0630481804511661e-02  7.1554672290483110e-02  7.2490955686378672e-02  7.3439490226320750e-02 
 7.4400436214904137e-02  7.5373956054288094e-02  7.6360214271642524e-02  7.7359377546953573e-02 
 7.8371614741192849e-02  7.9397096924855415e-02  8.0435997406871046e-02  8.1488491763893903e-02 
 8.2554757869975348e-02  8.3634975926625124e-02  8.4729328493265837e-02  8.5838000518085919e-02 
 8.6961179369296440e-02  8.8099054866796256e-02  8.9251819314252814e-02  9.0419667531601466e-02 
 9.1602796887970503e-02  9.2801407335037139e-02  9.4015701440819707e-02  9.5245884423912242e-02 
 9.6492164188166835e-02  9.7754751357829905e-02  9.9033859313138226e-02  1.0032970422638063e-01 
 1.0164250509843170e-01  1.0297248379576339e-01  1.0431986508794105e-01  1.0568487668560993e-01 
 1.0706774927897893e-01  1.0846871657680764e-01  1.0988801534590410e-01  1.1132588545113790e-01 
 1.1278256989597935e-01  1.1425831486356663e-01  1.1575336975831170e-01  1.1726798724805014e-01 
 1.1880242330674265e-01  1.2035693725773527e-01  1.2193179181758561e-01  1.2352725314046256e-01 
 1.2514359086312707e-01  1.2678107815050130e-01  1.2843999174183421e-01  1.3012061199747105e-01 
 1.3182322294623514e-01  1.3354811233342917e-01  1.3529557166946499e-01  1.3706589627912946e-01 
 1.3885938535149547e-01  1.4067634199048440e-01  1.4251707326609303e-01  1.4438189026628803e-01 
 1.4627110814958091e-01  1.4818504619829048e-01  1.5012402787250229e-01  1.5208838086473425e-01 
 1.5407843715531744e-01  1.5609453306850141e-01  1.5813700932929411e-01  1.6020621112104480e-01 
 1.6230248814378123e-01  1.6442619467330960e-01  1.6657768962108799e-01  1.6875733659488337e-01 
 1.7096550396022209e-01  1.7320256490264449e-01  1.7546889749077463e-01  1.7776488474021335e-01 
 1.8009091467827076e-01  1.8244738040954264e-01  1.8483468018234614e-01  1.8725321745602486e-01 
 1.8970340096913443e-01  1.9218564480852021e-01  1.9470036847929909e-01  1.9724799697575665e-01 
 1.9982896085317245e-01  2.0244369630058470e-01  2.0509264521450732e-01  2.0777625527361152e-01 
 2.1049498001438455e-01  2.1324927890777845e-01  2.1603961743686165e-01  2.1886646717548688e-01 
 2.2173030586798853e-01  2.2463161750992103e-01  2.2757089242985773e-01  2.3054862737225576e-01 
 2.3356532558140777e-01  2.3662149688649112e-01  2.3971765778773033e-01  2.4285433154368685e-01 
 2.4603204825969111e-01  2.4925134497743132e-01  2.5251276576571502e-01  2.5581686181241792e-01 
 2.5916419151763598e-01  2.6255532058805642e-01  2.6599082213256331e-01  2.6947127675909444e-01 
 2.7299727267276563e-01  2.7656940577527839e-01  2.8018827976562960e-01  2.8385450624213593e-01 
 2.8756870480579838e-01  2.9133150316501433e-01  2.9514353724166231e-01  2.9900545127857436e-01 
 3.0291789794841434e-01  3.0688153846398153e-01  3.1089704268995688e-01  3.1496508925611183e-01 
 3.1908636567199850e-01  3.2326156844314013e-01  3.2749140318874248e-01  3.3177658476094490e-01 
 3.3611783736563233e-01  3.4051589468482746e-01  3.4497150000068516e-01  3.4948540632110847e-01 
 3.5405837650700978e-01  3.5869118340123335e-01  3.6338460995917143e-01  3.6813944938108312e-01 
 3.7295650524614776e-01  3.7783659164827155e-01  3.8278053333367146e-01  3.8778916584025952e-01 
 3.9286333563885034e-01  3.9800390027621685e-01  4.0321172852001780e-01  4.0848770050562155e-01 
 4.1383270788485105e-01  4.1924765397667491e-01  4.2473345391987083e-01  4.3029103482768594e-01 
 4.3592133594452120e-01  4.4162530880466677e-01  4.4740391739311058e-01  4.5325813830845835e-01 
 4.5918896092797862e-01  4.6519738757480972e-01  4.7128443368735584e-01  4.7745112799089751e-01 
 4.8369851267144970e-01  4.9002764355189249e-01  4.9643959027040885e-01  5.0293543646125505e-01 
 5.0951627993789828e-01  5.1618323287854895e-01  5.2293742201412230e-01  5.2977998881865751e-01 
 5.3671208970223083e-01  5.4373489620639048e-01  5.5084959520215060e-01  5.5805738909057623e-01 
 5.6535949600598778e-01  5.7275715002183469e-01  5.8025160135925258e-01  5.8784411659835512e-01 
 5.9553597889228882e-01  6.0332848818408846e-01  6.1122296142637134e-01  6.1922073280390511e-01 
 6.2732315395908800e-01  6.3553159422037975e-01  6.4384744083372136e-01  6.5227209919698315e-01 
 6.6080699309747992e-01  6.6945356495259467e-01  6.7821327605355064e-01  6.8708760681237302e-01 
 6.9607805701208159e-01  7.0518614606015939e-01  7.1441341324533159e-01  7.2376141799771521e-01 
 7.3323174015236259e-01  7.4282598021625823e-01  7.5254575963880810e-01  7.6239272108586875e-01 
 7.7236852871736128e-01  7.8247486846851877e-01  7.9271344833481339e-01  8.0308599866061126e-01 
 8.1359427243160509e-01  8.2424004557107311e-01  8.3502511724001338e-01  8.4595131014120817e-01 
 8.5702047082726240e-01  8.6823447001267828e-01  8.7959520289000825e-01  8.9110458945014992e-01 
 9.0276457480682237e-01  9.1457712952530401e-01  9.2654424995545759e-01  9.3866795856911844e-01 
 9.5095030430189809e-01  9.6339336289945854e-01  9.7599923726831839e-01  9.8877005783124916e-01 
 1.0017079828873217e+00  1.0148151989766641e+00  1.0280939212499922e+00  1.0415463938429743e+00 
 1.0551748902554969e+00  1.0689817137358912e+00  1.0829691976701867e+00  1.0971397059764600e+00 
 1.1114956335043418e+00  1.1260394064397552e+00  1.1407734827149374e+00  1.1557003524238498e+00 
 1.1708225382430004e+00  1.1861425958577851e+00  1.2016631143944039e+00  1.2173867168574297e+00 
 1.2333160605731026e+00  1.2494538376384239e+00  1.2658027753761270e+00  1.2823656367956018e+00 
 1.2991452210598493e+00  1.3161443639585473e+00  1.3333659383873051e+00  1.3508128548331904e+00 
 1.3684880618666075e+00  1.3863945466396144e+00  1.4045353353907564e+00  1.4229134939565118e+00 
 1.4415321282894153e+00  1.4603943849829855e+00  1.4795034518034977e+00  1.4988625582287263e+00 
 1.5184749759937333e+00  1.5383440196438005e+00 
  </PP_RAB>
</PP_MESH>


<PP_LOCAL>
-1.4853605616919387e+01 -1.4853605612819278e+01 -1.4853605608617519e+01 -1.4853605604089493e+01 
-1.4853605599443386e+01 -1.4853605594676734e+01 -1.4853605589786135e+01 -1.4853605584768184e+01 
-1.4853605579619972e+01 -1.4853605574338287e+01 -1.4853605568919811e+01 -1.4853605563360448e+01 
-1.4853605557656778e+01 -1.4853605551805966e+01 -1.4853605545803624e+01 -1.4853605539645969e+01 
-1.4853605533329283e+01 -1.4853605526849220e+01 -1.4853605520202064e+01 -1.4853605513383846e+01 
-1.4853605506389929e+01 -1.4853605499215691e+01 -1.4853605491857179e+01 -1.4853605484309924e+01 
-1.4853605476568680e+01 -1.4853605468629011e+01 -1.4853605460486543e+01 -1.4853605452135486e+01 
-1.4853605443571000e+01 -1.4853605434788415e+01 -1.4853605425781947e+01 -1.4853605416546445e+01 
-1.4853605407076623e+01 -1.4853605397366458e+01 -1.4853605387410331e+01 -1.4853605377202975e+01 
-1.4853605366738199e+01 -1.4853605356010041e+01 -1.4853605345012324e+01 -1.4853605333738452e+01 
-1.4853605322183022e+01 -1.4853605310339923e+01 -1.4853605298201737e+01 -1.4853605285762018e+01 
-1.4853605273014729e+01 -1.4853605259953168e+01 -1.4853605246570622e+01 -1.4853605232859989e+01 
-1.4853605218814414e+01 -1.4853605204427557e+01 -1.4853605189692455e+01 -1.4853605174601894e+01 
-1.4853605159149094e+01 -1.4853605143327698e+01 -1.4853605127130619e+01 -1.4853605110550768e+01 
-1.4853605093581763e+01 -1.4853605076217249e+01 -1.4853605058450883e+01 -1.4853605040276268e+01 
-1.4853605021687267e+01 -1.4853605002678531e+01 -1.4853604983244853e+01 -1.4853604963380251e+01 
-1.4853604943080192e+01 -1.4853604922341527e+01 -1.4853604901159414e+01 -1.4853604879530950e+01 
-1.4853604857454702e+01 -1.4853604834927804e+01 -1.4853604811950087e+01 -1.4853604788522413e+01 
-1.4853604764645807e+01 -1.4853604740322124e+01 -1.4853604715555765e+01 -1.4853604690354260e+01 
-1.4853604664723907e+01 -1.4853604638673488e+01 -1.4853604612215024e+01 -1.4853604585363705e+01 
-1.4853604558138462e+01 -1.4853604530556936e+01 -1.4853604502641506e+01 -1.4853604474423632e+01 
-1.4853604445934952e+01 -1.4853604417210018e+01 -1.4853604388293435e+01 -1.4853604359233893e+01 
-1.4853604330085602e+01 -1.4853604300912865e+01 -1.4853604271785048e+01 -1.4853604242785064e+01 
-1.4853604214005648e+01 -1.4853604185544649e+01 -1.4853604157521875e+01 -1.4853604130069014e+01 
-1.4853604103331261e+01 -1.4853604077475536e+01 -1.4853604052684808e+01 -1.4853604029170890e+01 
-1.4853604007169098e+01 -1.4853603986936943e+01 -1.4853603968772152e+01 -1.4853603953007774e+01 
-1.4853603940009023e+01 -1.4853603930193177e+01 -1.4853603924029649e+01 -1.4853603922037914e+01 
-1.4853603924802231e+01 -1.4853603932982509e+01 -1.4853603947317412e+01 -1.4853603968630663e+01 
-1.4853603997851316e+01 -1.4853604036019410e+01 -1.4853604084312083e+01 -1.4853604144044706e+01 
-1.4853604216688693e+01 -1.4853604303916191e+01 -1.4853604407585161e+01 -1.4853604529793984e+01 
-1.4853604672932617e+01 -1.4853604839658948e+01 -1.4853605032961775e+01 -1.4853605256247976e+01 
-1.4853605513338856e+01 -1.4853605808525783e+01 -1.4853606146678430e+01 -1.4853606533311895e+01 
-1.4853606974623899e+01 -1.4853607477621482e+01 -1.4853608050264008e+01 -1.4853608701558114e+01 
-1.4853609441661577e+01 -1.4853610282086539e+01 -1.4853611235924699e+01 -1.4853612317979643e+01 
-1.4853613545089653e+01 -1.4853614936323465e+01 -1.4853616513355069e+01 -1.4853618300849503e+01 
-1.4853620326714859e+01 -1.4853622622755951e+01 -1.4853625225261471e+01 -1.4853628175451147e+01 
-1.4853631520132714e+01 -1.4853635312729944e+01 -1.4853639614138242e+01 -1.4853644493722287e+01 
-1.4853650030605529e+01 -1.4853656314844240e+01 -1.4853663449270575e+01 -1.4853671551431670e+01 
-1.4853680754991423e+01 -1.4853691212724861e+01 -1.4853703099438246e+01 -1.4853716613970283e+01 
-1.4853731983485543e+01 -1.4853749467746580e+01 -1.4853769362975255e+01 -1.4853792007217962e+01 
-1.4853817786544866e+01 -1.4853847141263859e+01 -1.4853880573250368e+01 -1.4853918655718164e+01 
-1.4853962042478319e+01 -1.4854011476831117e+01 -1.4854067805085670e+01 -1.4854131992450563e+01 
-1.4854205135043822e+01 -1.4854288476882898e+01 -1.4854383431562338e+01 -1.4854491600786313e+01 
-1.4854614796704880e+01 -1.4854755068714125e+01 -1.4854914728016627e+01 -1.4855096377083758e+01 
-1.4855302941579961e+01 -1.4855537696772785e+01 -1.4855804306945272e+01 -1.4856106854519554e+01 
-1.4856449864265732e+01 -1.4856838340547620e+01 -1.4857277787925220e+01 -1.4857774226374342e+01 
-1.4858334195633402e+01 -1.4858964739185517e+01 -1.4859673391556088e+01 -1.4860468116297328e+01 
-1.4861357197584651e+01 -1.4862349134877816e+01 -1.4863452448647410e+01 -1.4864675425394596e+01 
-1.4866025803141216e+01 -1.4867510336086898e+01 -1.4869134281245859e+01 -1.4870900743878066e+01 
-1.4872809888140694e+01 -1.4874857996356559e+01 -1.4877036360093806e+01 -1.4879330044483757e+01 
-1.4881716460124707e+01 -1.4884163785646237e+01 -1.4886629326111045e+01 -1.4889057863773186e+01 
-1.4891379947202873e+01 -1.4893510337009761e+01 -1.4895346915063936e+01 -1.4896769928456804e+01 
-1.4897641891178138e+01 -1.4897808581081700e+01 -1.4897101135700924e+01 -1.4895339649133922e+01 
-1.4892338563494265e+01 -1.4887913908226109e+01 -1.4881892632445192e+01 -1.4874123969027517e+01 
-1.4864492587398278e+01 -1.4852933168053774e+01 -1.4839445701861020e+01 -1.4824110560211167e+01 
-1.4807101849877467e+01 -1.4788697896212481e+01 -1.4769287225579857e+01 -1.4749367937557279e+01 
-1.4729539398852607e+01 -1.4710484996989754e+01 -1.4692945451802867e+01 -1.4677683057060708e+01 
-1.4665438040946484e+01 -1.4656879673895613e+01 -1.4652555598252365e+01 -1.4652099646744144e+01 
-1.4652100837772542e+01 -1.4652102074147857e+01 -1.4652103336476287e+01 -1.4652104619662316e+01 
-1.4652105943633840e+01 -1.4652107309347141e+01 -1.4652108710807228e+01 -1.4652110142880019e+01 
-1.4652111616230215e+01 -1.4652113127895397e+01 -1.4652114672449738e+01 -1.4652116261042007e+01 
-1.4652117896381716e+01 -1.4652119578097652e+01 -1.4652121297536784e+01 -1.4652123055705742e+01 
-1.4652124872199877e+01 -1.4652126734418353e+01 -1.4652128636047928e+01 -1.4652130596864732e+01 
-1.4652132610645085e+01 -1.4652134671140304e+01 -1.4652136788242823e+01 -1.4652138961924592e+01 
-1.4652141190326027e+01 -1.4652143479028371e+01 -1.4652145827841119e+01 -1.4652148239265305e+01 
-1.4652150716236545e+01 -1.4652153254122089e+01 -1.4652155857800967e+01 -1.4652158533695255e+01 
-1.4652161279391887e+01 -1.4652164093377541e+01 -1.4652166983786833e+01 -1.4652169954100168e+01 
-1.4652173001756367e+01 -1.4652176125963370e+01 -1.4652179330923254e+01 -1.4652182621998774e+01 
-1.4652186000430097e+01 -1.4652189469105590e+01 -1.4652193026772801e+01 -1.4652196677331352e+01 
-1.4652200426132326e+01 -1.4652204273731780e+01 -1.4652208220084058e+01 -1.4652212269291397e+01 
-1.4652216427798717e+01 -1.4652220694282686e+01 -1.4652225072613509e+01 -1.4652229567120445e+01 
-1.4652234177510442e+01 -1.4652238911487803e+01 -1.4652243770026933e+01 -1.4652248753965660e+01 
-1.4652253869293407e+01 -1.4652259119383498e+01 -1.4652264507034127e+01 -1.4652270035245646e+01 
-1.4652275711477104e+01 -1.4652281534989051e+01 -1.4652287509723037e+01 -1.4652293644618721e+01 
-1.4652299938620059e+01 -1.4652306395770406e+01 -1.4652313025140343e+01 -1.4652319829317667e+01 
-1.4652326809599860e+01 -1.4652333973262410e+01 -1.4652341325506418e+01 -1.4652348869911812e+01 
-1.4652356613018316e+01 -1.4652364558674281e+01 -1.4652372712681577e+01 -1.4652381079810104e+01 
-1.4652389665025870e+01 -1.4652398478686100e+01 -1.4652407522819164e+01 -1.4652416800155763e+01 
-1.4652426322626837e+01 -1.4652436095498020e+01 -1.4652446122724635e+01 -1.4652456413081691e+01 
-1.4652466972728543e+01 -1.4652477809083816e+01 -1.4652488928487827e+01 -1.4652500338094670e+01 
-1.4652512047596741e+01 -1.4652524062880630e+01 -1.4652536391677831e+01 -1.4652549043217380e+01 
-1.4652562024919735e+01 -1.4652575346363225e+01 -1.4652589016411506e+01 -1.4652603042569860e+01 
-1.4652617434648842e+01 -1.4652632203130826e+01 -1.4652647357212190e+01 -1.4652662906401135e+01 
-1.4652678861306340e+01 -1.4652695232383646e+01 -1.4652712030268157e+01 -1.4652729265702009e+01 
-1.4652746950613952e+01 -1.4652765096658840e+01 -1.4652783714768335e+01 -1.4652802817506979e+01 
-1.4652822417813242e+01 -1.4652842528278665e+01 -1.4652863161466897e+01 -1.4652884331283255e+01 
-1.4652906051468605e+01 -1.4652928335563546e+01 -1.4652951199029367e+01 -1.4652974656697923e+01 
-1.4652998722686469e+01 -1.4653023412363362e+01 -1.4653048743039450e+01 -1.4653074730958972e+01 
-1.4653101391743316e+01 -1.4653128742965317e+01 -1.4653156802184391e+01 -1.4653185587981675e+01 
-1.4653215118384223e+01 -1.4653245411912055e+01 -1.4653276488751523e+01 -1.4653308367934377e+01 
-1.4653341069843165e+01 -1.4653374615433206e+01 -1.4653409026268619e+01 -1.4653444324371160e+01 
-1.4653480531011761e+01 -1.4653517669391357e+01 -1.4653555763546215e+01 -1.4653594836859991e+01 
-1.4653634913999845e+01 -1.4653676020367213e+01 -1.4653718181116997e+01 -1.4653761422866815e+01 
-1.4653805772285333e+01 -1.4653851256766858e+01 -1.4653897905054077e+01 -1.4653945745812560e+01 
-1.4653994808429507e+01 -1.4654045122631445e+01 -1.4654096719565064e+01 -1.4654149631285945e+01 
-1.4654203889471331e+01 -1.4654259526882823e+01 -1.4654316577674004e+01 -1.4654375076463264e+01 
-1.4654435058180875e+01 -1.4654496558766352e+01 -1.4654559615091594e+01 -1.4654624264754297e+01 
-1.4654690546332924e+01 -1.4654758498989079e+01 -1.4654828162529004e+01 -1.4654899578098181e+01 
-1.4654972787560347e+01 -1.4655047833379562e+01 -1.4655124759043767e+01 -1.4655203609160452e+01 
-1.4655284429139877e+01 -1.4655367264960093e+01 -1.4655452163754980e+01 -1.4655539173907258e+01 
-1.4655628344430506e+01 -1.4655719725126467e+01 -1.4655813367072877e+01 -1.4655909322113290e+01 
-1.4656007643239150e+01 -1.4656108384304900e+01 -1.4656211599966415e+01 -1.4656317346267350e+01 
-1.4656425680039666e+01 -1.4656536658933021e+01 -1.4656650341753370e+01 -1.4656766788371705e+01 
-1.4656886059504171e+01 -1.4657008216899005e+01 -1.4657133323244846e+01 -1.4657261442209236e+01 
-1.4657392638492928e+01 -1.4657526977676882e+01 -1.4657664526228443e+01 -1.4657805351570524e+01 
-1.4657949522189357e+01 -1.4658097107200712e+01 -1.4658248176596297e+01 -1.4658402801427222e+01 
-1.4658561053462510e+01 -1.4658723005072986e+01 -1.4658888729470013e+01 -1.4659058300690255e+01 
-1.4659231793286711e+01 -1.4659409282463281e+01 -1.4659590843967937e+01 -1.4659776554097563e+01 
-1.4659966489578300e+01 -1.4660160727463168e+01 -1.4660359345218117e+01 -1.4660562420546187e+01 
-1.4660770031165038e+01 -1.4660982254962326e+01 -1.4661199169938904e+01 -1.4661420853750039e+01 
-1.4661647383869473e+01 -1.4661878837548761e+01 -1.4662115291469348e+01 -1.4662356821753253e+01 
-1.4662603503820529e+01 -1.4662855412134228e+01 -1.4663112620146144e+01 -1.4663375200123046e+01 
-1.4663643222946018e+01 -1.4663916757954036e+01 -1.4664195872634629e+01 -1.4664480632499130e+01 
-1.4664771100950988e+01 -1.4665067338876897e+01 -1.4665369404452411e+01 -1.4665677352931842e+01 
-1.4665991236306047e+01 -1.4666311103073189e+01 -1.4666636997874374e+01 -1.4666968961132824e+01 
-1.4667307028821696e+01 -1.4667651232050416e+01 -1.4668001596615985e+01 -1.4668358142697311e+01 
-1.4668720884421164e+01 -1.4669089829396128e+01 -1.4669464978240137e+01 -1.4669846324116245e+01 
-1.4670233852274770e+01 -1.4670627539455262e+01 -1.4671027353344769e+01 -1.4671433252034486e+01 
-1.4671845183392861e+01 -1.4672263084441230e+01 -1.4672686880682431e+01 -1.4673116485444954e+01 
-1.4673551799161745e+01 -1.4673992708602222e+01 -1.4674439086121275e+01 -1.4674890788865019e+01 
-1.4675347657930800e+01 -1.4675809517485037e+01 -1.4676276173890583e+01 -1.4676747414775155e+01 
-1.4677223008041393e+01 -1.4677702700893880e+01 -1.4678186218820116e+01 -1.4678673264506735e+01 
-1.4679163516743147e+01 -1.4679656629302796e+01 -1.4680152229764946e+01 -1.4680649918317414e+01 
-1.4681149266539983e+01 -1.4681649816112607e+01 -1.4682151077523038e+01 -1.4682652528753760e+01 
-1.4683153613899966e+01 -1.4683653741778951e+01 -1.4684152284511727e+01 -1.4684648576071870e+01 
-1.4685141910808591e+01 -1.4685631541942826e+01 -1.4686116680045567e+01 -1.4686596491490377e+01 
-1.4687070096892299e+01 -1.4687536569528767e+01 -1.4687994933747312e+01 -1.4688444163365672e+01 
-1.4688883180066567e+01 -1.4689310851787996e+01 -1.4689725991118362e+01 -1.4690127353698470e+01 
-1.4690513636632163e+01 -1.4690883476916143e+01 -1.4691235449892810e+01 -1.4691568067733392e+01 
-1.4691879777945720e+01 -1.4692168961933993e+01 -1.4692433933610241e+01 -1.4692672938045913e+01 
-1.4692884150196985e+01 -1.4693065673710617e+01 -1.4693215539796165e+01 -1.4693331706193607e+01 
-1.4693412056244709e+01 -1.4693454398064389e+01 -1.4693456463851930e+01 -1.4693415909310634e+01 
-1.4693330313213988e+01 -1.4693197177139066e+01 -1.4693013925352833e+01 -1.4692777904876554e+01 
-1.4692486385742752e+01 -1.4692136561454717e+01 -1.4691725549660521e+01 -1.4691250393051508e+01 
-1.4690708060508003e+01 -1.4690095448503216e+01 -1.4689409382757923e+01 -1.4688646620207132e+01 
-1.4687803851238231e+01 -1.4686877702234055e+01 -1.4685864738476477e+01 -1.4684761467343368e+01 
-1.4683564341869696e+01 -1.4682269764694158e+01 -1.4680874092342551e+01 -1.4679373639920826e+01 
-1.4677764686214291e+01 -1.4676043479169254e+01 -1.4674206241820068e+01 -1.4672249178642003e+01 
-1.4670168482339129e+01 -1.4667960341085754e+01 -1.4665620946213016e+01 -1.4663146500380980e+01 
-1.4660533226200112e+01 -1.4657777375334698e+01 -1.4654875238088730e+01 -1.4651823153458356e+01 
-1.4648617519672444e+01 -1.4645254805227090e+01 -1.4641731560388678e+01 -1.4638044429161910e+01 
-1.4634190161754784e+01 -1.4630165627501260e+01 -1.4625967828237700e+01 -1.4621593912137659e+01 
-1.4617041187987041e+01 -1.4612307139881148e+01 -1.4607389442340228e+01 -1.4602285975820463e+01 
-1.4596994842607520e+01 -1.4591514383068345e+01 -1.4585843192224791e+01 -1.4579980136667393e+01 
-1.4573924371747506e+01 -1.4567675359000205e+01 -1.4561232883828524e+01 -1.4554597073374490e+01 
-1.4547768414529994e+01 -1.4540747772084547e+01 -1.4533536406938120e+01 -1.4526135994354627e+01 
-1.4518548642209980e+01 -1.4510776909153291e+01 -1.4502823822659796e+01 -1.4494692896923278e+01 
-1.4486388150499572e+01 -1.4477914123640247e+01 -1.4469275895275160e+01 -1.4460479099546289e+01 
-1.4451529941816140e+01 -1.4442435214082490e+01 -1.4433202309696387e+01 -1.4423839237311659e+01 
-1.4414354633942647e+01 -1.4404757777041961e+01 -1.4395058595498414e+01 -1.4385267679411164e+01 
-1.4375396288549108e+01 -1.4365456359340234e+01 -1.4355460510276741e+01 -1.4345422045588210e+01 
-1.4335354957011793e+01 -1.4325273923542513e+01 -1.4315194308958681e+01 -1.4305132156979093e+01 
-1.4295104183871269e+01 -1.4285127768291847e+01 -1.4275220938213760e+01 -1.4265402354711000e+01 
-1.4255691292401899e+01 -1.4246107616344693e+01 -1.4236671755149940e+01 -1.4227404670124310e+01 
-1.4218327820197342e+01 -1.4209463122403754e+01 -1.4200832907713602e+01 -1.4192459871979789e+01 
-1.4184367021781139e+01 -1.4176577614947574e+01 -1.4169115095562754e+01 -1.4162003023252144e+01 
-1.4155264996576308e+01 -1.4148924570361331e+01 -1.4143005166834335e+01 -1.4137529980448935e+01 
-1.4132521876308251e+01 -1.4128003282150278e+01 -1.4123996073889600e+01 -1.4120521454747665e+01 
-1.4117599828076269e+01 -1.4115250664032416e+01 -1.4113492360321354e+01 -1.4112342097315594e+01 
-1.4111815687933769e+01 -1.4111927422742603e+01 -1.4112689910874133e+01 -1.4114113917429963e+01 
-1.4116208198169632e+01 -1.4118979332413891e+01 -1.4122431555213755e+01 -1.4126566589992898e+01 
-1.4131383482993099e+01 -1.4136878441035266e+01 -1.4143044674254462e+01 -1.4149872245625033e+01 
-1.4157347929277897e+01 -1.4165455079758761e+01 -1.4174173514560175e+01 -1.4183479412412925e+01 
-1.4193345229981563e+01 -1.4203739639755561e+01 -1.4214627492061132e+01 -1.4225969804233078e+01 
-1.4237723780074228e+01 -1.4249842862800776e+01 -1.4262276824693451e+01 -1.4274971896676158e+01 
-1.4287870940975326e+01 -1.4300913669912001e+01 -1.4314036913701479e+01 -1.4327174939895494e+01 
-1.4340259826790218e+01 -1.4353221892706216e+01 -1.4365990182559569e+01 -1.4378493012536168e+01 
-1.4390658572976738e+01 -1.4402415588747141e+01 -1.4413694035418175e+01 -1.4424425908511749e+01 
-1.4434546041853634e+01 -1.4443992969737666e+01 -1.4452709826146938e+01 -1.4460645272686707e+01 
-1.4467754445187035e+01 -1.4473999907144346e+01 -1.4479352596296346e+01 -1.4483792748710918e+01 
-1.4487310782839918e+01 -1.4489908124080104e+01 -1.4491597948560452e+01 -1.4492405823184383e+01 
-1.4492370217464794e+01 -1.4491542763592914e+01 -1.4489988817775250e+01 -1.4487786867560116e+01 
-1.4485028634677239e+01 -1.4481818461720575e+01 -1.4478272504874290e+01 -1.4474517619444756e+01 
-1.4470689922452573e+01 -1.4466933014978546e+01 -1.4463395860772671e+01 -1.4460230314620080e+01 
-1.4457588311869067e+01 -1.4455618732650640e+01 -1.4454463968616283e+01 -1.4454256231641077e+01 
-1.4455113654410463e+01 -1.4457136248886270e+01 -1.4460401801884640e+01 -1.4464961799458546e+01 
-1.4470837488075182e+01 -1.4478016191511692e+01 -1.4486448014562281e+01 -1.4496043072654146e+01 
-1.4506669394680742e+01 -1.4518151645167123e+01 -1.4530270812813015e+01 -1.4542765002198708e+01 
-1.4555331452285998e+01 -1.4567629884347582e+01 -1.4579295364902068e+01 -1.4589913270236838e+01 
-1.4599061391087798e+01 -1.4606331117421014e+01 -1.4611284997360499e+01 -1.4613506653873188e+01 
-1.4612603700710903e+01 -1.4608220539256154e+01 -1.4600051331001561e+01 -1.4587852706241479e+01 
-1.4571455707289406e+01 -1.4550776415305824e+01 -1.4525824672733826e+01 -1.4496710291252375e+01 
-1.4463646140012450e+01 -1.4426947535304775e+01 -1.4387027416264644e+01 -1.4344386888171421e+01 
-1.4299600854185178e+01 -1.4253298639141656e+01 -1.4206139735204651e+01 -1.4158785067071337e+01 
-1.4111864479555877e+01 -1.4065941479703502e+01 -1.4021476608402972e+01 -1.3978791150009844e+01 
-1.3938033191696203e+01 -1.3899148286785222e+01 -1.3861857130121162e+01 -1.3825642684483057e+01 
-1.3789749078421401e+01 -1.3753194295268662e+01 -1.3714798179632526e+01 -1.3673226580439227e+01 
-1.3627051540486145e+01 -1.3574826342773758e+01 -1.3515172971849312e+01 -1.3446878196146722e+01 
-1.3368993103541932e+01 -1.3280929620807616e+01 -1.3182546440601607e+01 -1.3074216004166264e+01 
-1.2956863899484881e+01 -1.2831972394430922e+01 -1.2701540985235580e+01 -1.2567998930868233e+01 
-1.2434067830845491e+01 -1.2302576376850181e+01 -1.2176234327258923e+01 -1.2057378241005763e+01 
-1.1947707116639139e+01 -1.1848031218924149e+01 -1.1758061320509025e+01 -1.1676267571851787e+01 
-1.1599836503000754e+01 -1.1524750672851976e+01 -1.1446007880276888e+01 -1.1357985649640860e+01 
-1.1254942315551489e+01 -1.1131629294127988e+01 -1.0983971295428276e+01 -1.0809753944327191e+01 
-1.0609243557897559e+01 -1.0385654058529223e+01 -1.0145373876043001e+01 -9.8978742431572666e+00 
-9.6552404594623251e+00 -9.4313175597023200e+00 -9.2403790461810296e+00 -9.0966264880617693e+00 
-9.0030527787295203e+00 -8.8957865069059299e+00 -8.7818837661994227e+00 -8.6690686049365482e+00 
-8.5564844906320250e+00 -8.4442706693508729e+00 -8.3325959786037931e+00 -8.2217526210812277e+00 
-8.1121251570040691e+00 -8.0041502808120377e+00 -7.8982758436324909e+00 -7.7948356689630751e+00 
-7.6936919980600331e+00 -7.5942700697991414e+00 -7.4961837199860888e+00 -7.3993642022366073e+00 
-7.3037951576803275e+00 -7.2094604290591855e+00 -7.1163441069820728e+00 -7.0244304476273802e+00 
-6.9337039178269340e+00 -6.8441491870039703e+00 -6.7557511225368794e+00 -6.6684947869183473e+00 
-6.5823654352652738e+00 -6.4973485128822279e+00 -6.4134296528297225e+00 -6.3305946735605430e+00 
-6.2488295765349449e+00 -6.1681205438945517e+00 -6.0884539361467249e+00 -6.0098162898821821e+00 
-5.9321943155176786e+00 -5.8555748950549074e+00 -5.7799450798978675e+00 -5.7052920886459617e+00 
-5.6316033049582108e+00 -5.5588662754349407e+00 -5.4870687076699376e+00 -5.4161984692263418e+00 
-5.3462435950281035e+00 -5.2771922344089113e+00 -5.2090327301449744e+00 -5.1417535647851142e+00 
-5.0753433682179567e+00 -5.0097909170121779e+00 -4.9450851326807355e+00 -4.8812150798171663e+00 
-4.8181699642390141e+00 -4.7559391311749115e+00 -4.6945120634553579e+00 -4.6338784161012363e+00 
-4.5740278687626201e+00 -4.5149503431355074e+00 -4.4566358549943832e+00 -4.3990745496240402e+00 
-4.3422566920053605e+00 -4.2861726937731479e+00 -4.2308130680284091e+00 -4.1761684596380384e+00 
-4.1222296335877200e+00 -4.0689874740579528e+00 -4.0164329829764771e+00 -3.9645572784945906e+00 
-3.9133515934857388e+00 -3.8628072740633796e+00 -3.8129157781177705e+00 -3.7636686738714604e+00 
-3.7150576384534202e+00 -3.6670744564915090e+00 -3.6197110187232164e+00 -3.5729593206244332e+00 
-3.5268114610560444e+00 -3.4812596409280765e+00 -3.4362961618813284e+00 -3.3919134249860350e+00 
-3.3481039294575079e+00 -3.3048602713883746e+00 -3.2621751424973855e+00 -3.2200413288943661e+00 
-3.1784517098612910e+00 -3.1373992566491888e+00 -3.0968770312906884e+00 -3.0568781854279297e+00 
-3.0173959591557602e+00 -2.9784236798798283e+00 -2.9399547611881367e+00 -2.9019827017364506e+00 
-2.8645010841958904e+00 -2.8275035740629169e+00 -2.7909839186492142e+00 -2.7549359456325302e+00 
-2.7193535687411696e+00 -2.6842307639800280e+00 -2.6495616011460807e+00 -2.6153402205410021e+00 
-2.5815608386374467e+00 -2.5482177466517282e+00 -2.5153053095333315e+00 -2.4828179650135569e+00 
-2.4507502226648583e+00 -2.4190966629725454e+00 -2.3878519364188433e+00 -2.3570107625787071e+00 
-2.3265679292272079e+00 -2.2965182914586548e+00 -2.2668567708170153e+00 -2.2375783544376704e+00 
-2.2086780942002866e+00 -2.1801511058926231e+00 -2.1519925683851908e+00 -2.1241977228166102e+00 
-2.0967618717894223e+00 -2.0696803785763906e+00 -2.0429486663369976e+00 -2.0165622173440463e+00 
-1.9905165722202789e+00 -1.9648073291848709e+00 -1.9394301433095640e+00 -1.9143807257844794e+00 
-1.8896548431933822e+00 -1.8652483167982659e+00 -1.8411570218332012e+00 -1.8173768868072810e+00 
-1.7939038928165609e+00 -1.7707340728648957e+00 -1.7478635111935270e+00 -1.7252883426193022e+00 
-1.7030047518814775e+00 -1.6810089729969302e+00 -1.6592972886236974e+00 -1.6378660294327161e+00 
-1.6167115734877298e+00 -1.5958303456331075e+00 -1.5752188168896772e+00 -1.5548735038582691e+00 
-1.5347909681310208e+00 -1.5149678157102446e+00 -1.4954006964348376e+00 -1.4760863034140594e+00 
-1.4570213724686667e+00 -1.4382026815792008e+00 -1.4196270503415069e+00 -1.4012913394292623e+00 
-1.3831924467881880e+00 -1.3653273203877276e+00 -1.3476929375331936e+00 -1.3302863179715085e+00 
-1.3131045199421163e+00 -1.2961446396799801e+00 -1.2794038109248140e+00 -1.2628792044367072e+00 
-1.2465680275179376e+00 -1.2304675235409730e+00 -1.2145749714826268e+00 -1.1988876854641415e+00 
-1.1834030142972953e+00 -1.1681183410363072e+00 -1.1530310825355783e+00 -1.1381386890130971e+00 
-1.1234386436195620e+00 -1.1089284620129787e+00 -1.0946056919387848e+00 -1.0804679128154708e+00 
-1.0665127353254011e+00 -1.0527378010110864e+00 -1.0391407818765608e+00 -1.0257193799939262e+00 
-1.0124713271150285e+00 -9.9939438428809724e-01 -9.8648634147932834e-01 -9.7374501719944240e-01 
-9.6116825813495022e-01 -9.4875393878426217e-01 -9.3649996109846056e-01 -9.2440425412673510e-01 
-9.1246477366638534e-01 -9.0067950191731383e-01 -8.8904644714107162e-01 -8.7756364332419223e-01 
-8.6622914984597565e-01 -8.5504105115047369e-01 -8.4399745642280088e-01 -8.3309649926954787e-01 
-8.2233633740339351e-01 -8.1171515233170255e-01 -8.0123114904924875e-01 -7.9088255573482424e-01 
-7.8066762345181495e-01 -7.7058462585260368e-01 -7.6063185888685780e-01 -7.5080764051348481e-01 
-7.4111031036666852e-01 -7.3153822967884841e-01 -7.2208978069103891e-01 -7.1276336659305628e-01 
-7.0355741119888848e-01 -6.9447035868033336e-01 -6.8550067330400977e-01 -6.7664683917188972e-01 
-6.6790735996504846e-01 -6.5928075869081260e-01 -6.5076557744158825e-01 -6.4236037711391336e-01 
-6.3406373722537301e-01 -6.2587425560903054e-01 -6.1779054824000279e-01 -6.0981124893318928e-01 
-6.0193500917886322e-01 -5.9416049787374325e-01 -5.8648640110693406e-01 -5.7891142193780154e-01 
-5.7143428017683229e-01 -5.6405371216928568e-01 -5.5676847058160062e-01 -5.4957732419060779e-01 
-5.4247905767545035e-01 -5.3547247141219267e-01 -5.2855638127107984e-01 -5.2172961841641730e-01 
-5.1499102910903394e-01 -5.0833947451129857e-01 -5.0177383049465274e-01 -4.9529298744963074e-01 
-4.8889585009833297e-01 -4.8258133730932123e-01 -4.7634838191490503e-01 -4.7019593053078768e-01 
-4.6412294337804183e-01 -4.5812839410738437e-01 -4.5221126962572095e-01 -4.4637056992493085e-01 
-4.4060530791286245e-01 -4.3491450924651531e-01 -4.2929721216736955e-01 -4.2375246733884886e-01 
-4.1827933768588033e-01 -4.1287689823652601e-01 -4.0754423596566064e-01 -4.0228044964066811e-01 
-3.9708464966913132e-01 -3.9195595794848842e-01 -3.8689350771763192e-01 -3.8189644341042372e-01 
-3.7696392051110234e-01 -3.7209510541155794e-01 -3.6728917527045046e-01 -3.6254531787414740e-01 
-3.5786273149945802e-01 -3.5324062477814111e-01 -3.4867821656315739e-01 -3.4417473579666080e-01 
-3.3972942137968293e-01 -3.3534152204350715e-01 -3.3101029622270195e-01 -3.2673501192979504e-01 
-3.2251494663156505e-01 -3.1834938712693267e-01 -3.1423762942642702e-01 -3.1017897863321042e-01 
-3.0617274882563877e-01 -3.0221826294133952e-01 -2.9831485266278596e-01 -2.9446185830435062e-01 
-2.9065862870081643e-01 -2.8690452109732834e-01 -2.8319890104076628e-01 -2.7954114227252030e-01 
-2.7593062662265389e-01 -2.7236674390542825e-01 -2.6884889181618188e-01 -2.6537647582953883e-01 
-2.6194890909893259e-01 -2.5856561235742787e-01 -2.5522601381982268e-01 -2.5192954908601567e-01 
-2.4867566104562086e-01 -2.4546379978381491e-01 -2.4229342248840002e-01 -2.3916399335806746e-01 
-2.3607498351184583e-01 -2.3302587089971902e-01 -2.3001614021439840e-01 -2.2704528280423464e-01 
-2.2411279658725453e-01 -2.2121818596630743e-01 -2.1836096174530970e-01 -2.1554064104656717e-01 
-2.1275674722916907e-01 -2.1000880980843434e-01 -2.0729636437639853e-01 -2.0461895252332771e-01 
-2.0197612176024624e-01 -1.9936742544246497e-01 -1.9679242269409722e-01 -1.9425067833354978e-01 
-1.9174176279997615e-01 -1.8926525208067960e-01 -1.8682072763945437e-01 -1.8440777634585154e-01 
-1.8202599040535955e-01 -1.7967496729048552e-01 -1.7735430967272739e-01 -1.7506362535542402e-01 
-1.7280252720747441e-01 -1.7057063309790962e-01 -1.6836756583131296e-01 -1.6619295308407289e-01 
-1.6404642734145936e-01 -1.6192762583551287e-01 -1.5983619048373601e-01 -1.5777176782857649e-01 
-1.5573400897769210e-01 -1.5372256954498692e-01 -1.5173710959240941e-01 -1.4977729357250205e-01 
-1.4784279027169289e-01 -1.4593327275431975e-01 -1.4404841830737744e-01 -1.4218790838597825e-01 
-1.4035142855951724e-01 -1.3853866845853252e-01 -1.3674932172225299e-01 -1.3498308594682112e-01 
-1.3323966263418707e-01 -1.3151875714166150e-01 -1.2982007863212022e-01 -1.2814334002485211e-01 
-1.2648825794704177e-01 -1.2485455268587876e-01 -1.2324194814128557e-01 -1.2165017177925601e-01 
-1.2007895458579633e-01 -1.1852803102146120e-01 -1.1699713897647684e-01 -1.1548601972644404e-01 
-1.1399441788861289e-01 -1.1252208137872266e-01 -1.1106876136839888e-01 -1.0963421224310055e-01 
-1.0821819156061153e-01 -1.0682046001006605e-01 -1.0544078137150527e-01 -1.0407892247595554e-01 
-1.0273465316602215e-01 -1.0140774625699224e-01 
</PP_LOCAL>


<PP_NONLOCAL>
  <PP_BETA>
  1  1      Beta    L
  1129  
 -8.6932721515039173e-08  -8.9222611940562268e-08  -9.1572820256460948e-08  -9.3984935293427043e-08 
 -9.6460587733472421e-08  -9.9001451212334189e-08  -1.0160924345091704e-07  -1.0428572741653885e-07 
 -1.0703271251476506e-07  -1.0985205581263735e-07  -1.1274566329412265e-07  -1.1571549114863266e-07 
 -1.1876354709348361e-07  -1.2189189173119123e-07  -1.2510263994251849e-07  -1.2839796231621712e-07 
 -1.3178008661643008e-07  -1.3525129928874712e-07  -1.3881394700593061e-07  -1.4247043825435852e-07 
 -1.4622324496225509e-07  -1.5007490417081028e-07  -1.5402801974931957e-07  -1.5808526415550115e-07 
 -1.6224938024218156e-07  -1.6652318311157244e-07  -1.7090956201838899e-07  -1.7541148232309999e-07 
 -1.8003198749662814e-07  -1.8477420117785564e-07  -1.8964132928532657e-07  -1.9463666218457466e-07 
 -1.9976357691253968e-07  -2.0502553946057712e-07  -2.1042610711760610e-07  -2.1596893087497612e-07 
 -2.2165775789468170e-07  -2.2749643404259250e-07  -2.3348890648841096e-07  -2.3963922637411517e-07 
 -2.4595155155269171e-07  -2.5243014939901001e-07  -2.5907939969473622e-07  -2.6590379758924120e-07 
 -2.7290795663850002e-07  -2.8009661192404006e-07  -2.8747462325404536e-07  -2.9504697844878191e-07 
 -3.0281879671256190e-07  -3.1079533209453418e-07  -3.1898197704062972e-07  -3.2738426603907413e-07 
 -3.3600787936192260e-07  -3.4485864690515427e-07  -3.5394255212991722e-07  -3.6326573610758799e-07 
 -3.7283450167138955e-07  -3.8265531767735713e-07  -3.9273482337754976e-07  -4.0307983290845624e-07 
 -4.1369733989762780e-07  -4.2459452219165572e-07  -4.3577874670868997e-07  -4.4725757441877816e-07 
 -4.5903876545539126e-07  -4.7113028436159300e-07  -4.8354030547440017e-07  -4.9627721845097195e-07 
 -5.0934963394036347e-07  -5.2276638940468624e-07  -5.3653655509359514e-07  -5.5066944017615826e-07 
 -5.6517459903424150e-07  -5.8006183772167378e-07  -5.9534122059354845e-07  -6.1102307711015041e-07 
 -6.2711800882010820e-07  -6.4363689652748995e-07  -6.6059090764768557e-07  -6.7799150375705454e-07 
 -6.9585044834144164e-07  -7.1417981474879398e-07  -7.3299199435126380e-07  -7.5229970492230619e-07 
 -7.7211599923444474e-07  -7.9245427388351049e-07  -8.1332827834531478e-07  -8.3475212427090158e-07 
 -8.5674029502664071e-07  -8.7930765548560951e-07  -9.0246946207690457e-07  -9.2624137309966398e-07 
 -9.5063945930876695e-07  -9.7568021477937709e-07  -1.0013805680576775e-06  -1.0277578936053257e-06 
 -1.0548300235453634e-06  -1.0826152597175430e-06  -1.1111323860512025e-06  -1.1404006812640483e-06 
 -1.1704399318954571e-06  -1.2012704456830792e-06  -1.2329130652918136e-06  -1.2653891824044048e-06 
 -1.2987207521832201e-06  -1.3329303081129699e-06  -1.3680409772343960e-06  -1.4040764957792487e-06 
 -1.4410612252170985e-06  -1.4790201687248633e-06  -1.5179789880901424e-06  -1.5579640210598312e-06 
 -1.5990022991457136e-06  -1.6411215658990785e-06  -1.6843502956667288e-06  -1.7287177128410348e-06 
 -1.7742538116170829e-06  -1.8209893762702376e-06  -1.8689560019678806e-06  -1.9181861161293116e-06 
 -1.9687130003483576e-06  -2.0205708128934315e-06  -2.0737946118002725e-06  -2.1284203785730104e-06 
 -2.1844850425095396e-06  -2.2420265056676739e-06  -2.3010836684889387e-06  -2.3616964560973627e-06 
 -2.4239058452909966e-06  -2.4877538922444708e-06  -2.5532837609412570e-06  -2.6205397523549021e-06 
 -2.6895673343989584e-06  -2.7604131726658236e-06  -2.8331251619753408e-06  -2.9077524587544112e-06 
 -2.9843455142695764e-06  -3.0629561087349889e-06  -3.1436373863188818e-06  -3.2264438910721704e-06 
 -3.3114316038034469e-06  -3.3986579799254338e-06  -3.4881819882982935e-06  -3.5800641510962063e-06 
 -3.6743665847241279e-06  -3.7711530418123489e-06  -3.8704889543173256e-06  -3.9724414777578513e-06 
 -4.0770795366165330e-06  -4.1844738709372485e-06  -4.2946970841500821e-06  -4.4078236921560840e-06 
 -4.5239301737050779e-06  -4.6430950221004806e-06  -4.7653987982662379e-06  -4.8909241852116244e-06 
 -5.0197560439307898e-06  -5.1519814707749105e-06  -5.2876898563356002e-06  -5.4269729458795441e-06 
 -5.5699249013750834e-06  -5.7166423651528182e-06  -5.8672245252431961e-06  -6.0217731824352784e-06 
 -6.1803928191020612e-06  -6.3431906698388180e-06  -6.5102767939623482e-06  -6.6817641499200442e-06 
 -6.8577686716591316e-06  -7.0384093470077804e-06  -7.2238082981209415e-06  -7.4140908640455354e-06 
 -7.6093856854605987e-06  -7.8098247916498267e-06  -8.0155436897652385e-06  -8.2266814564425281e-06 
 -8.4433808318297289e-06  -8.6657883160930699e-06  -8.8940542684651437e-06  -9.1283330089024304e-06 
 -9.3687829224208107e-06  -9.6155665661798767e-06  -9.8688507793881452e-06  -1.0128806796103687e-05 
 -1.0395610361006548e-05  -1.0669441848220982e-05  -1.0950486383268088e-05  -1.1238933968231312e-05 
 -1.1534979610219269e-05  -1.1838823453213071e-05  -1.2150670913387096e-05  -1.2470732817994813e-05 
 -1.2799225547913563e-05  -1.3136371183944847e-05  -1.3482397656968852e-05  -1.3837538902054927e-05 
 -1.4202035016632235e-05  -1.4576132422827551e-05  -1.4960084034079966e-05  -1.5354149426145342e-05 
 -1.5758595012605959e-05  -1.6173694225004342e-05  -1.6599727697722892e-05  -1.7036983457734582e-05 
 -1.7485757119352950e-05  -1.7946352084113123e-05  -1.8419079745919105e-05  -1.8904259701596451e-05 
 -1.9402219966992061e-05  -1.9913297198767973e-05  -2.0437836922038783e-05  -2.0976193764007142e-05 
 -2.1528731693754747e-05  -2.2095824268351749e-05  -2.2677854885450665e-05  -2.3275217042535833e-05 
 -2.3888314603003956e-05  -2.4517562069255582e-05  -2.5163384862982252e-05  -2.5826219612839480e-05 
 -2.6506514449699508e-05  -2.7204729309684248e-05  -2.7921336245183246e-05  -2.8656819744067051e-05 
 -2.9411677057312094e-05  -3.0186418535259231e-05  -3.0981567972732736e-05  -3.1797662963253970e-05 
 -3.2635255262589212e-05  -3.3494911161877924e-05  -3.4377211870593741e-05  -3.5282753909597781e-05 
 -3.6212149514549841e-05  -3.7166027049951298e-05  -3.8145031434099262e-05  -3.9149824575240303e-05 
 -4.0181085819218675e-05  -4.1239512408922275e-05  -4.2325819955837357e-05  -4.3440742924031665e-05 
 -4.4585035126892925e-05  -4.5759470236960109e-05  -4.6964842309191559e-05  -4.8201966318026012e-05 
 -4.9471678708598154e-05  -5.0774837962484156e-05  -5.2112325178358631e-05  -5.3485044667957667e-05 
 -5.4893924567751248e-05  -5.6339917466738599e-05  -5.7824001050793384e-05  -5.9347178763993862e-05 
 -6.0910480487386997e-05  -6.2514963235646374e-05  -6.4161711872095313e-05  -6.5851839842580534e-05 
 -6.7586489928693724e-05  -6.9366835020851129e-05  -7.1194078911755016e-05  -7.3069457110776248e-05 
 -7.4994237679807429e-05  -7.6969722091156957e-05  -7.8997246108061898e-05  -8.1078180688419968e-05 
 -8.3213932912350389e-05  -8.5405946934216328e-05  -8.7655704959751043e-05  -8.9964728248952551e-05 
 -9.2334578145427488e-05  -9.4766857132880670e-05  -9.7263209919469062e-05  -9.9825324550754815e-05 
 -1.0245493355201303e-04  -1.0515381510066977e-04  -1.0792379422966540e-04  -1.1076674406256123e-04 
 -1.1368458708122695e-04  -1.1667929642697021e-04  -1.1975289723599159e-04  -1.2290746801007233e-04 
 -1.2614514202342517e-04  -1.2946810876666523e-04  -1.3287861542887964e-04  -1.3637896841880629e-04 
 -1.3997153492615209e-04  -1.4365874452411411e-04  -1.4744309081419268e-04  -1.5132713311441284e-04 
 -1.5531349819210567e-04  -1.5940488204242365e-04  -1.6360405171380384e-04  -1.6791384718161577e-04 
 -1.7233718327127625e-04  -1.7687705163213065e-04  -1.8153652276345220e-04  -1.8631874809393374e-04 
 -1.9122696211608815e-04  -1.9626448457701464e-04  -2.0143472272701784e-04  -2.0674117362761557e-04 
 -2.1218742652050532e-04  -2.1777716525910780e-04  -2.2351417080433819e-04  -2.2940232378631446e-04 
 -2.3544560713374620e-04  -2.4164810877279442e-04  -2.4801402439725197e-04  -2.5454766031192600e-04 
 -2.6125343635116953e-04  -2.6813588887455162e-04  -2.7519967384171567e-04  -2.8244956996852051e-04 
 -2.8989048196662883e-04  -2.9752744386875025e-04  -3.0536562244181590e-04  -3.1341032069041869e-04 
 -3.2166698145291662e-04  -3.3014119109265651e-04  -3.3883868328685239e-04  -3.4776534291570396e-04 
 -3.5692721005442442e-04  -3.6633048407091714e-04  -3.7598152783189771e-04  -3.8588687202036125e-04 
 -3.9605321956734212e-04  -4.0648745020101771e-04  -4.1719662511627525e-04  -4.2818799176794740e-04 
 -4.3946898879101287e-04  -4.5104725105113972e-04  -4.6293061482905276e-04  -4.7512712314227821e-04 
 -4.8764503120794398e-04  -5.0049281205038045e-04  -5.1367916225740138e-04  -5.2721300788921978e-04 
 -5.4110351054408056e-04  -5.5536007358478884e-04  -5.6999234853043689e-04  -5.8501024161774801e-04 
 -6.0042392053655464e-04  -6.1624382134409272e-04  -6.3248065556286912e-04  -6.4914541746704103e-04 
 -6.6624939156232960e-04  -6.8380416026467457e-04  -7.0182161178294021e-04  -7.2031394821114295e-04 
 -7.3929369383583668e-04  -7.5877370366440487e-04  -7.7876717218020779e-04  -7.9928764233066954e-04 
 -8.2034901475457023e-04  -8.4196555725496024e-04  -8.6415191452432743e-04  -8.8692311812878070e-04 
 -9.1029459675823459e-04  -9.3428218674977844e-04  -9.5890214289155880e-04  -9.8417114951476975e-04 
 -1.0101063318815216e-03  -1.0367252678765650e-03  -1.0640460000111006e-03  -1.0920870477470945e-03 
 -1.1208674201507848e-03  -1.1504066288842802e-03  -1.1807247015444241e-03  -1.2118421953583325e-03 
 -1.2437802112452727e-03  -1.2765604082548418e-03  -1.3102050183916825e-03  -1.3447368618371971e-03 
 -1.3801793625791341e-03  -1.4165565644600926e-03  -1.4538931476563873e-03  -1.4922144455990461e-03 
 -1.5315464623489460e-03  -1.5719158904385438e-03  -1.6133501291929644e-03  -1.6558773035435402e-03 
 -1.6995262833473202e-03  -1.7443267032264246e-03  -1.7903089829414990e-03  -1.8375043483139571e-03 
 -1.8859448527121275e-03  -1.9356633991167993e-03  -1.9866937627821472e-03  -2.0390706145084923e-03 
 -2.0928295445437738e-03  -2.1480070871311239e-03  -2.2046407457204497e-03  -2.2627690188624264e-03 
 -2.3224314268038035e-03  -2.3836685388036144e-03  -2.4465220011902107e-03  -2.5110345661798648e-03 
 -2.5772501214781471e-03  -2.6452137206859389e-03  -2.7149716145325924e-03  -2.7865712829594066e-03 
 -2.8600614680772646e-03  -2.9354922080229626e-03  -3.0129148717395918e-03  -3.0923821947068616e-03 
 -3.1739483156483206e-03  -3.2576688142429296e-03  -3.3436007498695540e-03  -3.4318027014134996e-03 
 -3.5223348081654020e-03  -3.6152588118433782e-03  -3.7106380997705608e-03  -3.8085377492408992e-03 
 -3.9090245731072445e-03  -4.0121671666266470e-03  -4.1180359555990165e-03  -4.2267032458362264e-03 
 -4.3382432740000296e-03  -4.4527322598481751e-03  -4.5702484599295552e-03  -4.6908722227701665e-03 
 -4.8146860455933237e-03  -4.9417746326185022e-03  -5.0722249549849992e-03  -5.2061263123476878e-03 
 -5.3435703961937789e-03  -5.4846513549311558e-03  -5.6294658608001076e-03  -5.7781131786622843e-03 
 -5.9306952367221564e-03  -6.0873166992381836e-03  -6.2480850412825291e-03  -6.4131106256102143e-03 
 -6.5825067817005308e-03  -6.7563898870353764e-03  -6.9348794506815352e-03  -7.1180981992458271e-03 
 -7.3061721652744934e-03  -7.4992307781703354e-03  -7.6974069577036780e-03  -7.9008372101955597e-03 
 -8.1096617274542676e-03  -8.3240244885487771e-03  -8.5440733645058380e-03  -8.7699602260197500e-03 
 -9.0018410542672574e-03  -9.2398760549229370e-03  -9.4842297754734496e-03  -9.7350712259326906e-03 
 -9.9925740030629220e-03  -1.0256916418210648e-02  -1.0528281628869712e-02  -1.0806857774087695e-02 
 -1.1092838113836082e-02  -1.1386421172467910e-02  -1.1687810886391861e-02  -1.1997216756094994e-02 
 -1.2314854002652234e-02  -1.2640943728863919e-02  -1.2975713085168615e-02  -1.3319395440483229e-02 
 -1.3672230558127411e-02  -1.4034464776994842e-02  -1.4406351198139771e-02  -1.4788149876952490e-02 
 -1.5180128021104029e-02  -1.5582560194446366e-02  -1.5995728527060479e-02  -1.6419922931652196e-02 
 -1.6855441326501769e-02  -1.7302589865180972e-02  -1.7761683173258498e-02  -1.8233044592222563e-02 
 -1.8717006430857028e-02  -1.9213910224316177e-02  -1.9724107001151764e-02  -2.0247957558554134e-02 
 -2.0785832746078970e-02  -2.1338113758141042e-02  -2.1905192435564901e-02  -2.2487471576493757e-02 
 -2.3085365256967600e-02  -2.3699299161492587e-02  -2.4329710923934968e-02  -2.4977050479084488e-02 
 -2.5641780425242889e-02  -2.6324376398208216e-02  -2.7025327457034527e-02  -2.7745136481962949e-02 
 -2.8484320584932048e-02  -2.9243411533088907e-02  -3.0022956185737658e-02  -3.0823516945176391e-02 
 -3.1645672221889097e-02  -3.2490016914572664e-02  -3.3357162905499262e-02  -3.4247739571725104e-02 
 -3.5162394312679701e-02  -3.6101793094680902e-02  -3.7066621012944015e-02  -3.8057582871667030e-02 
 -3.9075403782795587e-02  -4.0120829784089401e-02  -4.1194628477128875e-02  -4.2297589685924050e-02 
 -4.3430526136805689e-02  -4.4594274160298271e-02  -4.5789694415696379e-02  -4.7017672639087051e-02 
 -4.8279120415580273e-02  -4.9574975976531280e-02  -5.0906205022562885e-02  -5.2273801573211182e-02 
 -5.3678788844046109e-02  -5.5122220152135540e-02  -5.6605179850743877e-02  -5.8128784294178754e-02 
 -5.9694182833717420e-02  -6.1302558845567158e-02  -6.2955130791832598e-02  -6.4653153315483838e-02 
 -6.6397918370334166e-02  -6.8190756387057017e-02  -7.0033037476287460e-02  -7.1926172669867283e-02 
 -7.3871615201307500e-02  -7.5870861826553448e-02  -7.7925454186148352e-02  -8.0036980209897621e-02 
 -8.2207075565143631e-02  -8.4437425149759424e-02  -8.6729764630974010e-02  -8.9085882031133060e-02 
 -9.1507619361494028e-02  -9.3996874305141892e-02  -9.6555601950091718e-02  -9.9185816573626906e-02 
 -1.0188959347888880e-01  -1.0466907088470478e-01  -1.0752645186959310e-01  -1.1046400637084169e-01 
 -1.1348407323949522e-01  -1.1658906235202239e-01  -1.1978145677935725e-01  -1.2306381501392159e-01 
 -1.2643877325514025e-01  -1.2990904775384646e-01  -1.3347743721585476e-01  -1.3714682526483510e-01 
 -1.4092018296447223e-01  -1.4480057139972100e-01  -1.4879114431677606e-01  -1.5289515082117114e-01 
 -1.5711593813318708e-01  -1.6145695439949800e-01  -1.6592175155970809e-01  -1.7051398826612829e-01 
 -1.7523743285481339e-01  -1.8009596636551931e-01  -1.8509358560785169e-01  -1.9023440627045574e-01 
 -1.9552266606963339e-01  -2.0096272793328726e-01  -2.0655908321555053e-01  -2.1231635493688947e-01 
 -2.1823930104384759e-01  -2.2433281768193566e-01  -2.3060194247446053e-01  -2.3705185779932275e-01 
 -2.4368789405500446e-01  -2.5051553290609357e-01  -2.5754041049777315e-01  -2.6476832062771938e-01 
 -2.7220521786280294e-01  -2.7985722058690310e-01  -2.8773061396494715e-01  -2.9583185280708074e-01 
 -3.0416756431555758e-01  -3.1274455069558904e-01  -3.2156979160993887e-01  -3.3065044645557268e-01 
 -3.3999385643908958e-01  -3.4960754642603636e-01  -3.5949922653752886e-01  -3.6967679346580790e-01 
 -3.8014833147859856e-01  -3.9092211308024344e-01  -4.0200659929567184e-01  -4.1341043954133999e-01 
 -4.2514247104525699e-01  -4.3721171777624362e-01  -4.4962738884052411e-01  -4.6239887630176008e-01 
 -4.7553575237860429e-01  -4.8904776597193039e-01  -5.0294483847193705e-01  -5.1723705879351767e-01 
 -5.3193467758653634e-01  -5.4704810056602904e-01  -5.6258788090591028e-01  -5.7856471063848103e-01 
 -5.9498941100100866e-01  -6.1187292166985796e-01  -6.2922628882221254e-01  -6.4706065196529561e-01 
 -6.6538722947335693e-01  -6.8421730277339354e-01  -7.0356219912195761e-01  -7.2343327291722870e-01 
 -7.4384188549313524e-01  -7.6479938334557229e-01  -7.8631707474484092e-01  -8.0840620469343416e-01 
 -8.3107792819425508e-01  -8.5434328180129671e-01  -8.7821315343302586e-01  -9.0269825043799790e-01 
 -9.2780906591296886e-01  -9.5355584328581422e-01  -9.7994853918912128e-01  -1.0069967846654513e+00 
 -1.0347098447620175e+00  -1.0630965765909457e+00  -1.0921653859516001e+00  -1.1219241826332516e+00 
 -1.1523803345404433e+00  -1.1835406208088251e+00  -1.2154111841068558e+00  -1.2479974823478543e+00 
 -1.2813042400678685e+00  -1.3153353997572408e+00  -1.3500940734676350e+00  -1.3855824950513573e+00 
 -1.4218019734258389e+00  -1.4587528472927644e+00  -1.4964344417782660e+00  -1.5348450274972329e+00 
 -1.5739817825807649e+00  -1.6138407582403791e+00  -1.6544168484750437e+00  -1.6957037645568287e+00 
 -1.7376940149568521e+00  -1.7803788913942222e+00  -1.8237484617060749e+00  -1.8677915702448784e+00 
 -1.9124958465090252e+00  -1.9578477227026461e+00  -2.0038324608993463e+00  -2.0504341904502814e+00 
 -2.0976359562282529e+00  -2.1454197782345727e+00  -2.1937667230123723e+00  -2.2426569872074982e+00 
 -2.2920699934940574e+00  -2.3419844989347367e+00  -2.3923787156746257e+00  -2.4432304436701648e+00 
 -2.4945172149310793e+00  -2.5462164485018821e+00  -2.5983056151308692e+00  -2.6507624102680025e+00 
 -2.7035649337004544e+00  -2.7566918737766484e+00  -2.8101226937892352e+00  -2.8638378176876649e+00 
 -2.9178188118765087e+00  -2.9720485594319093e+00  -3.0265114226423204e+00  -3.0811933893597505e+00 
 -3.1360821982433325e+00  -3.1911674376003538e+00  -3.2464406121933251e+00  -3.3018951721004912e+00 
 -3.3575264975075756e+00  -3.4133318331885354e+00  -3.4693101664218875e+00  -3.5254620422075300e+00 
 -3.5817893099180154e+00  -3.6382947959597889e+00  -3.6949818976557887e+00  -3.7518540944114953e+00 
 -3.8089143733115978e+00  -3.8661645676301921e+00  -3.9236046083368361e+00  -3.9812316905518248e+00 
 -4.0390393590481279e+00  -4.0970165584880416e+00  -4.1551464264892894e+00  -4.2134054089917576e+00 
 -4.2717619703667795e+00  -4.3301754632786471e+00  -4.3885949649454696e+00  -4.4469581405166689e+00 
 -4.5051901603409732e+00  -4.5632027034157474e+00  -4.6208930781152358e+00  -4.6781434977014227e+00 
 -4.7348205913360975e+00  -4.7907749227588479e+00  -4.8458411840950415e+00  -4.8998382973504571e+00 
 -4.9525700247107771e+00  -5.0038258967609499e+00  -5.0533825109003718e+00  -5.1010052111368944e+00 
 -5.1464501483614260e+00  -5.1894667110032922e+00  -5.2298002991876107e+00  -5.2671954050262348e+00 
 -5.3013989416432548e+00  -5.3321637520685234e+00  -5.3592522092719648e+00  -5.3824398064465004e+00 
 -5.4015186224286476e+00  -5.4163005358038436e+00  -5.4266200558865751e+00  -5.4323366341596504e+00 
 -5.4333363253431255e+00  -5.4295326750300950e+00  -5.4208667284515908e+00  -5.4073060812429308e+00 
 -5.3888429236042299e+00  -5.3654910727863090e+00  -5.3372820360322937e+00  -5.3042602012918669e+00 
 -5.2664773119305499e+00  -5.2239864433075764e+00  -5.1768357580833975e+00  -5.1250623726380580e+00 
 -5.0686867117345322e+00  -5.0077077590198753e+00  -4.9420996231361949e+00  -4.8718098246856405e+00 
 -4.7967596683765352e+00  -4.7168469900985057e+00  -4.6319514586189756e+00  -4.5419424724925603e+00 
 -4.4466895147815748e+00  -4.3460746346483212e+00  -4.2400065081745613e+00  -4.1284353181377824e+00 
 -4.0113674925178548e+00  -3.8888791776032843e+00  -3.7611272151406663e+00  -3.6283563659789708e+00 
 -3.4909015942569686e+00  -3.3491844194025391e+00  -3.2037026561394484e+00  -3.0550133134091273e+00 
 -2.9037089842066748e+00  -2.7503887183679527e+00  -2.5956250824921194e+00  -2.4399298248040648e+00 
 -2.2837212049588125e+00  -2.1272965430631339e+00  -1.9708137959617253e+00  -1.8142858984361103e+00 
 -1.6575911319362016e+00  -1.5005018477783083e+00  -1.3427324542828800e+00  -1.1840057032092175e+00 
 -1.0241340727852850e+00  -8.6311059864767392e-01  -7.0120108863650421e-01  -5.3902756809258057e-01 
 -3.7763138368006283e-01  -2.1850399690933742e-01  -6.3574432511609338e-02  8.4855170093293950e-02 
 2.2423035928281809e-01  3.5192040599563790e-01  4.6544173689215496e-01  5.6271365033731857e-01 
 6.4232410801564099e-01  7.0377738108895216e-01  7.4769136471948250e-01  7.7591141248070850e-01 
 7.9151045710614942e-01  7.9865264823513005e-01  8.0231007111084585e-01  8.0783924246082039e-01 
 8.2044375194323993e-01  8.4458207393858575e-01  8.8330143504754954e-01  9.3845747331928109e-01 
 1.0034234540303117e+00  1.0249814160710302e+00  1.0041220127154289e+00  9.4507043384613876e-01 
 8.4941971963983531e-01  7.2324247910441275e-01  5.7623111467742216e-01  4.2107360025346507e-01 
 2.7224637678605468e-01  1.4444827668295621e-01  5.0264929272277867e-02  2.7921425336172065e-03 
 -2.7660671803480668e-04  2.7403344245179825e-05  -2.7148409676067685e-06  2.6895758669307028e-07 
 -2.6645130583958956e-08  2.6403795923595459e-09  -2.6113830673443250e-10  2.5721487545019026e-11 
 -2.3525990537875523e-12  -7.9015652057884216e-14  -4.0449305695575790e-13  -2.6951101705927323e-13 
 -8.3474939196299675e-13  -2.5364094083464344e-13  4.8274919712618026e-13  -3.1957858482506327e-13 
 -1.3259088792706642e-13  4.5547126511035815e-13  -3.0369448883082229e-13  -2.3617001940309615e-13 
 4.8550130840455331e-13  -2.7141555192579392e-13  -3.1925696901905555e-13  4.9982269901184958e-13 
 -3.5037495655482291e-13  -1.4603466633834468e-13  3.9338304042667479e-13  -4.4852177358759350e-13 
 3.6142497301240412e-13  4.9016300800217813e-14  -1.5791287904518529e-13  2.0959479357676598e-13 
 -1.6503453420639313e-13  2.5508124577668193e-13  5.2775803837111155e-14  3.0511347725137397e-13 
 -1.2130644203297401e-14  2.0119885343243041e-13  -5.9811459862620797e-14  1.0815858095562313e-08 
 1.0430555668213097e-08  1.0021539142214788e-08  9.5872559271600541e-09  9.0195792649432607e-09 
 1.0195904649197558e-08  9.3421789259382856e-09  8.6739071234465161e-09  8.0458691392682698e-09 
 7.4468786225650104e-09  6.8823716285949764e-09  0.0000000000000000e+00  0.0000000000000000e+00 
 0.0000000000000000e+00  0.0000000000000000e+00  0.0000000000000000e+00  0.0000000000000000e+00 
 0.0000000000000000e+00  0.0000000000000000e+00  0.0000000000000000e+00  0.0000000000000000e+00 
 0.0000000000000000e+00  0.0000000000000000e+00  0.0000000000000000e+00  0.0000000000000000e+00 
 0.0000000000000000e+00  0.0000000000000000e+00  0.0000000000000000e+00  0.0000000000000000e+00 
 0.0000000000000000e+00  0.0000000000000000e+00  0.0000000000000000e+00  0.0000000000000000e+00 
 0.0000000000000000e+00  0.0000000000000000e+00  0.0000000000000000e+00  0.0000000000000000e+00 
 0.0000000000000000e+00  0.0000000000000000e+00  0.0000000000000000e+00  0.0000000000000000e+00 
 0.0000000000000000e+00  0.0000000000000000e+00  0.0000000000000000e+00  0.0000000000000000e+00 
 0.0000000000000000e+00  0.0000000000000000e+00  0.0000000000000000e+00  0.0000000000000000e+00 
 0.0000000000000000e+00  0.0000000000000000e+00  0.0000000000000000e+00  0.0000000000000000e+00 
 0.0000000000000000e+00  0.0000000000000000e+00  0.0000000000000000e+00  0.0000000000000000e+00 
 0.0000000000000000e+00  0.0000000000000000e+00  0.0000000000000000e+00  0.0000000000000000e+00 
 0.0000000000000000e+00  0.0000000000000000e+00  0.0000000000000000e+00  0.0000000000000000e+00 
 0.0000000000000000e+00  0.0000000000000000e+00  0.0000000000000000e+00  0.0000000000000000e+00 
 0.0000000000000000e+00  0.0000000000000000e+00  0.0000000000000000e+00  0.0000000000000000e+00 
 0.0000000000000000e+00  0.0000000000000000e+00  0.0000000000000000e+00  0.0000000000000000e+00 
 0.0000000000000000e+00  0.0000000000000000e+00  0.0000000000000000e+00  0.0000000000000000e+00 
 0.0000000000000000e+00  0.0000000000000000e+00  0.0000000000000000e+00  0.0000000000000000e+00 
 0.0000000000000000e+00  0.0000000000000000e+00  0.0000000000000000e+00  0.0000000000000000e+00 
 0.0000000000000000e+00  0.0000000000000000e+00  0.0000000000000000e+00  0.0000000000000000e+00 
 0.0000000000000000e+00  0.0000000000000000e+00  0.0000000000000000e+00  0.0000000000000000e+00 
 0.0000000000000000e+00  0.0000000000000000e+00  0.0000000000000000e+00  0.0000000000000000e+00 
 0.0000000000000000e+00  0.0000000000000000e+00  0.0000000000000000e+00  0.0000000000000000e+00 
 0.0000000000000000e+00  0.0000000000000000e+00  0.0000000000000000e+00  0.0000000000000000e+00 
 0.0000000000000000e+00  0.0000000000000000e+00  0.0000000000000000e+00  0.0000000000000000e+00 
 0.0000000000000000e+00  0.0000000000000000e+00  0.0000000000000000e+00  0.0000000000000000e+00 
 0.0000000000000000e+00  0.0000000000000000e+00  0.0000000000000000e+00  0.0000000000000000e+00 
 0.0000000000000000e+00  0.0000000000000000e+00  0.0000000000000000e+00  0.0000000000000000e+00 
 0.0000000000000000e+00  0.0000000000000000e+00  0.0000000000000000e+00  0.0000000000000000e+00 
 0.0000000000000000e+00  0.0000000000000000e+00  0.0000000000000000e+00  0.0000000000000000e+00 
 0.0000000000000000e+00  0.0000000000000000e+00  0.0000000000000000e+00  0.0000000000000000e+00 
 0.0000000000000000e+00  0.0000000000000000e+00  0.0000000000000000e+00  0.0000000000000000e+00 
 0.0000000000000000e+00  0.0000000000000000e+00  0.0000000000000000e+00  0.0000000000000000e+00 
 0.0000000000000000e+00  0.0000000000000000e+00  0.0000000000000000e+00  0.0000000000000000e+00 
 0.0000000000000000e+00  0.0000000000000000e+00  0.0000000000000000e+00  0.0000000000000000e+00 
 0.0000000000000000e+00  0.0000000000000000e+00  0.0000000000000000e+00  0.0000000000000000e+00 
 0.0000000000000000e+00  0.0000000000000000e+00  0.0000000000000000e+00  0.0000000000000000e+00 
 0.0000000000000000e+00  0.0000000000000000e+00  0.0000000000000000e+00  0.0000000000000000e+00 
 0.0000000000000000e+00  0.0000000000000000e+00  0.0000000000000000e+00  0.0000000000000000e+00 
 0.0000000000000000e+00  0.0000000000000000e+00  0.0000000000000000e+00  0.0000000000000000e+00 
 0.0000000000000000e+00  0.0000000000000000e+00  0.0000000000000000e+00  0.0000000000000000e+00 
 0.0000000000000000e+00  0.0000000000000000e+00  0.0000000000000000e+00  0.0000000000000000e+00 
 0.0000000000000000e+00  0.0000000000000000e+00  0.0000000000000000e+00  0.0000000000000000e+00 
 0.0000000000000000e+00  0.0000000000000000e+00  0.0000000000000000e+00  0.0000000000000000e+00 
 0.0000000000000000e+00  0.0000000000000000e+00  0.0000000000000000e+00  0.0000000000000000e+00 
 0.0000000000000000e+00  0.0000000000000000e+00  0.0000000000000000e+00  0.0000000000000000e+00 
 0.0000000000000000e+00  0.0000000000000000e+00  0.0000000000000000e+00  0.0000000000000000e+00 
 0.0000000000000000e+00  0.0000000000000000e+00  0.0000000000000000e+00  0.0000000000000000e+00 
 0.0000000000000000e+00  0.0000000000000000e+00  0.0000000000000000e+00  0.0000000000000000e+00 
 0.0000000000000000e+00  0.0000000000000000e+00  0.0000000000000000e+00  0.0000000000000000e+00 
 0.0000000000000000e+00  0.0000000000000000e+00  0.0000000000000000e+00  0.0000000000000000e+00 
 0.0000000000000000e+00  0.0000000000000000e+00  0.0000000000000000e+00  0.0000000000000000e+00 
 0.0000000000000000e+00  0.0000000000000000e+00  0.0000000000000000e+00  0.0000000000000000e+00 
 0.0000000000000000e+00  0.0000000000000000e+00  0.0000000000000000e+00  0.0000000000000000e+00 
 0.0000000000000000e+00  0.0000000000000000e+00  0.0000000000000000e+00  0.0000000000000000e+00 
 0.0000000000000000e+00  0.0000000000000000e+00  0.0000000000000000e+00  0.0000000000000000e+00 
 0.0000000000000000e+00  0.0000000000000000e+00  0.0000000000000000e+00  0.0000000000000000e+00 
 0.0000000000000000e+00  0.0000000000000000e+00  0.0000000000000000e+00  0.0000000000000000e+00 
 0.0000000000000000e+00  0.0000000000000000e+00  0.0000000000000000e+00  0.0000000000000000e+00 
 0.0000000000000000e+00  0.0000000000000000e+00  0.0000000000000000e+00  0.0000000000000000e+00 
 0.0000000000000000e+00  0.0000000000000000e+00  0.0000000000000000e+00  0.0000000000000000e+00 
 0.0000000000000000e+00  0.0000000000000000e+00  0.0000000000000000e+00  0.0000000000000000e+00 
 0.0000000000000000e+00  0.0000000000000000e+00  0.0000000000000000e+00  0.0000000000000000e+00 
 0.0000000000000000e+00  0.0000000000000000e+00  0.0000000000000000e+00  0.0000000000000000e+00 
 0.0000000000000000e+00  0.0000000000000000e+00  0.0000000000000000e+00  0.0000000000000000e+00 
 0.0000000000000000e+00  0.0000000000000000e+00  0.0000000000000000e+00  0.0000000000000000e+00 
 0.0000000000000000e+00  0.0000000000000000e+00  0.0000000000000000e+00  0.0000000000000000e+00 
 0.0000000000000000e+00  0.0000000000000000e+00  0.0000000000000000e+00  0.0000000000000000e+00 
 0.0000000000000000e+00  0.0000000000000000e+00  0.0000000000000000e+00  0.0000000000000000e+00 
 0.0000000000000000e+00  0.0000000000000000e+00  0.0000000000000000e+00  0.0000000000000000e+00 
 0.0000000000000000e+00  0.0000000000000000e+00 
  </PP_BETA>
  <PP_DIJ>
 1   Number of nonzero Dij
 1 1 -5.6224466466800327e-01 
  </PP_DIJ>
</PP_NONLOCAL>
<PP_PSWFC>
S    0   2.00          Wavefunction
 7.4409446944370577e-05  7.5383084686237996e-05  7.6369462348745986e-05  7.7368746632063611e-05 
 7.8381106417609365e-05  7.9406712796592697e-05  8.0445739098928591e-05  8.1498360922530941e-05 
 8.2564756162988904e-05  8.3645105043631714e-05  8.4739590145986810e-05  8.5848396440636540e-05 
 8.6971711318478611e-05  8.8109724622395771e-05  8.9262628679339355e-05  9.0430618332833299e-05 
 9.1613890975903006e-05  9.2812646584435209e-05  9.4027087750974509e-05  9.5257419718961788e-05 
 9.6503850417420980e-05  9.7766590496099472e-05  9.9045853361068452e-05  1.0034185521078912e-04 
 1.0165481507265040e-04  1.0298495483998548e-04  1.0433249930957215e-04  1.0569767621962380e-04 
 1.0708071628827796e-04  1.0848185325258814e-04  1.0990132390802574e-04  1.1133936814849941e-04 
 1.1279622900689729e-04  1.1427215269616027e-04  1.1576738865089266e-04  1.1728218956951717e-04 
 1.1881681145698129e-04  1.2037151366802305e-04  1.2194655895100235e-04  1.2354221349230611e-04 
 1.2515874696133447e-04  1.2679643255607536e-04  1.2845554704927559e-04  1.3013637083521634e-04 
 1.3183918797710014e-04  1.3356428625505834e-04  1.3531195721478654e-04  1.3708249621681662e-04 
 1.3887620248643307e-04  1.4069337916424314e-04  1.4253433335740791e-04  1.4439937619154425e-04 
 1.4628882286330579e-04  1.4820299269365197e-04  1.5014220918181366e-04  1.5210680005996546e-04 
 1.5409709734861342e-04  1.5611343741270685e-04  1.5815616101848488e-04  1.6022561339106687e-04 
 1.6232214427279606e-04  1.6444610798234686e-04  1.6659786347460558e-04  1.6877777440133437e-04 
 1.7098620917262945e-04  1.7322354101918314e-04  1.7549014805536058e-04  1.7778641334310191e-04 
 1.8011272495666088e-04  1.8246947604818966e-04  1.8485706491418310e-04  1.8727589506279126e-04 
 1.8972637528201315e-04  1.9220891970878309e-04  1.9472394789896052e-04  1.9727188489823615e-04 
 1.9985316131396501e-04  2.0246821338794065e-04  2.0511748307012063e-04  2.0780141809331710e-04 
 2.1052047204886466e-04  2.1327510446327789e-04  2.1606578087591277e-04  2.1889297291764374e-04 
 2.2175715839057022e-04  2.2465882134876602e-04  2.2759845218008577e-04  2.3057654768904147e-04 
 2.3359361118076313e-04  2.3665015254605902e-04  2.3974668834758755e-04  2.4288374190715816e-04 
 2.4606184339417308e-04  2.4928152991522738e-04  2.5254334560488145e-04  2.5584784171762016e-04 
 2.5919557672101620e-04  2.6258711639011272e-04  2.6602303390303955e-04  2.6950390993788235e-04 
 2.7303033277081780e-04  2.7660289837553329e-04  2.8022221052394837e-04  2.8388888088825296e-04 
 2.8760352914428047e-04  2.9136678307623563e-04  2.9517927868278997e-04  2.9904166028456753e-04 
 3.0295458063303582e-04  3.0691870102082238e-04  3.1093469139347444e-04  3.1500323046268036e-04 
 3.1912500582097436e-04  3.2330071405793935e-04  3.2753106087793349e-04  3.3181676121935423e-04 
 3.3615853937546446e-04  3.4055712911679989e-04  3.4501327381517678e-04  3.4952772656932351e-04 
 3.5410125033215572e-04  3.5873461803971656e-04  3.6342861274180305e-04  3.6818402773430506e-04 
 3.7300166669327109e-04  3.7788234381073315e-04  3.8282688393230426e-04  3.8783612269658094e-04 
 3.9291090667636550e-04  3.9805209352173916e-04  4.0326055210500647e-04  4.0853716266753477e-04 
 4.1388281696851765e-04  4.1929841843568212e-04  4.2478488231797123e-04  4.3034313584021985e-04 
 4.3597411835985956e-04  4.4167878152566881e-04  4.4745808943860466e-04  4.5331301881473693e-04 
 4.5924455915031241e-04  4.6525371288898379e-04  4.7134149559122183e-04  4.7750893610594783e-04 
 4.8375707674440789e-04  4.9008697345632763e-04  4.9649969600836625e-04  5.0299632816490987e-04 
 5.0957796787122803e-04  5.1624572743902745e-04  5.2300073373443402e-04  5.2984412836843450e-04 
 5.3677706788980847e-04  5.4380072398058717e-04  5.5091628365406902e-04  5.5812494945542434e-04 
 5.6542793966492635e-04  5.7282648850384319e-04  5.8032184634302015e-04  5.8791527991419355e-04 
 5.9560807252406951e-04  6.0340152427120202e-04  6.1129695226571170e-04  6.1929569085187707e-04 
 6.2739909183363992e-04  6.3560852470305809e-04  6.4392537687175217e-04  6.5235105390537812e-04 
 6.6088697976116691e-04  6.6953459702857366e-04  6.7829536717307502e-04  6.8717077078315732e-04 
 6.9616230782053486e-04  7.0527149787364372e-04  7.1449988041445050e-04  7.2384901505862355e-04 
 7.3332048182910817e-04  7.4291588142314619e-04  7.5263683548279742e-04  7.6248498686899149e-04 
 7.7246199993917270e-04  7.8256956082857455e-04  7.9280937773517507e-04  8.0318318120837855e-04 
 8.1369272444147987e-04  8.2433978356794815e-04  8.3512615796159395e-04  8.4605367054066069e-04 
 8.5712416807589122e-04  8.6833952150263392e-04  8.7970162623702457e-04  8.9121240249630989e-04 
 9.0287379562335810e-04  9.1468777641542042e-04  9.2665634145718977e-04  9.3878151345821981e-04 
 9.5106534159475743e-04  9.6350990185604805e-04  9.7611729739517184e-04  9.8888965888447320e-04 
 1.0018291448756348e-03  1.0149379421644669e-03  1.0282182661604698e-03  1.0416723612612303e-03 
 1.0553025012317162e-03  1.0691109895885338e-03  1.0831001599892127e-03  1.0972723766265887e-03 
 1.1116300346283364e-03  1.1261755604617400e-03  1.1409114123437515e-03  1.1558400806564208e-03 
 1.1709640883677559e-03  1.1862859914580930e-03  1.2018083793520424e-03  1.2175338753560867e-03 
 1.2334651371019053e-03  1.2496048569954994e-03  1.2659557626721893e-03  1.2825206174575691e-03 
 1.2993022208344913e-03  1.3163034089161553e-03  1.3335270549253975e-03  1.3509760696802408e-03 
 1.3686534020857983e-03  1.3865620396326208e-03  1.4047050089015520e-03  1.4230853760752032e-03 
 1.4417062474561012e-03  1.4605707699916349e-03  1.4796821318058526e-03  1.4990435627382315e-03 
 1.5186583348894818e-03  1.5385297631745020e-03  1.5586612058825625e-03  1.5790560652448216e-03 
 1.5997177880092645e-03  1.6206498660231586e-03  1.6418558368231412e-03  1.6633392842330121e-03 
 1.6851038389693602e-03  1.7071531792551037e-03  1.7294910314410562e-03  1.7521211706356377e-03 
 1.7750474213428032e-03  1.7982736581083319e-03  1.8218038061745643e-03  1.8456418421437058e-03 
 1.8697917946498138e-03  1.8942577450395586e-03  1.9190438280619077e-03  1.9441542325668241e-03 
 1.9695932022131026e-03  1.9953650361854689e-03  2.0214740899210629e-03  2.0479247758454096e-03 
 2.0747215641180390e-03  2.1018689833878436e-03  2.1293716215583210e-03  2.1572341265628271e-03 
 2.1854612071499683e-03  2.2140576336792681e-03  2.2430282389272445e-03  2.2723779189040244e-03 
 2.3021116336806396e-03  2.3322344082271516e-03  2.3627513332617331e-03  2.3936675661108530e-03 
 2.4249883315807163e-03  2.4567189228400978e-03  2.4888647023147310e-03  2.5214311025933854e-03 
 2.5544236273457961e-03  2.5878478522526026e-03  2.6217094259474430e-03  2.6560140709713832e-03 
 2.6907675847398088e-03  2.7259758405219787e-03  2.7616447884333756e-03  2.7977804564410479e-03 
 2.8343889513820913e-03  2.8714764599954432e-03  2.9090492499671819e-03  2.9471136709894935e-03 
 2.9856761558334716e-03  3.0247432214359706e-03  3.0643214700006457e-03  3.1044175901134008e-03 
 3.1450383578724350e-03  3.1861906380330368e-03  3.2278813851673782e-03  3.2701176448394318e-03 
 3.3129065547953091e-03  3.3562553461690941e-03  3.4001713447044985e-03  3.4446619719924599e-03 
 3.4897347467249150e-03  3.5353972859649891e-03  3.5816573064337740e-03  3.6285226258139223e-03 
 3.6760011640702903e-03  3.7241009447878583e-03  3.7728300965271101e-03  3.8221968541971522e-03 
 3.8722095604467785e-03  3.9228766670736962e-03  3.9742067364522066e-03  4.0262084429795167e-03 
 4.0788905745409582e-03  4.1322620339943744e-03  4.1863318406738749e-03  4.2411091319132588e-03 
 4.2966031645893686e-03  4.3528233166855645e-03  4.4097790888756585e-03  4.4674801061285472e-03 
 4.5259361193337880e-03  4.5851570069484447e-03  4.6451527766654182e-03  4.7059335671036000e-03 
 4.7675096495200806e-03  4.8298914295447472e-03  4.8930894489375293e-03  4.9571143873686002e-03 
 5.0219770642218210e-03  5.0876884404217598e-03  5.1542596202845516e-03  5.2217018533929384e-03 
 5.2900265364958111e-03  5.3592452154325116e-03  5.4293695870823253e-03  5.5004115013393669e-03 
 5.5723829631132982e-03  5.6452961343561271e-03  5.7191633361155037e-03  5.7939970506147775e-03 
 5.8698099233602564e-03  5.9466147652759253e-03  6.0244245548660303e-03  6.1032524404059383e-03 
 6.1831117421615083e-03  6.2640159546374823e-03  6.3459787488551814e-03  6.4290139746599334e-03 
 6.5131356630585991e-03  6.5983580285875745e-03  6.6846954717117288e-03  6.7721625812545453e-03 
 6.8607741368600554e-03  6.9505451114868014e-03  7.0414906739343667e-03  7.1336261914027987e-03 
 7.2269672320854385e-03  7.3215295677955417e-03  7.4173291766271203e-03  7.5143822456504861e-03 
 7.6127051736428726e-03  7.7123145738547030e-03  7.8132272768118762e-03  7.9154603331545031e-03 
 8.0190310165127159e-03  8.1239568264198474e-03  8.2302554912635998e-03  8.3379449712756223e-03 
 8.4470434615599912e-03  8.5575693951611426e-03  8.6695414461717499e-03  8.7829785328809879e-03 
 8.8978998209638116e-03  9.0143247267117227e-03  9.1322729203055283e-03  9.2517643291307183e-03 
 9.3728191411359078e-03  9.4954578082349847e-03  9.6197010497534371e-03  9.7455698559195392e-03 
 9.8730854914008473e-03  1.0002269498886666e-02  1.0133143702717068e-02  1.0265730212559041e-02 
 1.0400051427130325e-02  1.0536130037971681e-02  1.0673989033268069e-02  1.0813651701719398e-02 
 1.0955141636461546e-02  1.1098482739038238e-02  1.1243699223424389e-02  1.1390815620101654e-02 
 1.1539856780186809e-02  1.1690847879613605e-02  1.1843814423368817e-02  1.1998782249783204e-02 
 1.2155777534877921e-02  1.2314826796767353e-02  1.2475956900118811e-02  1.2639195060669978e-02 
 1.2804568849804791e-02  1.2972106199188449e-02  1.3141835405462425e-02  1.3313785135000054e-02 
 1.3487984428723638e-02  1.3664462706983625e-02  1.3843249774501016e-02  1.4024375825373282e-02 
 1.4207871448145080e-02  1.4393767630944203e-02  1.4582095766683822e-02  1.4772887658331763e-02 
 1.4966175524247593e-02  1.5161992003588516e-02  1.5360370161784695e-02  1.5561343496085218e-02 
 1.5764945941175182e-02  1.5971211874865082e-02  1.6180176123853248e-02  1.6391873969562275e-02 
 1.6606341154050398e-02  1.6823613885998619e-02  1.7043728846774703e-02  1.7266723196574706e-02 
 1.7492634580643415e-02  1.7721501135574136e-02  1.7953361495689265e-02  1.8188254799502358e-02 
 1.8426220696262759e-02  1.8667299352583832e-02  1.8911531459155750e-02  1.9158958237543957e-02 
 1.9409621447074105e-02  1.9663563391804931e-02  1.9920826927589633e-02  2.0181455469227182e-02 
 2.0445492997704488e-02  2.0712984067530488e-02  2.0983973814163372e-02  2.1258507961531874e-02 
 2.1536632829651944e-02  2.1818395342339668e-02  2.2103843035022015e-02  2.2393024062645896e-02 
 2.2685987207687396e-02  2.2982781888261795e-02  2.3283458166335907e-02  2.3588066756043701e-02 
 2.3896659032106572e-02  2.4209287038359284e-02  2.4526003496382971e-02  2.4846861814246373e-02 
 2.5171916095356465e-02  2.5501221147419803e-02  2.5834832491515788e-02  2.6172806371283139e-02 
 2.6515199762220984e-02  2.6862070381105448e-02  2.7213476695523552e-02  2.7569477933525238e-02 
 2.7930134093395259e-02  2.8295505953545932e-02  2.8665655082532118e-02  2.9040643849189939e-02 
 2.9420535432900411e-02  2.9805393833979441e-02  3.0195283884195314e-02  3.0590271257415477e-02 
 3.0990422480383351e-02  3.1395804943627377e-02  3.1806486912502693e-02  3.2222537538367707e-02 
 3.2644026869896453e-02  3.3071025864528258e-02  3.3503606400056077e-02  3.3941841286355127e-02 
 3.4385804277252831e-02  3.4835570082541789e-02  3.5291214380137215e-02  3.5752813828380033e-02 
 3.6220446078487165e-02  3.6694189787150493e-02  3.7174124629285883e-02  3.7660331310933666e-02 
 3.8152891582312026e-02  3.8651888251024717e-02  3.9157405195424481e-02  3.9669527378133895e-02 
 4.0188340859724447e-02  4.0713932812555996e-02  4.1246391534777493e-02  4.1785806464490621e-02 
 4.2332268194077732e-02  4.2885868484695486e-02  4.3446700280935578e-02  4.4014857725653792e-02 
 4.4590436174969370e-02  4.5173532213435209e-02  4.5764243669380825e-02  4.6362669630429537e-02 
 4.6968910459190716e-02  4.7583067809128951e-02  4.8205244640611190e-02  4.8835545237133314e-02 
 4.9474075221727240e-02  5.0120941573550376e-02  5.0776252644657925e-02  5.1440118176960044e-02 
 5.2112649319364622e-02  5.2793958645107303e-02  5.3484160169269539e-02  5.4183369366486350e-02 
 5.4891703188844558e-02  5.5609280083972867e-02  5.6336220013325160e-02  5.7072644470657560e-02 
 5.7818676500700904e-02  5.8574440718029412e-02  5.9340063326126721e-02  6.0115672136650325e-02 
 6.0901396588895346e-02  6.1697367769458826e-02  6.2503718432104755e-02  6.3320583017832499e-02 
 6.4148097675147148e-02  6.4986400280534595e-02  6.5835630459141231e-02  6.6695929605659579e-02 
 6.7567440905419801e-02  6.8450309355689271e-02  6.9344681787179063e-02  7.0250706885759795e-02 
 7.1168535214386444e-02  7.2098319235232980e-02  7.3040213332037335e-02  7.3994373832657542e-02 
 7.4960959031838983e-02  7.5940129214193922e-02  7.6932046677392965e-02  7.7936875755569471e-02 
 7.8954782842936527e-02  7.9985936417617753e-02  8.1030507065691135e-02  8.2088667505446467e-02 
 8.3160592611856710e-02  8.4246459441263258e-02  8.5346447256274466e-02  8.6460737550878353e-02 
 8.7589514075768718e-02  8.8732962863883921e-02  8.9891272256159879e-02  9.1064632927494324e-02 
 9.2253237912923766e-02  9.3457282634011651e-02  9.4676964925447304e-02  9.5912485061854111e-02 
 9.7164045784807265e-02  9.8431852330058051e-02  9.9716112454965172e-02  1.0101703646612981e-01 
 1.0233483724723426e-01  1.0366973028708046e-01  1.0502193370782752e-01  1.0639166829342472e-01 
 1.0777915751823758e-01  1.0918462757586299e-01  1.1060830740813045e-01  1.1205042873428457e-01 
 1.1351122608034465e-01  1.1499093680863537e-01  1.1648980114748311e-01  1.1800806222107119e-01 
 1.1954596607944636e-01  1.2110376172866860e-01  1.2268170116109432e-01  1.2428003938578346e-01 
 1.2589903445901754e-01  1.2753894751491784e-01  1.2920004279614744e-01  1.3088258768468178e-01 
 1.3258685273263038e-01  1.3431311169309032e-01  1.3606164155100800e-01  1.3783272255402690e-01 
 1.3962663824329352e-01  1.4144367548419137e-01  1.4328412449697200e-01  1.4514827888724435e-01 
 1.4703643567628391e-01  1.4894889533111749e-01  1.5088596179433417e-01  1.5284794251356948e-01 
 1.5483514847060292e-01  1.5684789421000608e-01  1.5888649786726680e-01  1.6095128119631513e-01 
 1.6304256959636271e-01  1.6516069213796333e-01  1.6730598158819157e-01  1.6947877443482839e-01 
 1.7167941090943079e-01  1.7390823500915339e-01  1.7616559451717548e-01  1.7845184102157721e-01 
 1.8076732993249311e-01  1.8311242049735679e-01  1.8548747581403471e-01  1.8789286284163081e-01 
 1.9032895240872721e-01  1.9279611921880241e-01  1.9529474185255519e-01  1.9782520276683543e-01 
 2.0038788828986140e-01  2.0298318861238523e-01  2.0561149777443177e-01  2.0827321364722101e-01 
 2.1096873790985088e-01  2.1369847602028746e-01  2.1646283718018644e-01  2.1926223429302752e-01 
 2.2209708391502384e-01  2.2496780619822521e-01  2.2787482482520638e-01  2.3081856693469346e-01 
 2.3379946303744942e-01  2.3681794692169938e-01  2.3987445554735004e-01  2.4296942892821019e-01 
 2.4610331000139457e-01  2.4927654448305542e-01  2.5248958070955424e-01  2.5574286946315328e-01 
 2.5903686378128449e-01  2.6237201874841859e-01  2.6574879126954259e-01  2.6916763982423331e-01 
 2.7262902420029933e-01  2.7613340520595997e-01  2.7968124435952374e-01  2.8327300355554230e-01 
 2.8690914470641948e-01  2.9059012935849066e-01  2.9431641828160998e-01  2.9808847103133379e-01 
 3.0190674548284901e-01  3.0577169733585008e-01  3.0968377958967142e-01  3.1364344198806215e-01 
 3.1765113043311866e-01  3.2170728636800983e-01  3.2581234612828064e-01  3.2996674026168488e-01 
 3.3417089281667051e-01  3.3842522059984775e-01  3.4273013240297057e-01  3.4708602820019724e-01 
 3.5149329831662945e-01  3.5595232256937981e-01  3.6046346938267532e-01  3.6502709487876084e-01 
 3.6964354194663190e-01  3.7431313929086740e-01  3.7903620046309211e-01  3.8381302287879016e-01 
 3.8864388682240764e-01  3.9352905444381064e-01  3.9846876874928316e-01  4.0346325259027044e-01 
 4.0851270765304271e-01  4.1361731345232228e-01  4.1877722633167536e-01  4.2399257847311156e-01 
 4.2926347691782402e-01  4.3459000259934871e-01  4.3997220938957193e-01  4.4541012315697892e-01 
 4.5090374083529350e-01  4.5645302949917604e-01  4.6205792544193308e-01  4.6771833324822060e-01 
 4.7343412485251735e-01  4.7920513857164060e-01  4.8503117809687696e-01  4.9091201142833318e-01 
 4.9684736973094307e-01  5.0283694608823071e-01  5.0888039412647068e-01  5.1497732647835182e-01 
 5.2112731305175097e-01  5.2732987906582718e-01  5.3358450281346881e-01  5.3989061310633224e-01 
 5.4624758635639459e-01  5.5265474324633734e-01  5.5911134494033077e-01  5.6561658878710841e-01 
 5.7216960346885615e-01  5.7876944355255500e-01  5.8541508340532855e-01  5.9210541044214648e-01 
 5.9883921768328696e-01  6.0561519561030019e-01  6.1243192332306950e-01  6.1928785901699501e-01 
 6.2618132981831909e-01  6.3311052103713517e-01  6.4007346492144612e-01  6.4706802902145577e-01 
 6.5409190430063402e-01  6.6114259315832880e-01  6.6821739755699217e-01  6.7531340747443036e-01 
 6.8242748992665958e-01  6.8955627882850323e-01  6.9669616597545714e-01  7.0384329343976426e-01 
 7.1099354767424816e-01  7.1814255560730533e-01  7.2528568298967933e-01  7.3241803521646232e-01 
 7.3953446079467100e-01  7.4662955755664029e-01  7.5369768163183204e-01  7.6073295908465954e-01 
 7.6772930000476836e-01  7.7468041470119009e-01  7.8157983150644850e-01  7.8842091554624139e-01 
 7.9519688768128327e-01  8.0190084268864903e-01  8.0852576563032119e-01  8.1506454526784722e-01 
 8.2150998333646397e-01  8.2785479850261112e-01  8.3409162390844582e-01  8.4021299736764576e-01 
 8.4621134352858285e-01  8.5207894767053982e-01  8.5780792124825922e-01  8.6339015984575684e-01 
 8.6881729483056858e-01  8.7408064069389535e-01  8.7917114079010372e-01  8.8407931490960301e-01 
 8.8879521278065554e-01  8.9330837813685537e-01  8.9760782833897101e-01  9.0168205462936235e-01 
 9.0551904785155224e-01  9.0910635382061411e-01  9.1243116143020275e-01  9.1548042500037685e-01 
 9.1824102031077703e-01  9.2069993127172178e-01  9.2284446135748355e-01  9.2466246091396465e-01 
 9.2614255846932725e-01  9.2727438148982855e-01  9.2804874995129638e-01  9.2845782498748597e-01 
 9.2849519508344880e-01  9.2815588412881844e-01  9.2743626938357260e-01  9.2633390316631148e-01 
 9.2484723980715788e-01  9.2297527884600572e-01  9.2071714607151356e-01  9.1807164497344418e-01 
 9.1503682143010923e-01  9.1160959264885111e-01  9.0778549604736292e-01  9.0355861341896659e-01 
 8.9892171904273921e-01  8.9386668643998002e-01  8.8838516692539615e-01  8.8246952449574401e-01 
 8.7611397753350539e-01  8.6931586103378833e-01  8.6207688748807243e-01  8.5440425502986095e-01 
 8.4631143337398151e-01  8.3781845682220857e-01  8.2895157367373251e-01  8.1974214550583935e-01 
 8.1022475799480331e-01  8.0043459371621117e-01  7.9040421916358428e-01  7.8016004152456164e-01 
 7.6971878074448696e-01  7.5908727338006943e-01  7.4827430946465268e-01  7.3729040228476483e-01 
 7.2614614045570813e-01  7.1485217356475106e-01  7.0341919786449270e-01  6.9185794203610063e-01 
 6.8017915304442811e-01  6.6839358210610633e-01  6.5651197079075252e-01  6.4454503727444890e-01 
 6.3250346276363312e-01  6.2039787810649860e-01  6.0823885060795191e-01  5.9603687106310499e-01 
 5.8380234102330641e-01  5.7154556030809733e-01  5.5927671477523067e-01  5.4700586435032394e-01 
 5.3474293134142503e-01  5.2249768903846749e-01  5.1027975060539044e-01  4.9809855827228283e-01 
 4.8596337283365237e-01  4.7388326345813409e-01  4.6186709781439733e-01  4.4992353251765799e-01 
 4.3806100390102332e-01  4.2628771911596458e-01  4.1461164756651392e-01  4.0304051268236624e-01 
 3.9158178403693383e-01  3.8024266981757177e-01  3.6903010965665389e-01  3.5795076783392282e-01 
 3.4701102686255120e-01  3.3621698147354478e-01  3.2557443301548900e-01  3.1508888428901421e-01 
 3.0476553483739405e-01  2.9460927671646614e-01  2.8462469077916985e-01  2.7481604348717426e-01 
 2.6518728428792765e-01  2.5574204358586961e-01  2.4648363133690737e-01  2.3741503629481178e-01 
 2.2853892593653777e-01  2.1985764709090508e-01  2.1137322729163741e-01  2.0308737687150097e-01 
 1.9500149180927051e-01  1.8711665733558971e-01  1.7943365229761266e-01  1.7195295427572038e-01 
 1.6467474543899874e-01  1.5759891912108787e-01  1.5072508708103138e-01  1.4405258742929850e-01 
 1.3758049317031909e-01  1.3130762131923471e-01  1.2523254254368943e-01  1.1935359127735469e-01 
 1.1366887624881614e-01  1.0817629136719280e-01  1.0287352690446305e-01  9.7758080913926168e-02 
 9.2827270824502137e-02  8.8078245151616899e-02  8.3507995267177074e-02  7.9113367173530902e-02 
 7.4891073229271909e-02  7.0837703778172195e-02  6.6949738636359737e-02  6.3223558396979573e-02 
 5.9655455515921059e-02  5.6241645146659178e-02  5.2978275696766504e-02  4.9861439083114585e-02 
 4.6887180667126133e-02  4.4051508855580956e-02  4.1350404356356632e-02  3.8779829082033083e-02 
 3.6335734697461881e-02  3.4014070810149517e-02  3.1810792804605928e-02  2.9721869323645414e-02 
 2.7743289400997649e-02  2.5871069250500228e-02  2.4101258717656907e-02  2.2429947399436007e-02 
 2.0853270437930210e-02  1.9367413992535432e-02  1.7968620397311581e-02  1.6653193003849896e-02 
 1.5417500714539671e-02  1.4257982207578502e-02  1.3171149854714195e-02  1.2153593332041916e-02 
 1.1201982923633343e-02  1.0313072517434109e-02  9.4837022927465979e-03  8.7108010987266109e-03 
 7.9913885236653354e-03  7.3225766553919143e-03  6.7015715338993413e-03  6.1256742982419921e-03 
 5.5922820308479098e-03  5.0988883035988537e-03  4.6430834313224527e-03  4.2225544396774220e-03 
 3.8350847557611406e-03  3.4785536310965480e-03  3.1509353079328625e-03  2.8502979409960249e-03 
 2.5748022879277326e-03  2.3227001826379742e-03  2.0923328066508096e-03  1.8821287742360692e-03 
 1.6906020476839248e-03  1.5163496994913988e-03  1.3580495384895553e-03  1.2144576170496741e-03 
 1.0844056364710314e-03  9.6679826747882343e-04  8.6061040245672521e-04  7.6488435561446113e-04 
 6.7872702675746252e-04  6.0130704369472593e-04  5.3185189760451455e-04  4.6964508488779258e-04 
 4.1402326818864172e-04  3.6437346836151800e-04  3.2013029822894844e-04  2.8077324801158697e-04 
 2.4582403133629983e-04  2.1484399974740109e-04  1.8743163267081610e-04  1.6322010881958491e-04 
 1.4187496408967894e-04  1.2309184008470222e-04  1.0659432653296588e-04  9.2131900026060329e-05 
 7.9477960719547696e-05  6.8427967899108600e-05  5.8797674605317029e-05  5.0421460926163377e-05 
 4.3150764936584721e-05  3.6852609766959641e-05  3.1408224813652071e-05  2.6711758694464315e-05 
 2.2669081197202990e-05  1.9196671168295072e-05  1.6220587038575493e-05  1.3675516482687822e-05 
 1.1503901554372565e-05  9.6551355293851422e-06  8.0848276178061786e-06  6.7541316748562349e-06 
 5.6291350406800778e-06  4.6803036715507529e-06  3.8819797841827183e-06  3.2119283179934852e-06 
 2.6509286239443308e-06  2.1824079098553985e-06  1.7921131077948006e-06  1.4678179764068254e-06 
 1.1990624071683158e-06  9.7692106603361926e-07  7.9379866843826338e-07  6.4324935408149053e-07 
 5.1981779641360932e-07  4.1889984864658922e-07  3.3662069192859928e-07  2.6972861082586544e-07 
 2.1550267538885880e-07  1.7167275698534913e-07  1.3635044608050839e-07  1.0796957372094806e-07 
 8.5235164275521336e-08  6.7079764780137468e-08  5.2626205930485485e-08  4.1155951379011128e-08 
 3.2082285629696274e-08  2.4927676676304959e-08  1.9304727854602291e-08  1.4900204489241095e-08 
 1.1461685166970993e-08  8.7864452467332956e-09  6.7122319329474792e-09  5.1096363124810385e-09 
 3.8758086148424711e-09  2.9292990234223700e-09  2.2058380595749879e-09  1.6548982850773632e-09 
 1.2369032088425425e-09  9.2097020891861198e-10  6.8309233643780361e-10  5.0467937708484521e-10 
 3.7139180641271026e-10  2.7221256211314673e-10  1.9871111906085964e-10  1.4446241780465039e-10 
 1.0458996755931545e-10  7.5408102334083002e-11  5.4143079541052874e-11  3.8716629704117091e-11 
 2.7578591122852077e-11  1.9578341011627401e-11  1.3866411114839109e-11  -0.0000000000000000e+00 
 -0.0000000000000000e+00  -0.0000000000000000e+00  -0.0000000000000000e+00  -0.0000000000000000e+00 
 -0.0000000000000000e+00  -0.0000000000000000e+00  -0.0000000000000000e+00  -0.0000000000000000e+00 
 -0.0000000000000000e+00  -0.0000000000000000e+00  -0.0000000000000000e+00  -0.0000000000000000e+00 
 -0.0000000000000000e+00  -0.0000000000000000e+00  -0.0000000000000000e+00  -0.0000000000000000e+00 
 -0.0000000000000000e+00  -0.0000000000000000e+00  -0.0000000000000000e+00  -0.0000000000000000e+00 
 -0.0000000000000000e+00  -0.0000000000000000e+00  -0.0000000000000000e+00  -0.0000000000000000e+00 
 -0.0000000000000000e+00  -0.0000000000000000e+00  -0.0000000000000000e+00  -0.0000000000000000e+00 
 -0.0000000000000000e+00  -0.0000000000000000e+00  -0.0000000000000000e+00  -0.0000000000000000e+00 
 -0.0000000000000000e+00  -0.0000000000000000e+00  -0.0000000000000000e+00  -0.0000000000000000e+00 
 -0.0000000000000000e+00  -0.0000000000000000e+00  -0.0000000000000000e+00  -0.0000000000000000e+00 
 -0.0000000000000000e+00  -0.0000000000000000e+00  -0.0000000000000000e+00  -0.0000000000000000e+00 
 -0.0000000000000000e+00  -0.0000000000000000e+00  -0.0000000000000000e+00  -0.0000000000000000e+00 
 -0.0000000000000000e+00  -0.0000000000000000e+00  -0.0000000000000000e+00  -0.0000000000000000e+00 
 -0.0000000000000000e+00  -0.0000000000000000e+00  -0.0000000000000000e+00  -0.0000000000000000e+00 
 -0.0000000000000000e+00  -0.0000000000000000e+00  -0.0000000000000000e+00  -0.0000000000000000e+00 
 -0.0000000000000000e+00  -0.0000000000000000e+00  -0.0000000000000000e+00  -0.0000000000000000e+00 
 -0.0000000000000000e+00  -0.0000000000000000e+00  -0.0000000000000000e+00  -0.0000000000000000e+00 
 -0.0000000000000000e+00  -0.0000000000000000e+00  -0.0000000000000000e+00  -0.0000000000000000e+00 
 -0.0000000000000000e+00  -0.0000000000000000e+00  -0.0000000000000000e+00  -0.0000000000000000e+00 
 -0.0000000000000000e+00  -0.0000000000000000e+00  -0.0000000000000000e+00  -0.0000000000000000e+00 
 -0.0000000000000000e+00  -0.0000000000000000e+00  -0.0000000000000000e+00  -0.0000000000000000e+00 
 -0.0000000000000000e+00  -0.0000000000000000e+00  -0.0000000000000000e+00  -0.0000000000000000e+00 
 -0.0000000000000000e+00  -0.0000000000000000e+00  -0.0000000000000000e+00  -0.0000000000000000e+00 
 -0.0000000000000000e+00  -0.0000000000000000e+00  -0.0000000000000000e+00  -0.0000000000000000e+00 
 -0.0000000000000000e+00  -0.0000000000000000e+00  -0.0000000000000000e+00  -0.0000000000000000e+00 
 -0.0000000000000000e+00  -0.0000000000000000e+00  -0.0000000000000000e+00  -0.0000000000000000e+00 
 -0.0000000000000000e+00  -0.0000000000000000e+00  -0.0000000000000000e+00  -0.0000000000000000e+00 
 -0.0000000000000000e+00  -0.0000000000000000e+00  -0.0000000000000000e+00  -0.0000000000000000e+00 
 -0.0000000000000000e+00  -0.0000000000000000e+00  -0.0000000000000000e+00  -0.0000000000000000e+00 
 -0.0000000000000000e+00  -0.0000000000000000e+00  -0.0000000000000000e+00  -0.0000000000000000e+00 
 -0.0000000000000000e+00  -0.0000000000000000e+00  -0.0000000000000000e+00  -0.0000000000000000e+00 
 -0.0000000000000000e+00  -0.0000000000000000e+00  -0.0000000000000000e+00  -0.0000000000000000e+00 
 -0.0000000000000000e+00  -0.0000000000000000e+00  -0.0000000000000000e+00  -0.0000000000000000e+00 
 -0.0000000000000000e+00  -0.0000000000000000e+00 
P    1   4.00          Wavefunction
 9.0062818518335379e-09  9.2435158572500233e-09  9.4869988313376966e-09  9.7368953778561247e-09 
 9.9933744363838907e-09  1.0256609396528197e-08  1.0526778215142809e-08  1.0804063536633694e-08 
 1.1088652816433535e-08  1.1380738447728773e-08  1.1680517891524678e-08  1.1988193810136533e-08 
 1.2303974204197037e-08  1.2628072553272647e-08  1.2960707960183893e-08  1.3302105299127177e-08 
 1.3652495367698329e-08  1.4012115042920488e-08  1.4381207441382067e-08  1.4760022083592676e-08 
 1.5148815062668592e-08  1.5547849217461379e-08  1.5957394310246905e-08  1.6377727209094992e-08 
 1.6809132075042630e-08  1.7251900554197715e-08  1.7706331974902887e-08  1.8172733550092800e-08 
 1.8651420584981812e-08  1.9142716690222241e-08  1.9646954000677467e-08  2.0164473399957701e-08 
 2.0695624750870284e-08  2.1240767131940152e-08  2.1800269080160644e-08  2.2374508840138439e-08 
 2.2963874619801304e-08  2.3568764852841325e-08  2.4189588468071291e-08  2.4826765165876016e-08 
 2.5480725701945789e-08  2.6151912178483477e-08  2.6840778343082487e-08  2.7547789895477281e-08 
 2.8273424802374079e-08  2.9018173620574484e-08  2.9782539828610475e-08  3.0567040167114993e-08 
 3.1372204988158222e-08  3.2198578613785617e-08  3.3046719704000368e-08  3.3917201634438510e-08 
 3.4810612883992901e-08  3.5727557432646988e-08  3.6668655169788232e-08  3.7634542313276828e-08 
 3.8625871839553130e-08  3.9643313925074338e-08  4.0687556399379228e-08  4.1759305210086946e-08 
 4.2859284900144307e-08  4.3988239097644300e-08  4.5146931018546728e-08  4.6336143982641117e-08 
 4.7556681943100560e-08  4.8809370029984360e-08  5.0095055108057297e-08  5.1414606349302095e-08 
 5.2768915820512601e-08  5.4158899086364584e-08  5.5585495828372170e-08  5.7049670480147930e-08 
 5.8552412879396421e-08  6.0094738937081932e-08  6.1677691324222582e-08  6.3302340176775282e-08 
 6.4969783819088072e-08  6.6681149506408664e-08  6.8437594186951795e-08  7.0240305284039469e-08 
 7.2090501498844143e-08  7.3989433634276493e-08  7.5938385440575527e-08  7.7938674483171696e-08 
 7.9991653033411219e-08  8.2098708982742050e-08  8.4261266780980724e-08  8.6480788399294247e-08 
 8.8758774318547487e-08  9.1096764543684432e-08  9.3496339644829683e-08  9.5959121825813218e-08 
 9.8486776020840698e-08  1.0108101102005201e-07  1.0374358062472729e-07  1.0647628483292222e-07 
 1.0928097105633452e-07  1.1215953536922303e-07  1.1511392379022550e-07  1.1814613359793959e-07 
 1.2125821468115829e-07  1.2445227092467094e-07  1.2773046163156878e-07  1.3109500298301385e-07 
 1.3454816953646030e-07  1.3809229576334085e-07  1.4172977762725550e-07  1.4546307420373338e-07 
 1.4929470934265849e-07  1.5322727337448707e-07  1.5726342486140688e-07  1.6140589239462435e-07 
 1.6565747643899374e-07  1.7002105122623526e-07  1.7449956669802293e-07  1.7909605050025379e-07 
 1.8381361002985005e-07  1.8865543453547308e-07  1.9362479727357504e-07  1.9872505772124019e-07 
 2.0395966384731642e-07  2.0933215444336964e-07  2.1484616151603666e-07  2.2050541274239665e-07 
 2.2631373399001741e-07  2.3227505190338381e-07  2.3839339655845246e-07  2.4467290418713253e-07 
 2.5111781997352966e-07  2.5773250092384648e-07  2.6452141881187870e-07  2.7148916320209702e-07 
 2.7864044455236155e-07  2.8598009739836288e-07  2.9351308362194495e-07  3.0124449580551781e-07 
 3.0917956067482926e-07  3.1732364263242017e-07  3.2568224738415727e-07  3.3426102566128904e-07 
 3.4306577704054402e-07  3.5210245386485641e-07  3.6137716526736273e-07  3.7089618130139845e-07 
 3.8066593717927787e-07  3.9069303762273049e-07  4.0098426132792937e-07  4.1154656554813284e-07 
 4.2238709079703756e-07  4.3351316567601971e-07  4.4493231182853239e-07  4.5665224902500241e-07 
 4.6868090038167238e-07  4.8102639771690494e-07  4.9369708704858311e-07  5.0670153423631246e-07 
 5.2004853077224170e-07  5.3374709972442475e-07  5.4780650183672926e-07  5.6223624178942503e-07 
 5.7704607462467896e-07  5.9224601234130363e-07  6.0784633066321966e-07  6.2385757598619847e-07 
 6.4029057250759300e-07  6.5715642954386657e-07  6.7446654904087660e-07  6.9223263328197782e-07 
 7.1046669279917040e-07  7.2918105449262688e-07  7.4838836996409508e-07  7.6810162406981485e-07 
 7.8833414369871516e-07  8.0909960678184335e-07  8.3041205153910260e-07  8.5228588596956285e-07 
 8.7473589759174500e-07  8.9777726344047705e-07  9.2142556032707177e-07  9.4569677536976107e-07 
 9.7060731680151735e-07  9.9617402506255423e-07  1.0224141841850127e-06  1.0493455334775218e-06 
 1.0769862795175521e-06  1.1053551084596406e-06  1.1344711986678281e-06  1.1643542336808490e-06 
 1.1950244155188138e-06  1.2265024783404244e-06  1.2588097024599005e-06  1.2919679287331479e-06 
 1.3259995733228332e-06  1.3609276428524204e-06  1.3967757499593319e-06  1.4335681292578184e-06 
 1.4713296537222854e-06  1.5100858515021639e-06  1.5498629231797021e-06  1.5906877594823345e-06 
 1.6325879594615920e-06  1.6755918491508632e-06  1.7197285007146149e-06  1.7650277521019969e-06 
 1.8115202272181454e-06  1.8592373566267986e-06  1.9082113987982255e-06  1.9584754619168460e-06 
 2.0100635262632647e-06  2.0630104671858479e-06  2.1173520786773903e-06  2.1731250975728021e-06 
 2.2303672283841603e-06  2.2891171687899267e-06  2.3494146357955648e-06  2.4113003925832206e-06 
 2.4748162760686522e-06  2.5400052251839989e-06  2.6069113099055272e-06  2.6755797610459698e-06 
 2.7460570008316171e-06  2.8183906742847939e-06  2.8926296814329686e-06  2.9688242103662462e-06 
 3.0470257711655892e-06  3.1272872307247495e-06  3.2096628484893592e-06  3.2942083131374295e-06 
 3.3809807802259829e-06  3.4700389108293360e-06  3.5614429111950681e-06  3.6552545734445629e-06 
 3.7515373173455731e-06  3.8503562331850737e-06  3.9517781257713914e-06  4.0558715595953314e-06 
 4.1627069051808423e-06  4.2723563866565242e-06  4.3848941305802064e-06  4.5003962160495023e-06 
 4.6189407261322740e-06  4.7406078006517685e-06  4.8654796903620507e-06  4.9936408125504716e-06 
 5.1251778081045811e-06  5.2601796000822382e-06  5.3987374538243612e-06  5.5409450386510404e-06 
 5.6868984911827061e-06  5.8366964803290879e-06  5.9904402739899640e-06  6.1482338075127414e-06 
 6.3101837539531679e-06  6.4763995961866490e-06  6.6469937009189025e-06  6.8220813946459468e-06 
 7.0017810416148932e-06  7.1862141238380430e-06  7.3755053232145152e-06  7.5697826058148739e-06 
 7.7691773083856248e-06  7.9738242271322715e-06  8.1838617088406583e-06  8.3994317443984032e-06 
 8.6206800647795016e-06  8.8477562395570601e-06  9.0808137780106736e-06  9.3200102328967872e-06 
 9.5655073069522202e-06  9.8174709622027584e-06  1.0076071532150811e-05  1.0341483836917742e-05 
 1.0613887301418966e-05  1.0893466076651363e-05  1.1180409164175301e-05  1.1474910543875114e-05 
 1.1777169305084545e-05  1.2087389781165699e-05  1.2405781687632426e-05  1.2732560263911580e-05 
 1.3067946418837875e-05  1.3412166879980576e-05  1.3765454346903094e-05  1.4128047648459030e-05 
 1.4500191904230761e-05  1.4882138690219905e-05  1.5274146208901502e-05  1.5676479463756750e-05 
 1.6089410438402467e-05  1.6513218280438032e-05  1.6948189490134227e-05  1.7394618114091201e-05 
 1.7852805943997054e-05  1.8323062720620331e-05  1.8805706343175183e-05  1.9301063084200119e-05 
 1.9809467810095681e-05  2.0331264207470029e-05  2.0866805015445427e-05  2.1416452264082379e-05 
 2.1980577519082703e-05  2.2559562132936769e-05  2.3153797502684432e-05  2.3763685334464119e-05 
 2.4389637915028411e-05  2.5032078390409646e-05  2.5691441051924107e-05  2.6368171629707400e-05 
 2.7062727593979738e-05  2.7775578464244456e-05  2.8507206126628783e-05  2.9258105159580611e-05 
 3.0028783168142315e-05  3.0819761127026271e-05  3.1631573732724452e-05  3.2464769764889640e-05 
 3.3319912457232497e-05  3.4197579878184666e-05  3.5098365321585335e-05  3.6022877707654767e-05 
 3.6971741994525584e-05  3.7945599600610221e-05  3.8945108838088695e-05  3.9970945357810607e-05 
 4.1023802605910495e-05  4.2104392292446102e-05  4.3213444872374901e-05  4.4351710039194002e-05 
 4.5519957231577189e-05  4.6718976153349568e-05  4.7949577307153232e-05  4.9212592542161370e-05 
 5.0508875616213120e-05  5.1839302772746351e-05  5.3204773332919641e-05  5.4606210303321495e-05 
 5.6044560999678279e-05  5.7520797686980534e-05  5.9035918236460365e-05  6.0590946799863507e-05 
 6.2186934501469782e-05  6.3824960148330191e-05  6.5506130959198895e-05  6.7231583312652433e-05 
 6.9002483514900238e-05  7.0820028587805208e-05  7.2685447077644721e-05  7.4599999885158769e-05 
 7.6564981117444172e-05  7.8581718962269723e-05  8.0651576585401966e-05  8.2775953051545729e-05 
 8.4956284269522219e-05  8.7194043962319969e-05  8.9490744662673455e-05  9.1847938734841193e-05 
 9.4267219423269753e-05  9.6750221928854167e-05  9.9298624513516364e-05  1.0191414963384762e-04 
 1.0459856510457994e-04  1.0735368529266772e-04  1.1018137234278689e-04  1.1308353743507515e-04 
 1.1606214207596138e-04  1.1911919942295269e-04  1.2225677564427364e-04  1.2547699131426992e-04 
 1.2878202284551839e-04  1.3217410395860695e-04  1.3565552719057346e-04  1.3922864544301902e-04 
 1.4289587357093811e-04  1.4665969001333439e-04  1.5052263846671750e-04  1.5448732960261262e-04 
 1.5855644283022888e-04  1.6273272810548152e-04  1.6701900778757738e-04  1.7141817854441686e-04 
 1.7593321330809002e-04  1.8056716328178338e-04  1.8532315999944619e-04  1.9020441743959743e-04 
 1.9521423419469955e-04  2.0035599569755044e-04  2.0563317650619203e-04  2.1104934264886904e-04 
 2.1660815403061511e-04  2.2231336690307590e-04  2.2816883639923424e-04  2.3417851913473228e-04 
 2.4034647587753836e-04  2.4667687428775301e-04  2.5317399172938301e-04  2.5984221815597721e-04 
 2.6668605907205446e-04  2.7371013857230915e-04  2.8091920246063156e-04  2.8831812145103079e-04 
 2.9591189445260784e-04  3.0370565194077131e-04  3.1170465941696298e-04  3.1991432095919821e-04 
 3.2834018286580338e-04  3.3698793739478405e-04  3.4586342660132720e-04  3.5497264627600038e-04 
 3.6432174998628117e-04  3.7391705322411682e-04  3.8376503766228117e-04  3.9387235552237854e-04 
 4.0424583405740036e-04  4.1489248015183050e-04  4.2581948504236816e-04  4.3703422916241283e-04 
 4.4854428711354208e-04  4.6035743276729411e-04  4.7248164450065263e-04  4.8492511056871508e-04 
 4.9769623461813140e-04  5.1080364134496595e-04  5.2425618230075117e-04  5.3806294185059454e-04 
 5.5223324328728979e-04  5.6677665510549639e-04  5.8170299744014981e-04  5.9702234867337089e-04 
 6.1274505221425683e-04  6.2888172345604851e-04  6.4544325691527377e-04  6.6244083355759755e-04 
 6.7988592831522425e-04  6.9779031780082212e-04  7.1616608822306206e-04  7.3502564350900459e-04 
 7.5438171363868931e-04  7.7424736319741966e-04  7.9463600015139315e-04  8.1556138485243954e-04 
 8.3703763927779954e-04  8.5907925651102185e-04  8.8170111047020648e-04  9.0491846588997840e-04 
 9.2874698856374837e-04  9.5320275585296550e-04  9.7830226747024594e-04  1.0040624565434461e-03 
 1.0305007009678989e-03  1.0576348350542341e-03  1.0854831614793884e-03  1.1140644635485859e-03 
 1.1433980177762949e-03  1.1735036067943190e-03  1.2044015325954464e-03  1.2361126301212088e-03 
 1.2686582812026267e-03  1.3020604288629084e-03  1.3363415919913897e-03  1.3715248803981978e-03 
 1.4076340102593436e-03  1.4446933199622068e-03  1.4827277863616089e-03  1.5217630414569334e-03 
 1.5618253895009768e-03  1.6029418245515437e-03  1.6451400484769577e-03  1.6884484894270505e-03 
 1.7328963207813841e-03  1.7785134805867865e-03  1.8253306914965647e-03  1.8733794812240544e-03 
 1.9226922035234615e-03  1.9733020597112682e-03  2.0252431207418132e-03  2.0785503498509383e-03 
 2.1332596257819226e-03  2.1894077666083397e-03  2.2470325541686970e-03  2.3061727591281687e-03 
 2.3668681666830175e-03  2.4291596029237307e-03  2.4930889618731706e-03  2.5586992332165730e-03 
 2.6260345307404019e-03  2.6951401214976561e-03  2.7660624557175060e-03  2.8388491974775725e-03 
 2.9135492561576022e-03  2.9902128186936601e-03  3.0688913826524343e-03  3.1496377901456254e-03 
 3.2325062626049547e-03  3.3175524364385824e-03  3.4048333995903581e-03  3.4944077290236767e-03 
 3.5863355291522654e-03  3.6806784712405971e-03  3.7774998337972094e-03  3.8768645439846302e-03 
 3.9788392200701085e-03  4.0834922149419152e-03  4.1908936607163534e-03  4.3011155144612465e-03 
 4.4142316050621473e-03  4.5303176812579856e-03  4.6494514608734520e-03  4.7717126812759376e-03 
 4.8971831510853355e-03  5.0259468031655149e-03  5.1580897489270552e-03  5.2937003339708962e-03 
 5.4328691951036207e-03  5.5756893187551993e-03  5.7222561008308812e-03  5.8726674080291918e-03 
 6.0270236406587173e-03  6.1854277969868067e-03  6.3479855391537741e-03  6.5148052606870052e-03 
 6.6859981556493626e-03  6.8616782894573439e-03  7.0419626714045567e-03  7.2269713289267908e-03 
 7.4168273836452301e-03  7.6116571292250499e-03  7.8115901110868751e-03  8.0167592080090649e-03 
 8.2273007156593702e-03  8.4433544320945391e-03  8.6650637452671472e-03  8.8925757225790155e-03 
 9.1260412025210864e-03  9.3656148884396911e-03  9.6114554444695754e-03  9.8637255936740269e-03 
 1.0122592218432752e-02  1.0388226463118365e-02  1.0660803839101961e-02  1.0940504332128780e-02 
 1.1227512512104522e-02  1.1522017645332996e-02  1.1824213809245348e-02  1.2134300009661094e-02 
 1.2452480300620624e-02  1.2778963906828473e-02  1.3113965348746358e-02  1.3457704570373827e-02 
 1.3810407069754064e-02  1.4172304032241512e-02  1.4543632466566736e-02  1.4924635343733072e-02 
 1.5315561738778301e-02  1.5716666975433141e-02  1.6128212773706706e-02  1.6550467400427819e-02 
 1.6983705822768341e-02  1.7428209864773277e-02  1.7884268366919833e-02  1.8352177348725053e-02 
 1.8832240174418851e-02  1.9324767721696341e-02  1.9830078553560188e-02  2.0348499093259587e-02 
 2.0880363802329608e-02  2.1426015361729309e-02  2.1985804856073494e-02  2.2560091960947350e-02 
 2.3149245133288802e-02  2.3753641804816768e-02  2.4373668578478454e-02  2.5009721427881656e-02 
 2.5662205899671074e-02  2.6331537318801303e-02  2.7018140996649075e-02  2.7722452441901052e-02 
 2.8444917574143046e-02  2.9185992940067292e-02  2.9946145932204023e-02  3.0725855010072491e-02 
 3.1525609923635560e-02  3.2345911938928121e-02  3.3187274065718780e-02  3.4050221287047579e-02 
 3.4935290790469690e-02  3.5843032200819039e-02  3.6774007814288003e-02  3.7728792833603857e-02 
 3.8707975604062098e-02  3.9712157850158671e-02  4.0741954912541810e-02  4.1797995984983148e-02 
 4.2880924351043785e-02  4.3991397620088392e-02  4.5130087962274128e-02  4.6297682342115239e-02 
 4.7494882750196359e-02  4.8722406432577782e-02  4.9980986117406971e-02  5.1271370238216658e-02 
 5.2594323153359344e-02  5.3950625360989969e-02  5.5341073708975681e-02  5.6766481599071106e-02 
 5.8227679184661346e-02  5.9725513561330934e-02  6.1260848949478024e-02  6.2834566868146535e-02 
 6.4447566299206824e-02  6.6100763840966734e-02  6.7795093850246901e-02  6.9531508571905556e-02 
 7.1310978254747831e-02  7.3134491252699635e-02  7.5003054110077752e-02  7.6917691629726545e-02 
 7.8879446922743068e-02  8.0889381438450744e-02  8.2948574973226913e-02  8.5058125656730335e-02 
 8.7219149914016608e-02  8.9432782401969141e-02  9.1700175918418669e-02  9.4022501282255047e-02 
 9.6400947182787577e-02  9.8836719996542130e-02  1.0133104356962995e-01  1.0388515896376413e-01 
 1.0650032416394091e-01  1.0917781374575310e-01  1.1191891850024328e-01  1.1472494501415650e-01 
 1.1759721520340023e-01  1.2053706579747299e-01  1.2354584777257703e-01  1.2662492573108566e-01 
 1.2977567722500041e-01  1.3299949202099162e-01  1.3629777130458295e-01  1.3967192682100821e-01 
 1.4312337995024479e-01  1.4665356071368987e-01  1.5026390670993586e-01  1.5395586197706596e-01 
 1.5773087577888131e-01  1.6159040131243860e-01  1.6553589433426505e-01  1.6956881170259216e-01 
 1.7369060983291962e-01  1.7790274306420145e-01  1.8220666193289886e-01  1.8660381135210963e-01 
 1.9109562869292709e-01  1.9568354176511268e-01  2.0036896669408955e-01  2.0515330569115758e-01 
 2.1003794471371526e-01  2.1502425101211206e-01  2.2011357055960379e-01  2.2530722536163608e-01 
 2.3060651064046883e-01  2.3601269189084326e-01  2.4152700180206654e-01  2.4715063704151088e-01 
 2.5288475489407092e-01  2.5873046975166003e-01  2.6468884944624205e-01  2.7076091141932146e-01 
 2.7694761872011620e-01  2.8324987582393185e-01  2.8966852426146233e-01  2.9620433804891516e-01 
 3.0285801890797687e-01  3.0963019126373892e-01  3.1652139700776832e-01  3.2353209001258698e-01 
 3.3066263038293353e-01  3.3791327842830482e-01  3.4528418834054070e-01  3.5277540155954557e-01 
 3.6038683980977909e-01  3.6811829778988631e-01  3.7596943549786221e-01  3.8393977017450648e-01 
 3.9202866784871848e-01  4.0023533446944254e-01  4.0855880661095201e-01  4.1699794174066873e-01 
 4.2555140804201774e-01  4.3421767378895049e-01  4.4299499627387762e-01  4.5188141029688506e-01 
 4.6087471623136050e-01  4.6997246768961543e-01  4.7917195882181063e-01  4.8847021129243340e-01 
 4.9786396099090602e-01  5.0734964454638087e-01  5.1692338573152952e-01  5.2658098185588498e-01 
 5.3631789026594068e-01  5.4612921508650625e-01  5.5600969435538194e-01  5.6595368772091270e-01 
 5.7595516488887377e-01  5.8600769502090100e-01  5.9610443730057416e-01  6.0623813289463235e-01 
 6.1640109854474467e-01  6.2658522202893896e-01  6.3678195973024565e-01  6.4698233654243076e-01 
 6.5717694832792883e-01  6.6735596712034984e-01  6.7750914923257355e-01  6.8762584639078517e-01 
 6.9769501996463124e-01  7.0770525830393105e-01  7.1764479712354245e-01  7.2750154280098145e-01 
 7.3726309836768000e-01  7.4691679188663340e-01  7.5644970681939494e-01  7.6584871389772569e-01 
 7.7510050393404628e-01  7.8419162093545935e-01  7.9310849483435220e-01  8.0183747312089426e-01 
 8.1036485066588992e-01  8.1867689706315250e-01  8.2675988090536690e-01  8.3460009054175155e-01 
 8.4218385105409377e-01  8.4949753743193301e-01  8.5652758422725939e-01  8.6326049232008373e-01 
 8.6968283382017642e-01  8.7578125655421590e-01  8.8154249002281493e-01  8.8695335513436091e-01 
 8.9200078040234676e-01  8.9667182759486563e-01  9.0095373000988621e-01  9.0483394657583804e-01 
 9.0830023480160238e-01  9.1134074518357067e-01  9.1394413898669802e-01  9.1609973032913483e-01 
 9.1779765220935572e-01  9.1902904453504386e-01  9.1978626038466071e-01  9.2006308472610021e-01 
 9.1985495773621417e-01  9.1915919284877412e-01  9.1797517787802663e-01  9.1630454621934476e-01 
 9.1415130443466541e-01  9.1152190270910161e-01  9.0842523592144364e-01  9.0487256557059159e-01 
 9.0087735664001123e-01  8.9645502866318771e-01  8.9162262664746161e-01  8.8639842484108466e-01 
 8.8080148413726245e-01  8.7485119157191349e-01  8.6856681709874872e-01  8.6196712769947725e-01 
 8.5507010092816194e-01  8.4789277824426590e-01  8.4045129215181913e-01  8.3276108971132878e-01 
 8.2483735834227623e-01  8.1669563848675464e-01  8.0835258286222078e-01  7.9982679566985437e-01 
 7.9113965998283953e-01  7.8231604099852636e-01  7.7338474068063734e-01  7.6437857933680176e-01 
 7.5533399516539645e-01  7.4629008593875223e-01  7.3728706816714196e-01  7.2836419632269489e-01 
 7.1955726316934654e-01  7.1089588411878113e-01  7.0240084324503183e-01  6.9408183361576603e-01 
 6.8593594681490544e-01  6.7794724413508700e-01  6.7008766673962017e-01  6.6231941204468692e-01 
 6.5459872482595438e-01  6.4688083994693235e-01  6.3912559473866215e-01  6.3130303660656117e-01 
 6.2339923628303262e-01  6.1541607134493770e-01  6.0735799800552348e-01  5.9922949640125112e-01 
 5.9103506749916679e-01  5.8277923006551224e-01  5.7446651768763402e-01  5.6610147583376424e-01 
 5.5768865895928421e-01  5.4923262764227287e-01  5.4073794573879841e-01  5.3220917754776398e-01 
 5.2365088497353218e-01  5.1506762467342160e-01  5.0646394517622151e-01  4.9784438395710101e-01 
 4.8921346445369535e-01  4.8057569300780467e-01  4.7193555571707380e-01  4.6329751518128831e-01 
 4.5466600712859484e-01  4.4604543690804088e-01  4.3744017583641570e-01  4.2885455738945305e-01 
 4.2029287323008901e-01  4.1175936906959204e-01  4.0325824036106028e-01  3.9479362782882893e-01 
 3.8636961284139631e-01  3.7799021263967308e-01  3.6965937545018679e-01  3.6138097548706416e-01 
 3.5315880788267734e-01  3.4499658357891250e-01  3.3689792421598558e-01  3.2886635706009776e-01 
 3.2090531001442468e-01  3.1301810676018993e-01  3.0520796207586565e-01  2.9747797738277337e-01 
 2.8983113656450410e-01  2.8227030210561760e-01  2.7479821159206080e-01  2.6741747461167686e-01 
 2.6013057008850754e-01  2.5293984408163045e-01  2.4584750805678057e-01  2.3885563766669729e-01 
 2.3196617203323006e-01  2.2518091353545991e-01  2.1850152809760565e-01  2.1192954596330044e-01 
 2.0546636293637852e-01  1.9911324206225772e-01  1.9287131571853069e-01  1.8674158807856178e-01 
 1.8072493790779562e-01  1.7482212164918154e-01  1.6903377675161529e-01  1.6336042519364449e-01 
 1.5780247715386667e-01  1.5236023477947458e-01  1.4703389600526492e-01  1.4182355837709543e-01 
 1.3672922283622302e-01  1.3175079742414378e-01  1.2688810087142313e-01  1.2214086603849020e-01 
 1.1750874318139053e-01  1.1299130302095110e-01  1.0858803959959980e-01  1.0429837291607975e-01 
 1.0012165133436958e-01  9.6057153769120981e-02  9.2104091655718090e-02  8.8261610718494726e-02 
 8.4528792555587054e-02  8.0904656063208888e-02  7.7388158725797060e-02  7.3978197801218726e-02 
 7.0673611432060870e-02  6.7473179713495660e-02  6.4375625757463556e-02  6.1379616773787851e-02 
 5.8483765205588380e-02  5.5686629945318700e-02  5.2986717656496818e-02  5.0382484223022231e-02 
 4.7872336344259935e-02  4.5454633290135035e-02  4.3127688826419604e-02  4.0889773316315707e-02 
 3.8739116000453613e-02  3.6673907453620959e-02  3.4692302212994408e-02  3.2792421569419722e-02 
 3.0972356510424653e-02  2.9230170801178654e-02  2.7563904187551998e-02  2.5971575703774282e-02 
 2.4451187065941841e-02  2.3000726131757868e-02  2.1618170406384217e-02  2.0301490574110792e-02 
 1.9048654035675402e-02  1.7857628431459022e-02  1.6726385131404304e-02  1.5652902673324112e-02 
 1.4635170132248481e-02  1.3671190404571642e-02  1.2758983391975450e-02  1.1896589071396067e-02 
 1.1082070438641888e-02  1.0313516314641670e-02  9.5890440046836178e-03  8.9068018023821839e-03 
 8.2649713314662115e-03  7.6617697198073861e-03  7.0954516013924385e-03  6.5643109431779275e-03 
 6.0666826949463248e-03  5.6009442614017241e-03  5.1655167967986117e-03  4.7588663233853338e-03 
 4.3795046758632666e-03  4.0259902749118217e-03  3.6969287336084083e-03  3.3909733012809284e-03 
 3.1068251499691856e-03  2.8432335092415319e-03  2.5989956556156189e-03  2.3729567632686586e-03 
 2.1640096231102138e-03  1.9710942376755954e-03  1.7931972989492554e-03  1.6293515577554848e-03 
 1.4786350921262102e-03  1.3401704827831964e-03  1.2131239038221295e-03  1.0967041366575232e-03 
 9.9016151523152458e-04  8.9278681039234092e-04  8.0391006121219581e-04  7.2289936084332174e-04 
 6.4915960430654617e-04  5.8213120537346720e-04  5.2128878944306676e-04  4.6613986902983590e-04 
 4.1622350817606618e-04  3.7110898177878683e-04  3.3039443548482758e-04  2.9370555145843697e-04 
 2.6069422496758336e-04  2.3103725637016494e-04  2.0443506271244352e-04  1.8061041278159116e-04 
 1.5930718908465516e-04  1.4028917985976598e-04  1.2333890386414658e-04  1.0825647032941207e-04 
 9.4858476129605651e-05  8.2976941873080858e-05  7.2458288307227880e-05  6.3162354116514855e-05 
 5.4961455900559530e-05  4.7739490840990972e-05  4.1391082304556024e-05  3.5820768385963119e-05 
 3.0942233167856980e-05  2.6677580267442273e-05  2.2956648049828723e-05  1.9716365717202082e-05 
 1.6900149330344444e-05  1.4457336684602274e-05  1.2342659845772888e-05  1.0515754052073825e-05 
 8.9407016057893631e-06  7.5856093116739336e-06  6.4222179679657486e-06  5.4255423790862242e-06 
 4.5735403358721176e-06  3.8468089985617056e-06  3.2283071186642109e-06  2.7031015475685546e-06 
 2.2581365007272420e-06  1.8820240760134839e-06  1.5648545620407622e-06  1.2980251159490276e-06 
 1.0740854394157907e-06  8.8659913549725434e-07  7.3001948644209504e-07  5.9957845299335092e-07 
 4.9118775810266898e-07  4.0135098166986234e-07  3.2708568502214088e-07  2.6585478272987706e-07 
 2.1550531578601423e-07  1.7421544871364623e-07  1.4044778837870625e-07  1.1290856922760660e-07 
 9.0512101808961853e-08  7.2349897783176688e-08  5.7663936720349196e-08  4.5823589275776741e-08 
 3.6305757718458368e-08  2.8677838218586485e-08  2.2583149760407773e-08  1.7728512056165494e-08 
 1.3873689443947748e-08  1.0822449531481965e-08  8.4150143949906447e-09  6.5217085704403006e-09 
 5.0376320109864585e-09  3.8782077666355378e-09  2.9754735148065964e-09  2.2750033826037837e-09 
 1.7333619039807977e-09  1.3160055978654196e-09  9.9555968454485045e-10  7.5040802093875763e-10 
 5.6354356912985271e-10  4.2163474851565400e-10  3.1426998472800820e-10  2.3334877471038949e-10 
 1.7259274549317787e-10  1.2715459431358182e-10  9.3306551433982433e-11  6.8193187688310168e-11 
 4.9636071765762203e-11  3.5980035161982032e-11  2.5972685935571821e-11  1.8670379416104784e-11 
 1.3365151996166240e-11  9.5281944653825299e-12  6.7663200863457529e-12  4.7886011046280794e-12 
 3.3809327630700080e-12  0.0000000000000000e+00  0.0000000000000000e+00  0.0000000000000000e+00 
 0.0000000000000000e+00  0.0000000000000000e+00  0.0000000000000000e+00  0.0000000000000000e+00 
 0.0000000000000000e+00  0.0000000000000000e+00  0.0000000000000000e+00  0.0000000000000000e+00 
 0.0000000000000000e+00  0.0000000000000000e+00  0.0000000000000000e+00  0.0000000000000000e+00 
 0.0000000000000000e+00  0.0000000000000000e+00  0.0000000000000000e+00  0.0000000000000000e+00 
 0.0000000000000000e+00  0.0000000000000000e+00  0.0000000000000000e+00  0.0000000000000000e+00 
 0.0000000000000000e+00  0.0000000000000000e+00  0.0000000000000000e+00  0.0000000000000000e+00 
 0.0000000000000000e+00  0.0000000000000000e+00  0.0000000000000000e+00  0.0000000000000000e+00 
 0.0000000000000000e+00  0.0000000000000000e+00  0.0000000000000000e+00  0.0000000000000000e+00 
 0.0000000000000000e+00  0.0000000000000000e+00  0.0000000000000000e+00  0.0000000000000000e+00 
 0.0000000000000000e+00  0.0000000000000000e+00  0.0000000000000000e+00  0.0000000000000000e+00 
 0.0000000000000000e+00  0.0000000000000000e+00  0.0000000000000000e+00  0.0000000000000000e+00 
 0.0000000000000000e+00  0.0000000000000000e+00  0.0000000000000000e+00  0.0000000000000000e+00 
 0.0000000000000000e+00  0.0000000000000000e+00  0.0000000000000000e+00  0.0000000000000000e+00 
 0.0000000000000000e+00  0.0000000000000000e+00  0.0000000000000000e+00  0.0000000000000000e+00 
 0.0000000000000000e+00  0.0000000000000000e+00  0.0000000000000000e+00  0.0000000000000000e+00 
 0.0000000000000000e+00  0.0000000000000000e+00  0.0000000000000000e+00  0.0000000000000000e+00 
 0.0000000000000000e+00  0.0000000000000000e+00  0.0000000000000000e+00  0.0000000000000000e+00 
 0.0000000000000000e+00  0.0000000000000000e+00  0.0000000000000000e+00  0.0000000000000000e+00 
 0.0000000000000000e+00  0.0000000000000000e+00  0.0000000000000000e+00  0.0000000000000000e+00 
 0.0000000000000000e+00  0.0000000000000000e+00  0.0000000000000000e+00  0.0000000000000000e+00 
 0.0000000000000000e+00  0.0000000000000000e+00  0.0000000000000000e+00  0.0000000000000000e+00 
 0.0000000000000000e+00  0.0000000000000000e+00  0.0000000000000000e+00  0.0000000000000000e+00 
 0.0000000000000000e+00  0.0000000000000000e+00  0.0000000000000000e+00  0.0000000000000000e+00 
 0.0000000000000000e+00  0.0000000000000000e+00 
</PP_PSWFC>


<PP_RHOATOM>
 1.1073531913586652e-08  1.1365219255395400e-08  1.1664589918885649e-08  1.1971846290061435e-08 
 1.2287196085967338e-08  1.2610852495113262e-08  1.2943034321598015e-08  1.3283966133029392e-08 
 1.3633878412340513e-08  1.3993007713605198e-08  1.4361596821957642e-08  1.4739894917724556e-08 
 1.5128157744880683e-08  1.5526647783941696e-08  1.5935634429411039e-08  1.6355394171901154e-08 
 1.6786210785051804e-08  1.7228375517372016e-08  1.7682187289135430e-08  1.8147952894461908e-08 
 1.8625987208722319e-08  1.9116613401406476e-08  1.9620163154598285e-08  2.0136976887205727e-08 
 2.0667403985097189e-08  2.1211803037299991e-08  2.1770542078420517e-08  2.2343998837449829e-08 
 2.2932560993123313e-08  2.3536626436006544e-08  2.4156603537484788e-08  2.4792911425838122e-08 
 2.5445980269588368e-08  2.6116251568309895e-08  2.6804178451100588e-08  2.7510225982914907e-08 
 2.8234871478965831e-08  2.8978604827408829e-08  2.9741928820525342e-08  3.0525359494630159e-08 
 3.1329426478932227e-08  3.2154673353584776e-08  3.3001658017166840e-08  3.3870953063844805e-08 
 3.4763146170468489e-08  3.5678840493863930e-08  3.6618655078591162e-08  3.7583225275442868e-08 
 3.8573203170966499e-08  3.9589258028300827e-08  4.0632076739624101e-08  4.1702364290520497e-08 
 4.2800844236578397e-08  4.3928259192542766e-08  4.5085371334352067e-08  4.6272962914399722e-08 
 4.7491836790367985e-08  4.8742816967991630e-08  5.0026749158118815e-08  5.1344501348445542e-08 
 5.2696964390310043e-08  5.4085052600944082e-08  5.5509704381588168e-08  5.6971882851888402e-08 
 5.8472576501004372e-08  6.0012799855867668e-08  6.1593594167042929e-08  6.3216028112655551e-08 
 6.4881198520861458e-08  6.6590231111347120e-08  6.8344281256362403e-08  7.0144534761798815e-08 
 7.1992208668842799e-08  7.3888552076745444e-08  7.5834846987264613e-08  7.7832409171350947e-08 
 7.9882589058662676e-08  8.1986772650512143e-08  8.4146382456859635e-08  8.6362878457989098e-08 
 8.8637759091515242e-08  9.0972562265389361e-08  9.3368866397589428e-08  9.5828291483196549e-08 
 9.8352500189579109e-08  1.0094319898042560e-07  1.0360213926938590e-07  1.0633111860410067e-07 
 1.0913198188141916e-07  1.1200662259462806e-07  1.1495698411353265e-07  1.1798506099825828e-07 
 1.2109290034765733e-07  1.2428260318323596e-07  1.2755632586953527e-07  1.3091628157192574e-07 
 1.3436474175280293e-07  1.3790403770719471e-07  1.4153656213881724e-07  1.4526477077764794e-07 
 1.4909118404010553e-07  1.5301838873296215e-07  1.5704903980213941e-07  1.6118586212756856e-07 
 1.6543165236532965e-07  1.6978928083831689e-07  1.7426169347670382e-07  1.7885191380952521e-07 
 1.8356304500871816e-07  1.8839827198700712e-07  1.9336086355104958e-07  1.9845417461129744e-07 
 2.0368164845007183e-07  2.0904681904937838e-07  2.1455331348004428e-07  2.2020485435378510e-07 
 2.2600526233986431e-07  2.3195845874804535e-07  2.3806846817958077e-07  2.4433942124803385e-07 
 2.5077555737176996e-07  2.5738122764000618e-07  2.6416089775435540e-07  2.7111915104785921e-07 
 2.7826069158354098e-07  2.8559034733458521e-07  2.9311307344828201e-07  3.0083395559595494e-07 
 3.0875821341112522e-07  3.1689120401824689e-07  3.2523842565439333e-07  3.3380552138634247e-07 
 3.4259828292558035e-07  3.5162265454379321e-07  3.6088473709150631e-07  3.7039079212257285e-07 
 3.8014724612731661e-07  3.9016069487717564e-07  4.0043790788379771e-07  4.1098583297559320e-07 
 4.2181160099483911e-07  4.3292253061852199e-07  4.4432613330616187e-07  4.5603011837797754e-07 
 4.6804239822681284e-07  4.8037109366736492e-07  4.9302453942631142e-07  5.0601128977706589e-07 
 5.1934012432295854e-07  5.3302005393276054e-07  5.4706032683256117e-07  5.6147043485811833e-07 
 5.7626011987190571e-07  5.9143938034920266e-07  6.0701847813767639e-07  6.2300794539501914e-07 
 6.3941859170934463e-07  6.5626151140715307e-07  6.7354809105379755e-07  6.9129001715153552e-07 
 7.0949928404036344e-07  7.2818820200697653e-07  7.4736940560734244e-07  7.6705586220850787e-07 
 7.8726088075542129e-07  8.0799812076868758e-07  8.2928160157935922e-07  8.5112571180698944e-07 
 8.7354521908736034e-07  8.9655528005647000e-07  9.2017145059752254e-07  9.4440969635785663e-07 
 9.6928640354291476e-07  9.9481838999456077e-07  1.0210229165612296e-06  1.0479176987676045e-06 
 1.0755209187917130e-06  1.1038512377575193e-06  1.1329278083513718e-06  1.1627702877707761e-06 
 1.1933988510143066e-06  1.2248342045216089e-06  1.2570976001727271e-06  1.2902108496562168e-06 
 1.3241963392157811e-06  1.3590770447853664e-06  1.3948765475229888e-06  1.4316190497537756e-06 
 1.4693293913329920e-06  1.5080330664401639e-06  1.5477562408155995e-06  1.5885257694510047e-06 
 1.6303692147461327e-06  1.6733148651437686e-06  1.7173917542556305e-06  1.7626296804921365e-06 
 1.8090592272093050e-06  1.8567117833864181e-06  1.9056195648484312e-06  1.9558156360474922e-06 
 2.0073339324182730e-06  2.0602092833222656e-06  2.1144774355965499e-06  2.1701750777229571e-06 
 2.2273398646339673e-06  2.2860104431721409e-06  2.3462264782202864e-06  2.4080286795200643e-06 
 2.4714588291971109e-06  2.5365598100113796e-06  2.6033756343517277e-06  2.6719514739944413e-06 
 2.7423336906457529e-06  2.8145698672890709e-06  2.8887088403580885e-06  2.9648007327575546e-06 
 3.0428969877540456e-06  3.1230504037596606e-06  3.2053151700321599e-06  3.2897469033157197e-06 
 3.3764026854470901e-06  3.4653411019525538e-06  3.5566222816619039e-06  3.6503079373661100e-06 
 3.7464614075462604e-06  3.8451476992020412e-06  3.9464335318086232e-06  4.0503873824318474e-06 
 4.1570795320320511e-06  4.2665821129880854e-06  4.3789691578734643e-06  4.4943166495178472e-06 
 4.6127025723875603e-06  4.7342069653200684e-06  4.8589119756479896e-06  4.9869019147493476e-06 
 5.1182633150616214e-06  5.2530849885981424e-06  5.3914580870065798e-06  5.5334761632099842e-06 
 5.6792352346722768e-06  5.8288338483308942e-06  5.9823731472405665e-06  6.1399569389734542e-06 
 6.3016917658217285e-06  6.4676869768503441e-06  6.6380548018486396e-06  6.8129104272309091e-06 
 6.9923720739373393e-06  7.1765610773879201e-06  7.3656019695437063e-06  7.5596225631308016e-06 
 7.7587540380841617e-06  7.9631310302697946e-06  8.1728917225454193e-06  8.3881779382211643e-06 
 8.6091352369838243e-06  8.8359130133494291e-06  9.0686645977109185e-06  9.3075473600493643e-06 
 9.5527228163789886e-06  9.8043567379981010e-06  1.0062619263619990e-05  1.0327685014459684e-05 
 1.0599733212354604e-05  1.0878947800999202e-05  1.1165517570375678e-05  1.1459636284465075e-05 
 1.1761502812325409e-05  1.2071321262625596e-05  1.2389301121726472e-05  1.2715657395402386e-05 
 1.3050610754299498e-05  1.3394387683229468e-05  1.3747220634399655e-05  1.4109348184683918e-05 
 1.4481015197040370e-05  1.4862472986185904e-05  1.5253979488639573e-05  1.5655799437250453e-05 
 1.6068204540328162e-05  1.6491473665497590e-05  1.6925893028402754e-05  1.7371756386387765e-05 
 1.7829365237286112e-05  1.8299029023453686e-05  1.8781065341183482e-05  1.9275800155644499e-05 
 1.9783568021490907e-05  2.0304712309290650e-05  2.0839585437928118e-05  2.1388549113137721e-05 
 2.1951974572331744e-05  2.2530242835887106e-05  2.3123744965063455e-05  2.3732882326726688e-05 
 2.4358066865058090e-05  2.4999721380434319e-05  2.5658279815667084e-05  2.6334187549797442e-05 
 2.7027901699644548e-05  2.7739891429314157e-05  2.8470638267876706e-05  2.9220636435431914e-05 
 2.9990393177781371e-05  3.0780429109936637e-05  3.1591278568697497e-05  3.2423489974539462e-05 
 3.3277626203057439e-05  3.4154264966218737e-05  3.5053999203684411e-05  3.5977437484466193e-05 
 3.6925204419192988e-05  3.7897941083266748e-05  3.8896305451197303e-05  3.9920972842412223e-05 
 4.0972636378845013e-05  4.2052007454614938e-05  4.3159816218117879e-05  4.4296812066858186e-05 
 4.5463764155358600e-05  4.6661461916495802e-05  4.7890715596617190e-05  4.9152356804804736e-05 
 5.0447239076661036e-05  5.1776238453003660e-05  5.3140254073862653e-05  5.4540208788188097e-05 
 5.5977049779685192e-05  5.7451749209203800e-05  5.8965304874124741e-05  6.0518740885191656e-05 
 6.2113108361254736e-05  6.3749486142400318e-05  6.5428981521957268e-05  6.7152730997880239e-05 
 6.8921901044027666e-05  7.0737688901861484e-05  7.2601323393113631e-05  7.4514065753978500e-05 
 7.6477210491401808e-05  7.8492086262057603e-05  8.0560056774616124e-05  8.2682521715924333e-05 
 8.4860917701736459e-05  8.7096719252648916e-05  8.9391439795914095e-05  9.1746632693819914e-05 
 9.4163892299349737e-05  9.6644855039846412e-05  9.9191200529432163e-05  1.0180465271095037e-04 
 1.0448698102822086e-04  1.0724000162941876e-04  1.1006557860240904e-04  1.1296562524289384e-04 
 1.1594210535624910e-04  1.1899703459395643e-04  1.2213248182555537e-04  1.2535057054706715e-04 
 1.2865348032687368e-04  1.3204344829005095e-04  1.3552277064219462e-04  1.3909380423379620e-04 
 1.4275896816625985e-04  1.4652074544068195e-04  1.5038168465054326e-04  1.5434440171949366e-04 
 1.5841158168544838e-04  1.6258598053224180e-04  1.6687042707012073e-04  1.7126782486639875e-04 
 1.7578115422762171e-04  1.8041347423464069e-04  1.8516792483201869e-04  1.9004772897324615e-04 
 1.9505619482327173e-04  2.0019671801990363e-04  2.0547278399567852e-04  2.1088797036183691e-04 
 2.1644594935609065e-04  2.2215049035592078e-04  2.2800546245918272e-04  2.3401483713385182e-04 
 2.4018269093879562e-04  2.4651320831750725e-04  2.5301068446678850e-04  2.5967952828243371e-04 
 2.6652426538401709e-04  2.7354954122094696e-04  2.8076012426201356e-04  2.8816090927072152e-04 
 2.9575692066875249e-04  3.0355331598999201e-04  3.1155538942759708e-04  3.1976857547667364e-04 
 3.2819845267519592e-04  3.3685074744587589e-04  3.4573133804177594e-04  3.5484625859852500e-04 
 3.6420170329609679e-04  3.7380403063317562e-04  3.8365976781725385e-04  3.9377561527364818e-04 
 4.0415845127676975e-04  4.1481533670703255e-04  4.2575351993691813e-04  4.3698044184979851e-04 
 4.4850374099522774e-04  4.6033125888453146e-04  4.7247104543061887e-04  4.8493136453608640e-04 
 4.9772069983376277e-04  5.1084776058400901e-04  5.2432148773318837e-04  5.3815106013786491e-04 
 5.5234590095942456e-04  5.6691568423394747e-04  5.8187034162232056e-04  5.9722006934570233e-04 
 6.1297533531165592e-04  6.2914688643635587e-04  6.4574575616851797e-04  6.6278327222081275e-04 
 6.8027106451473045e-04  6.9822107334504386e-04  7.1664555777019865e-04  7.3555710423516875e-04 
 7.5496863543349040e-04  7.7489341941545031e-04  7.9534507894954995e-04  8.1633760114465748e-04 
 8.3788534734045069e-04  8.6000306327400997e-04  8.8270588953067103e-04  9.0600937228749157e-04 
 9.2992947435797360e-04  9.5448258654693124e-04  9.7968553932472886e-04  1.0055556148303260e-03 
 1.0321105592129834e-03  1.0593685953226989e-03  1.0873484357598461e-03  1.1160692962947827e-03 
 1.1455509096685861e-03  1.1758135397864043e-03  1.2068779963153291e-03  1.2387656496990692e-03 
 1.2714984466021130e-03  1.3050989257965028e-03  1.3395902345047809e-03  1.3749961452131257e-03 
 1.4113410729691865e-03  1.4486500931795623e-03  1.4869489599224799e-03  1.5262641247916508e-03 
 1.5666227562879365e-03  1.6080527597759492e-03  1.6505827980233432e-03  1.6942423123411921e-03 
 1.7390615443444524e-03  1.7850715583522130e-03  1.8323042644480857e-03  1.8807924422218959e-03 
 1.9305697652144591e-03  1.9816708260881810e-03  2.0341311625468213e-03  2.0879872840288260e-03 
 2.1432766991993537e-03  2.2000379442671100e-03  2.2583106121530343e-03  2.3181353825389279e-03 
 2.3795540528250376e-03  2.4426095700268041e-03  2.5073460636420557e-03  2.5738088795210670e-03 
 2.6420446147731574e-03  2.7121011537447788e-03  2.7840277051053340e-03  2.8578748400783609e-03 
 2.9336945318571414e-03  3.0115401962453117e-03  3.0914667335645673e-03  3.1735305718732817e-03 
 3.2577897115413589e-03  3.3443037712286732e-03  3.4331340353160487e-03  3.5243435028398089e-03 
 3.6179969379828768e-03  3.7141609221775147e-03  3.8129039078769688e-03  3.9142962740555442e-03 
 4.0184103834991543e-03  4.1253206419506151e-03  4.2351035591767904e-03  4.3478378120273484e-03 
 4.4636043095575891e-03  4.5824862602909444e-03  4.7045692416996998e-03  4.8299412719858088e-03 
 4.9586928842469229e-03  5.0909172031164658e-03  5.2267100239699925e-03  5.3661698947941872e-03 
 5.5093982008186659e-03  5.6564992520150752e-03  5.8075803735722293e-03  5.9627519994607811e-03 
 6.1221277692055116e-03  6.2858246279884821e-03  6.4539629302115022e-03  6.6266665466516925e-03 
 6.8040629753498292e-03  6.9862834563770067e-03  7.1734630906314439e-03  7.3657409628237859e-03 
 7.5632602688160628e-03  7.7661684474866618e-03  7.9746173173008850e-03  8.1887632177751347e-03 
 8.4087671560298238e-03  8.6347949586357761e-03  8.8670174289670299e-03  9.1056105102827155e-03 
 9.3507554547699531e-03  9.6026389987906545e-03  9.8614535445847688e-03  1.0127397348694670e-02 
 1.0400674717386283e-02  1.0681496209355015e-02  1.0970078846017221e-02  1.1266646329701356e-02 
 1.1571429270066535e-02  1.1884665419091191e-02  1.2206599914989236e-02  1.2537485535427344e-02 
 1.2877582960433230e-02  1.3227161045402511e-02  1.3586497104629286e-02  1.3955877205804799e-02 
 1.4335596475948247e-02  1.4725959419254291e-02  1.5127280247363073e-02  1.5539883222581576e-02 
 1.5964103014607951e-02  1.6400285071334907e-02  1.6848786004334596e-02  1.7309973989652408e-02 
 1.7784229184566281e-02  1.8271944160996229e-02  1.8773524356279055e-02  1.9289388542054399e-02 
 1.9819969312041563e-02  2.0365713589519392e-02  2.0927083155358347e-02  2.1504555197489294e-02 
 2.2098622882733190e-02  2.2709795951954336e-02  2.3338601339542672e-02  2.3985583818272458e-02 
 2.4651306670630119e-02  2.5336352387749870e-02  2.6041323397144444e-02  2.6766842820467516e-02 
 2.7513555262596780e-02  2.8282127633379388e-02  2.9073250003437693e-02  2.9887636495490023e-02 
 3.0726026212700659e-02  3.1589184205634432e-02  3.2477902479454132e-02  3.3393001043064745e-02 
 3.4335329001974224e-02  3.5305765696711643e-02  3.6305221888711894e-02  3.7334640995650689e-02 
 3.8395000378287601e-02  3.9487312680951743e-02  4.0612627227881413e-02  4.1772031477710699e-02 
 4.2966652538476029e-02  4.4197658745598049e-02  4.5466261305380062e-02  4.6773716006646163e-02 
 4.8121325003230658e-02  4.9510438670116189e-02  5.0942457536103797e-02  5.2418834295986871e-02 
 5.3941075905285969e-02  5.5510745760690192e-02  5.7129465969432316e-02  5.8798919710913278e-02 
 6.0520853693969319e-02  6.2297080713257076e-02  6.4129482308306993e-02  6.6020011528868522e-02 
 6.7970695810237958e-02  6.9983639962323041e-02  7.2061029276253491e-02  7.4205132752397693e-02 
 7.6418306453685608e-02  7.8702996988169197e-02  8.1061745124773349e-02  8.3497189546198489e-02 
 8.6012070742934474e-02  8.8609235052320240e-02  9.1291638846555390e-02  9.4062352873509419e-02 
 9.6924566754102576e-02  9.9881593639939342e-02  1.0293687503474547e-01  1.0609398578302184e-01 
 1.0935663922914717e-01  1.1272869254995155e-01  1.1621415226354882e-01  1.1981717991692381e-01 
 1.2354209795446564e-01  1.2739339576926514e-01  1.3137573593859317e-01  1.3549396064451566e-01 
 1.3975309828009416e-01  1.4415837024104949e-01  1.4871519790215096e-01  1.5342920977688779e-01 
 1.5830624885823943e-01  1.6335238013752490e-01  1.6857389829741398e-01  1.7397733557420109e-01 
 1.7956946978338545e-01  1.8535733250145045e-01  1.9134821739550223e-01  1.9754968869110132e-01 
 2.0396958976719412e-01  2.1061605186553511e-01  2.1749750290036235e-01  2.2462267635236843e-01 
 2.3200062022916829e-01  2.3964070607253590e-01  2.4755263799061678e-01  2.5574646169116894e-01 
 2.6423257348962009e-01  2.7302172926330909e-01  2.8212505332081761e-01  2.9155404715264333e-01 
 3.0132059802676792e-01  3.1143698738979719e-01  3.2191589903140894e-01  3.3277042696676107e-01 
 3.4401408298830743e-01  3.5566080383518034e-01  3.6772495792483428e-01  3.8022135158811110e-01 
 3.9316523474518639e-01  4.0657230595602600e-01  4.2045871677501845e-01  4.3484107533529393e-01 
 4.4973644908394966e-01  4.6516236658484766e-01  4.8113681830098542e-01  4.9767825626334572e-01 
 5.1480559252794744e-01  5.3253819631712784e-01  5.5089588973512127e-01  5.6989894194153934e-01 
 5.8956806165937792e-01  6.0992438788669190e-01  6.3098947867280408e-01  6.5278529781104189e-01 
 6.7533419929012983e-01  6.9865890933569519e-01  7.2278250586153625e-01  7.4772839513741429e-01 
 7.7352028546598095e-01  8.0018215764602951e-01  8.2773823198240315e-01  8.5621293158463785e-01 
 8.8563084167677997e-01  9.1601666461959075e-01  9.4739517032403264e-01  9.7979114171121839e-01 
 1.0132293148494305e+00  1.0477343133735701e+00  1.0833305767669490e+00  1.1200422820601934e+00 
 1.1578932584780386e+00  1.1969068945426260e+00  1.2371060371228546e+00  1.2785128819044793e+00 
 1.3211488547465491e+00  1.3650344833880999e+00  1.4101892589767424e+00  1.4566314869099370e+00 
 1.5043781265127645e+00  1.5534446191253348e+00  1.6038447042414594e+00  1.6555902234300235e+00 
 1.7086909118852800e+00  1.7631541775935604e+00  1.8189848682749787e+00  1.8761850264609383e+00 
 1.9347536333033153e+00  1.9946863419798393e+00  2.0559752018617523e+00  2.1186083749430247e+00 
 2.1825698463919387e+00  2.2478391314710762e+00  2.3143909814734149e+00  2.3821950917317318e+00 
 2.4512158151638741e+00  2.5214118852038441e+00  2.5927361523213719e+00  2.6651353386318810e+00 
 2.7385498153232639e+00  2.8129134077529327e+00  2.8881532330749939e+00  2.9641895751192608e+00 
 3.0409358009395184e+00  3.1182983229585837e+00  3.1961766099483584e+00  3.2744632491866374e+00 
 3.3530440610304688e+00  3.4317982658520974e+00  3.5105987018238913e+00  3.5893120904567488e+00 
 3.6677993451512485e+00  3.7459159163910636e+00  3.8235121656898405e+00  3.9004337591089682e+00 
 3.9765220702219546e+00  4.0516145819474048e+00  4.1255452768470819e+00  4.1981450064202468e+00 
 4.2692418317381149e+00  4.3386613305383435e+00  4.4062268696812588e+00  4.4717598466398165e+00 
 4.5350799093593839e+00  4.5960051701984268e+00  4.6543524364588436e+00  4.7099374868384647e+00 
 4.7625754294772040e+00  4.8120811825082637e+00  4.8582701214657149e+00  4.9009589387852834e+00 
 4.9399667582065474e+00  4.9751165404410065e+00  5.0062368054502846e+00  5.0331636807541953e+00 
 5.0557432643667752e+00  5.0738342656834892e+00  5.0873108588859637e+00  5.0960656527497665e+00 
 5.1000126503037917e+00  5.0990900443283280e+00  5.0932626733731059e+00  5.0825239512499429e+00 
 5.0668970841845047e+00  5.0464354069595814e+00  5.0212217045719587e+00  4.9913664399998847e+00 
 4.9570048807846128e+00  4.9182932043837910e+00  4.8754037595390205e+00  4.8285197608515160e+00 
 4.7778297869794519e+00  4.7235225283979956e+00  4.6657822767281178e+00  4.6047856527051589e+00 
 4.5407000239386948e+00  4.4736839598494988e+00  4.4038899075447775e+00  4.3314690534762885e+00 
 4.2565780741274173e+00  4.1793871961829847e+00  4.1000887127623393e+00  4.0189048743122910e+00 
 3.9360939309100980e+00  3.8519530851983257e+00  3.7668172514629417e+00  3.6810528204328223e+00 
 3.5950460939455517e+00  3.5091866471171529e+00  3.4238465428891898e+00  3.3393569907224325e+00 
 3.2559846227806002e+00  3.1739188094432706e+00  3.0932966627749328e+00  3.0141926416241565e+00 
 2.9366089271288853e+00  2.8604771234219353e+00  2.7856670603148457e+00  2.7120028382017360e+00 
 2.6392853226475332e+00  2.5673192455630596e+00  2.4959420389833102e+00  2.4250507062649018e+00 
 2.3546276920090468e+00  2.2847348177966413e+00  2.2154439497428746e+00  2.1468238607625807e+00 
 2.0789401508235645e+00  2.0118551789987991e+00  1.9456280071561762e+00  1.8803143550319539e+00 
 1.8159665665664593e+00  1.7526335871684204e+00  1.6903609516030618e+00  1.6291907821701230e+00 
 1.5691617968059726e+00  1.5103093267183454e+00  1.4526653431408389e+00  1.3962584927768378e+00 
 1.3411141414886929e+00  1.2872544257779099e+00  1.2346983115955714e+00  1.1834616600191534e+00 
 1.1335572993321337e+00  1.0849951030459302e+00  1.0377820734095811e+00  9.9192242996060442e-01 
 9.4741770268041914e-01  9.0426682932871794e-01  8.6246625654310893e-01  8.2201004430198310e-01 
 7.8288997335828758e-01  7.4509565526033972e-01  7.0861464463516466e-01  6.7343255329181717e-01 
 6.3953316583646747e-01  6.0689855643943991e-01  5.7550920639821679e-01  5.4534412214165240e-01 
 5.1638095331826861e-01  4.8859611060763253e-01  4.6196488288937659e-01  4.3646155340007742e-01 
 4.1205951450477091e-01  3.8873138070807550e-01  3.6644909953050120e-01  3.4518405987904333e-01 
 3.2490719754908581e-01  3.0558909751242846e-01  2.8720009262208412e-01  2.6971035847080971e-01 
 2.5309000407297677e-01  2.3730915811568815e-01  2.2233805054786895e-01  2.0814708931044637e-01 
 1.9470693204855183e-01  1.8198855268609254e-01  1.6996330278351515e-01  1.5860296764036044e-01 
 1.4787981714455725e-01  1.3776665140966157e-01  1.2823684127874541e-01  1.1926436380886110e-01 
 1.1082383288245078e-01  1.0289052512135460e-01  9.5440401304902001e-02  8.8450123515718140e-02 
 8.1897068255214200e-02  7.5759335785196544e-02  7.0015755962631002e-02  6.4645890841407927e-02 
 5.9630034318103431e-02  5.4949209098396228e-02  5.0585161257205413e-02  4.6520352659029950e-02 
 4.2737951495692948e-02  3.9221821187053946e-02  3.5956507876614814e-02  3.2927226738676124e-02 
 3.0119847297196897e-02  2.7520877939152848e-02  2.5117449787427505e-02  2.2897300080347904e-02 
 2.0848755187314608e-02  1.8960713372115242e-02  1.7222627404625383e-02  1.5624487095635185e-02 
 1.4156801827055223e-02  1.2810583131930712e-02  1.1577327369027923e-02  1.0448998527693643e-02 
 9.4180111910745490e-03  8.4772136796623168e-03  7.6198713923888075e-03  6.8396503590018891e-03 
 6.1306010150587453e-03  5.4871422094152009e-03  4.9040454533988871e-03  4.3764194207624608e-03 
 3.8996947078604664e-03  3.4696088641294632e-03  3.0821917037426286e-03  2.7337509101395935e-03 
 2.4208579459024694e-03  2.1403342810813468e-03  1.8892379535074212e-03  1.6648504748277297e-03 
 1.4646640959272469e-03  1.2863694450610673e-03  1.1278435514038264e-03  9.8713826584784312e-04 
 8.6246908976669824e-04  7.5220442113450219e-04  6.5485522588480487e-04  5.6906514074186131e-04 
 4.9360101199690193e-04  4.2734387286951972e-04  3.6928036022466882e-04  3.1849456954260156e-04 
 2.7416034519353545e-04  2.3553400127902319e-04  2.0194746659278113e-04  1.7280184564642050e-04 
 1.4756138621784801e-04  1.2574784252620722e-04  1.0693522192772268e-04  9.0744901969002129e-05 
 7.6841103732397731e-05  6.4926706663193180e-05  5.4739389479369172e-05  4.6048081327846466e-05 
 3.8649707060795108e-05  3.2366210354486544e-05  2.7041838372533476e-05  2.2540671775374698e-05 
 1.8744384088134716e-05  1.5550214748773348e-05  1.2869140544913606e-05  1.0624230642484758e-05 
 8.7491709196975681e-06  7.1869439213866537e-06  5.8886513772704637e-06  4.8124668895519959e-06 
 3.9227070794670054e-06  3.1890101796100061e-06  2.5856117609605381e-06  2.0907079831328686e-06 
 1.6858974469556718e-06  1.3556934043624450e-06  1.0870987368712913e-06  8.6923674658597281e-07 
 6.9303140935617977e-07  5.5093131591246760e-07  4.3667207153144118e-07  3.4507243679705816e-07 
 2.7185997057093435e-07  2.1352238113278330e-07  1.6718120280374513e-07  1.3048479379977072e-07 
 1.0151799747752885e-07  7.8726124692441586e-08  6.0851201058288792e-08  4.6878681012194555e-08 
 3.5993062395606794e-08  2.7541042484600948e-08  2.1001040804633896e-08  1.5958077417207078e-08 
 1.2083139421642798e-08  9.1162948860992266e-09  6.8529239602584160e-09  5.1325331059009580e-09 
 3.8297017037225727e-09  2.8467821550929873e-09  2.1080362977699208e-09  1.5549436960025142e-09 
 1.1424622480978693e-09  8.3605957882591555e-10  6.0936575361885275e-10  4.4232477716701592e-10 
 3.1974484355551171e-10  2.3016602892065732e-10  1.6497962462036349e-10  1.1774609264580891e-10 
 8.3669114859181800e-11  5.9191775047246788e-11  4.1687877141115167e-11  2.9227037383246724e-11 
 2.0396724883525788e-11  1.4168060187149884e-11  9.7950801345894228e-12  6.7394773159404937e-12 
 4.6146384005237973e-12  3.1442322564572731e-12  2.1317138813129385e-12  1.4379773269143798e-12 
 9.6506167671782683e-13  6.4433045332221250e-13  4.2794018724855875e-13  2.8271506499935541e-13 
 1.8577016604927622e-13  1.2140409104861129e-13  7.8902325426434124e-14  5.0993380020100930e-14 
 3.2769762295503503e-14  2.0938030836944459e-14  1.3300518392353745e-14  8.3992053364603246e-15 
 5.2724321740455974e-15  3.2896736195656786e-15  2.0399946124040226e-15  1.2572005589024210e-15 
 7.6991703514842865e-16  4.6850165544589684e-16  2.8324986907159906e-16  1.7013073071101787e-16 
 1.0151094511246188e-16  6.0161981924768829e-17  3.5413770549262085e-17  2.0702561563434631e-17 
 1.2018173960687744e-17  6.9274829344524821e-18  3.9645563419641685e-18  2.2524487915568918e-18 
 1.2703254172304524e-18  7.1110344462343513e-19  3.9506249320377002e-19  2.1780660263536044e-19 
 1.1915302318749148e-19  6.4673163420206298e-20  3.4824450162009638e-20  1.8601243388372389e-20 
 9.8549584813435822e-21  5.1782517210298531e-21  2.6983216588314012e-21  1.3943322701652369e-21 
 7.1450915152250578e-22  3.6314595908058509e-22  1.8313235004354399e-22  9.1722802156981051e-23 
 4.5722825393600794e-23  0.0000000000000000e+00  0.0000000000000000e+00  0.0000000000000000e+00 
 0.0000000000000000e+00  0.0000000000000000e+00  0.0000000000000000e+00  0.0000000000000000e+00 
 0.0000000000000000e+00  0.0000000000000000e+00  0.0000000000000000e+00  0.0000000000000000e+00 
 0.0000000000000000e+00  0.0000000000000000e+00  0.0000000000000000e+00  0.0000000000000000e+00 
 0.0000000000000000e+00  0.0000000000000000e+00  0.0000000000000000e+00  0.0000000000000000e+00 
 0.0000000000000000e+00  0.0000000000000000e+00  0.0000000000000000e+00  0.0000000000000000e+00 
 0.0000000000000000e+00  0.0000000000000000e+00  0.0000000000000000e+00  0.0000000000000000e+00 
 0.0000000000000000e+00  0.0000000000000000e+00  0.0000000000000000e+00  0.0000000000000000e+00 
 0.0000000000000000e+00  0.0000000000000000e+00  0.0000000000000000e+00  0.0000000000000000e+00 
 0.0000000000000000e+00  0.0000000000000000e+00  0.0000000000000000e+00  0.0000000000000000e+00 
 0.0000000000000000e+00  0.0000000000000000e+00  0.0000000000000000e+00  0.0000000000000000e+00 
 0.0000000000000000e+00  0.0000000000000000e+00  0.0000000000000000e+00  0.0000000000000000e+00 
 0.0000000000000000e+00  0.0000000000000000e+00  0.0000000000000000e+00  0.0000000000000000e+00 
 0.0000000000000000e+00  0.0000000000000000e+00  0.0000000000000000e+00  0.0000000000000000e+00 
 0.0000000000000000e+00  0.0000000000000000e+00  0.0000000000000000e+00  0.0000000000000000e+00 
 0.0000000000000000e+00  0.0000000000000000e+00  0.0000000000000000e+00  0.0000000000000000e+00 
 0.0000000000000000e+00  0.0000000000000000e+00  0.0000000000000000e+00  0.0000000000000000e+00 
 0.0000000000000000e+00  0.0000000000000000e+00  0.0000000000000000e+00  0.0000000000000000e+00 
 0.0000000000000000e+00  0.0000000000000000e+00  0.0000000000000000e+00  0.0000000000000000e+00 
 0.0000000000000000e+00  0.0000000000000000e+00  0.0000000000000000e+00  0.0000000000000000e+00 
 0.0000000000000000e+00  0.0000000000000000e+00  0.0000000000000000e+00  0.0000000000000000e+00 
 0.0000000000000000e+00  0.0000000000000000e+00  0.0000000000000000e+00  0.0000000000000000e+00 
 0.0000000000000000e+00  0.0000000000000000e+00  0.0000000000000000e+00  0.0000000000000000e+00 
 0.0000000000000000e+00  0.0000000000000000e+00  0.0000000000000000e+00  0.0000000000000000e+00 
 0.0000000000000000e+00  0.0000000000000000e+00 
</PP_RHOATOM>
